108
Lattice="12.515153631 0.0 0.0 0.0 12.515153631 0.0 0.0 0.0 25.30973" Properties=species:S:1:pos:R:3:move_mask:L:1:forces:R:3 stress="0.008230447148464595 3.183169654200462e-07 0.00013541578199516315 3.183169654200462e-07 0.008015314811913652 7.801886407354073e-07 0.00013541578199516315 7.801886407354073e-07 0.0019693646499625668" free_energy=-439.34122713 energy=-439.34115219 pbc="T T T"
Cu       1.25152000       1.25152000      10.00000000  F      -0.00608000      -0.00739000      -0.07401600
Cu       3.75455000       1.25152000      10.00000000  F       0.01828100      -0.00721300      -0.06505100
Cu       6.25758000       1.25152000      10.00000000  F      -0.01358800       0.00749900      -0.06092200
Cu       8.76061000       1.25152000      10.00000000  F       0.00298500       0.00613400      -0.04835700
Cu      11.26364000       1.25152000      10.00000000  F      -0.00439900       0.01016800      -0.07115700
Cu       1.25152000       3.75455000      10.00000000  F      -0.00388100       0.00853800      -0.06132100
Cu       3.75455000       3.75455000      10.00000000  F       0.00795200      -0.01479600      -0.05674200
Cu       6.25758000       3.75455000      10.00000000  F      -0.01499100      -0.01821700      -0.08039200
Cu       8.76061000       3.75455000      10.00000000  F       0.02719400      -0.01597400      -0.08901900
Cu      11.26364000       3.75455000      10.00000000  F      -0.01396800       0.00050500      -0.05534500
Cu       1.25152000       6.25758000      10.00000000  F      -0.00414300      -0.00691600      -0.06307700
Cu       3.75455000       6.25758000      10.00000000  F       0.00929600       0.01581700      -0.05702500
Cu       6.25758000       6.25758000      10.00000000  F      -0.01499200       0.02046100      -0.08333800
Cu       8.76061000       6.25758000      10.00000000  F       0.02576300       0.01697400      -0.08955900
Cu      11.26364000       6.25758000      10.00000000  F      -0.01360900       0.00107900      -0.05701000
Cu       1.25152000       8.76061000      10.00000000  F      -0.00569600       0.00379400      -0.07275700
Cu       3.75455000       8.76061000      10.00000000  F       0.01763700       0.00464500      -0.06376300
Cu       6.25758000       8.76061000      10.00000000  F      -0.01356700      -0.01180900      -0.05800700
Cu       8.76061000       8.76061000      10.00000000  F       0.00360300      -0.00878900      -0.04732600
Cu      11.26364000       8.76061000      10.00000000  F      -0.00474800      -0.01376000      -0.06992500
Cu       1.25152000      11.26364000      10.00000000  F      -0.00587500       0.00175100      -0.00714100
Cu       3.75455000      11.26364000      10.00000000  F       0.00632800       0.00131600      -0.06952600
Cu       6.25758000      11.26364000      10.00000000  F      -0.00846400       0.00177500      -0.07895300
Cu       8.76061000      11.26364000      10.00000000  F      -0.00926000       0.00140500      -0.07018700
Cu      11.26364000      11.26364000      10.00000000  F       0.01617500       0.00182000      -0.05808700
Cu       0.00000000       0.00000000      11.76991000  F      -0.01867900       0.04681900       0.04461300
Cu       2.50303000       0.00000000      11.76991000  F       0.05167700       0.01692000       0.05224400
Cu       5.00606000       0.00000000      11.76991000  F       0.05039700       0.10629500       0.07036800
Cu       7.50909000       0.00000000      11.76991000  F       0.00447300       0.07740300       0.07014900
Cu      10.01212000       0.00000000      11.76991000  F      -0.05878600       0.07620600       0.07418900
Cu       0.00000000       2.50303000      11.76991000  F      -0.06077100       0.06102400       0.06625500
Cu       2.50303000       2.50303000      11.76991000  F       0.03622400       0.06427200       0.08360200
Cu       5.00606000       2.50303000      11.76991000  F       0.00381000      -0.05285900       0.04528900
Cu       7.50909000       2.50303000      11.76991000  F      -0.03848600      -0.03363300       0.06469800
Cu      10.01212000       2.50303000      11.76991000  F       0.07969000      -0.03341200       0.03097600
Cu       0.00000000       5.00606000      11.76991000  F      -0.08325600       0.00085100       0.06261700
Cu       2.50303000       5.00606000      11.76991000  F       0.06396500       0.00103800       0.08679700
Cu       5.00606000       5.00606000      11.76991000  F      -0.03186700       0.00244500       0.10019700
Cu       7.50909000       5.00606000      11.76991000  F      -0.04594500       0.00229700       0.07668500
Cu      10.01212000       5.00606000      11.76991000  F       0.06883700       0.00027800       0.05421300
Cu       0.00000000       7.50909000      11.76991000  F      -0.06040900      -0.06551000       0.06720600
Cu       2.50303000       7.50909000      11.76991000  F       0.03646100      -0.06695500       0.08292900
Cu       5.00606000       7.50909000      11.76991000  F       0.00560500       0.04902600       0.04698700
Cu       7.50909000       7.50909000      11.76991000  F      -0.03922700       0.02988600       0.06627100
Cu      10.01212000       7.50909000      11.76991000  F       0.08032400       0.03142400       0.03114100
Cu       0.00000000      10.01212000      11.76991000  F      -0.01786800      -0.04485600       0.04238200
Cu       2.50303000      10.01212000      11.76991000  F       0.05272300      -0.01650400       0.05268300
Cu       5.00606000      10.01212000      11.76991000  F       0.05037600      -0.10344900       0.06935900
Cu       7.50909000      10.01212000      11.76991000  F       0.00464500      -0.07398700       0.06834000
Cu      10.01212000      10.01212000      11.76991000  F      -0.05936700      -0.07431000       0.07381100
Cu       1.26198000       1.24617000      13.57006000  T      -0.00022000      -0.00015900       0.00000200
Cu       3.78071000       1.25816000      13.59944000  T       0.00038800      -0.00001900      -0.00025100
Cu       6.27730000       1.28125000      13.61679000  T       0.00093000       0.00020700       0.00020700
Cu       8.75197000       1.27905000      13.60950000  T       0.00062000       0.00040700       0.00074100
Cu      11.25793000       1.26389000      13.59013000  T      -0.00050500       0.00028500       0.00071800
Cu       1.23375000       3.76623000      13.58650000  T      -0.00072000      -0.00008500      -0.00026600
Cu       3.77167000       3.74601000      13.59708000  T      -0.00029300      -0.00005000      -0.00048200
Cu       6.27338000       3.76236000      13.56816000  T       0.00025600       0.00001700       0.00033700
Cu       8.74837000       3.76184000      13.54909000  T      -0.00003000       0.00014900       0.00083100
Cu      11.24539000       3.77175000      13.61740000  T      -0.00130100       0.00017500       0.00146100
Cu       1.23374000       6.24563000      13.58640000  T      -0.00057200       0.00017300      -0.00031100
Cu       3.77173000       6.26616000      13.59703000  T      -0.00022600       0.00029400      -0.00051800
Cu       6.27372000       6.24985000      13.56844000  T       0.00022100       0.00014500       0.00028400
Cu       8.74853000       6.25023000      13.54905000  T      -0.00001400      -0.00018600       0.00077900
Cu      11.24544000       6.23956000      13.61671000  T      -0.00121100      -0.00036400       0.00141300
Cu       1.26239000       8.76503000      13.57006000  T      -0.00010100       0.00011700      -0.00000000
Cu       3.78100000       8.75377000      13.59939000  T       0.00044500       0.00002200      -0.00029000
Cu       6.27771000       8.73175000      13.61659000  T       0.00084400      -0.00018100       0.00009100
Cu       8.75216000       8.73358000      13.60918000  T       0.00058100      -0.00044900       0.00058700
Cu      11.25842000       8.74834000      13.58978000  T      -0.00038300      -0.00039800       0.00063200
Cu       1.25078000      11.26361000      13.59122000  T       0.00015400      -0.00007500      -0.00008600
Cu       3.74595000      11.26384000      13.57442000  T       0.00049000      -0.00008100      -0.00018300
Cu       6.25550000      11.26437000      13.56684000  T       0.00081900      -0.00003100      -0.00010100
Cu       8.75794000      11.26394000      13.57159000  T       0.00062800      -0.00006900       0.00003800
Cu      11.27161000      11.26395000      13.56953000  T       0.00006500      -0.00006200       0.00017400
Cu      12.51002000      12.51304000      15.36214000  T       0.00042700      -0.00010200      -0.00019600
Cu       2.50582000       0.00761000      15.36436000  T       0.00057700      -0.00000400      -0.00031400
Cu       5.00502000      12.48436000      15.35855000  T       0.00054400       0.00006000      -0.00052800
Cu       7.50742000      12.50517000      15.34773000  T       0.00039500       0.00026100      -0.00016300
Cu      10.01325000      12.49247000      15.34835000  T       0.00028100       0.00030700       0.00017500
Cu       0.04679000       2.47016000      15.35197000  T      -0.00048400      -0.00003200       0.00007300
Cu       2.51066000       2.50711000      15.34915000  T       0.00004200       0.00001300      -0.00081500
Cu       4.98760000       2.41703000      15.47312000  T      -0.00017500      -0.00031300      -0.00177600
Cu       7.53317000       2.54559000      15.47471000  T       0.00131900       0.00135100       0.00105100
Cu      10.08912000       2.44031000      15.42548000  T      -0.00093500       0.00134400       0.00265700
Cu       0.00020000       5.00672000      15.46495000  T      -0.00227700      -0.00013400      -0.00040400
Cu       2.47910000       5.00591000      15.34401000  T      -0.00138500       0.00006900      -0.00101900
Pd       5.00465000       5.00605000      15.51125000  T      -0.00708100       0.00036300      -0.00343600
Y        7.55403000       5.00630000      17.42821000  T      -0.00349400      -0.00007400      -0.00173300
Cu       9.91977000       5.00566000      15.40979000  T      -0.00415000      -0.00020700       0.00385500
Cu       0.04652000       7.54322000      15.35207000  T      -0.00031500      -0.00011600       0.00003400
Cu       2.51057000       7.50426000      15.34904000  T       0.00021300       0.00012000      -0.00080200
Cu       4.98772000       7.59483000      15.47306000  T      -0.00009800       0.00054200      -0.00173300
Cu       7.53326000       7.46747000      15.47486000  T       0.00128400      -0.00116400       0.00093900
Cu      10.08888000       7.57096000      15.42413000  T      -0.00076700      -0.00153000       0.00236100
Cu      12.51117000      10.01526000      15.36224000  T       0.00043400      -0.00002400      -0.00021500
Cu       2.50705000      10.00466000      15.36409000  T       0.00059100       0.00001300      -0.00033200
Cu       5.00634000      10.04192000      15.35785000  T       0.00051900       0.00010500      -0.00050900
Cu       7.50855000      10.02262000      15.34783000  T       0.00035800      -0.00025600      -0.00023700
Cu      10.01427000      10.03375000      15.34798000  T       0.00026300      -0.00045600       0.00012800
O        6.12364000       3.44807000      16.62142000  T      -0.00040800       0.00257500      -0.00195100
O        6.12379000       6.56435000      16.62137000  T      -0.00037500      -0.00245800      -0.00199700
O        8.98549000       6.44802000      16.48792000  T      -0.00289500      -0.00127700       0.00435800
O        8.98558000       3.56377000      16.48876000  T      -0.00287100       0.00108200       0.00460000
C       12.14415000       5.01615000      17.28080000  T       0.00528300       0.00014400       0.00338800
O        7.82895000       5.00765000      19.42292000  T      -0.02373300       0.00010900      -0.00175300
O       11.92026000       5.02329000      18.41285000  T       0.01330000       0.00040100      -0.00102900
H        8.22718000       5.00760000      20.30119000  T      -0.04774900      -0.00002100       0.01551800
108
Lattice="12.515153631 0.0 0.0 0.0 12.515153631 0.0 0.0 0.0 25.30973" Properties=species:S:1:pos:R:3:move_mask:L:1:forces:R:3 stress="0.008192180456013805 3.3704149279769594e-07 0.00013620845365415035 3.3704149279769594e-07 0.007976873357207337 8.051546772389402e-07 0.00013620845365415035 8.051546772389402e-07 0.0019278336482389396" free_energy=-439.34417874 energy=-439.34410166 pbc="T T T"
Cu       1.25152000       1.25152000      10.00000000  F      -0.00593000      -0.00751500      -0.07403200
Cu       3.75455000       1.25152000      10.00000000  F       0.01867000      -0.00725400      -0.06520500
Cu       6.25758000       1.25152000      10.00000000  F      -0.01336600       0.00743900      -0.06102600
Cu       8.76061000       1.25152000      10.00000000  F       0.00319400       0.00612600      -0.04844400
Cu      11.26364000       1.25152000      10.00000000  F      -0.00439300       0.01005800      -0.07146400
Cu       1.25152000       3.75455000      10.00000000  F      -0.00371200       0.00869000      -0.06144200
Cu       3.75455000       3.75455000      10.00000000  F       0.00820700      -0.01475000      -0.05688100
Cu       6.25758000       3.75455000      10.00000000  F      -0.01473100      -0.01814000      -0.08045200
Cu       8.76061000       3.75455000      10.00000000  F       0.02736800      -0.01589800      -0.08903600
Cu      11.26364000       3.75455000      10.00000000  F      -0.01385100       0.00053400      -0.05540700
Cu       1.25152000       6.25758000      10.00000000  F      -0.00396200      -0.00693300      -0.06317100
Cu       3.75455000       6.25758000      10.00000000  F       0.00959800       0.01593600      -0.05709600
Cu       6.25758000       6.25758000      10.00000000  F      -0.01472900       0.02055400      -0.08327800
Cu       8.76061000       6.25758000      10.00000000  F       0.02590000       0.01709400      -0.08950900
Cu      11.26364000       6.25758000      10.00000000  F      -0.01352000       0.00118300      -0.05702500
Cu       1.25152000       8.76061000      10.00000000  F      -0.00554900       0.00386900      -0.07276700
Cu       3.75455000       8.76061000      10.00000000  F       0.01803800       0.00461500      -0.06375400
Cu       6.25758000       8.76061000      10.00000000  F      -0.01332700      -0.01182900      -0.05780400
Cu       8.76061000       8.76061000      10.00000000  F       0.00380700      -0.00885700      -0.04727300
Cu      11.26364000       8.76061000      10.00000000  F      -0.00475700      -0.01370100      -0.07016600
Cu       1.25152000      11.26364000      10.00000000  F      -0.00580000       0.00164300      -0.00804700
Cu       3.75455000      11.26364000      10.00000000  F       0.00656700       0.00119700      -0.06962100
Cu       6.25758000      11.26364000      10.00000000  F      -0.00829500       0.00166500      -0.07894500
Cu       8.76061000      11.26364000      10.00000000  F      -0.00900900       0.00126700      -0.07019800
Cu      11.26364000      11.26364000      10.00000000  F       0.01640200       0.00171500      -0.05861900
Cu       0.00000000       0.00000000      11.76991000  F      -0.01863700       0.04665500       0.04460200
Cu       2.50303000       0.00000000      11.76991000  F       0.05188400       0.01680300       0.05227500
Cu       5.00606000       0.00000000      11.76991000  F       0.05066100       0.10627800       0.07029700
Cu       7.50909000       0.00000000      11.76991000  F       0.00470600       0.07740300       0.07014300
Cu      10.01212000       0.00000000      11.76991000  F      -0.05856700       0.07612200       0.07413600
Cu       0.00000000       2.50303000      11.76991000  F      -0.06072200       0.06112200       0.06632100
Cu       2.50303000       2.50303000      11.76991000  F       0.03644400       0.06435000       0.08362000
Cu       5.00606000       2.50303000      11.76991000  F       0.00406000      -0.05283900       0.04520400
Cu       7.50909000       2.50303000      11.76991000  F      -0.03821500      -0.03357200       0.06464400
Cu      10.01212000       2.50303000      11.76991000  F       0.07985300      -0.03334200       0.03095600
Cu       0.00000000       5.00606000      11.76991000  F      -0.08320500       0.00093500       0.06263900
Cu       2.50303000       5.00606000      11.76991000  F       0.06413200       0.00109600       0.08674700
Cu       5.00606000       5.00606000      11.76991000  F      -0.03156400       0.00247700       0.10015500
Cu       7.50909000       5.00606000      11.76991000  F      -0.04564500       0.00236100       0.07666300
Cu      10.01212000       5.00606000      11.76991000  F       0.06896800       0.00038000       0.05424800
Cu       0.00000000       7.50909000      11.76991000  F      -0.06040600      -0.06554900       0.06728700
Cu       2.50303000       7.50909000      11.76991000  F       0.03662300      -0.06699400       0.08295000
Cu       5.00606000       7.50909000      11.76991000  F       0.00588100       0.04903000       0.04689700
Cu       7.50909000       7.50909000      11.76991000  F      -0.03891100       0.02986500       0.06624500
Cu      10.01212000       7.50909000      11.76991000  F       0.08051700       0.03141000       0.03117000
Cu       0.00000000      10.01212000      11.76991000  F      -0.01785100      -0.04485500       0.04236300
Cu       2.50303000      10.01212000      11.76991000  F       0.05287900      -0.01650500       0.05271000
Cu       5.00606000      10.01212000      11.76991000  F       0.05065800      -0.10351200       0.06927800
Cu       7.50909000      10.01212000      11.76991000  F       0.00490200      -0.07411200       0.06834600
Cu      10.01212000      10.01212000      11.76991000  F      -0.05911200      -0.07440600       0.07378300
Cu       1.26198000       1.24617000      13.57006000  T      -0.00018000      -0.00022300      -0.00013900
Cu       3.78071000       1.25816000      13.59944000  T       0.00063300      -0.00016700      -0.00066800
Cu       6.27730000       1.28125000      13.61680000  T       0.00158800       0.00016000       0.00000800
Cu       8.75197000       1.27906000      13.60951000  T       0.00112900       0.00049000       0.00086300
Cu      11.25792000       1.26389000      13.59014000  T      -0.00047700       0.00040900       0.00075500
Cu       1.23375000       3.76623000      13.58651000  T      -0.00105100      -0.00024300      -0.00067600
Cu       3.77167000       3.74602000      13.59709000  T      -0.00051700      -0.00029400      -0.00123300
Cu       6.27338000       3.76237000      13.56817000  T       0.00070300      -0.00009300      -0.00001200
Cu       8.74837000       3.76184000      13.54910000  T       0.00027200       0.00024100       0.00086100
Cu      11.24538000       3.77176000      13.61741000  T      -0.00167800       0.00021800       0.00178100
Cu       1.23374000       6.24563000      13.58641000  T      -0.00093700       0.00034600      -0.00066600
Cu       3.77174000       6.26616000      13.59703000  T      -0.00045800       0.00051000      -0.00123100
Cu       6.27371000       6.24985000      13.56844000  T       0.00075900       0.00031600      -0.00004100
Cu       8.74852000       6.25023000      13.54906000  T       0.00050400      -0.00021300       0.00088200
Cu      11.24543000       6.23956000      13.61672000  T      -0.00159700      -0.00035300       0.00179600
Cu       1.26239000       8.76503000      13.57006000  T      -0.00018300       0.00013800      -0.00009600
Cu       3.78100000       8.75376000      13.59939000  T       0.00066300       0.00021600      -0.00064000
Cu       6.27771000       8.73174000      13.61660000  T       0.00163300      -0.00011600      -0.00007100
Cu       8.75216000       8.73357000      13.60918000  T       0.00117200      -0.00062300       0.00073400
Cu      11.25842000       8.74834000      13.58978000  T      -0.00036300      -0.00059800       0.00072200
Cu       1.25078000      11.26361000      13.59122000  T       0.00031000      -0.00009700      -0.00018500
Cu       3.74595000      11.26384000      13.57442000  T       0.00074300      -0.00003500      -0.00043200
Cu       6.25550000      11.26437000      13.56684000  T       0.00151300      -0.00006900      -0.00029300
Cu       8.75794000      11.26394000      13.57159000  T       0.00116600      -0.00015600       0.00005100
Cu      11.27160000      11.26395000      13.56954000  T       0.00028000      -0.00022000       0.00009700
Cu      12.51002000      12.51304000      15.36214000  T       0.00076200      -0.00029300      -0.00026300
Cu       2.50582000       0.00761000      15.36436000  T       0.00087300      -0.00009200      -0.00044200
Cu       5.00502000      12.48436000      15.35855000  T       0.00094400       0.00000900      -0.00067500
Cu       7.50742000      12.50517000      15.34773000  T       0.00088700       0.00024400      -0.00012600
Cu      10.01325000      12.49247000      15.34835000  T       0.00065400       0.00027300       0.00028000
Cu       0.04678000       2.47016000      15.35197000  T      -0.00054900      -0.00017900       0.00010300
Cu       2.51066000       2.50712000      15.34915000  T       0.00005700      -0.00011000      -0.00111800
Cu       4.98760000       2.41704000      15.47312000  T       0.00015900      -0.00047300      -0.00212900
Cu       7.53317000       2.54560000      15.47471000  T       0.00214600       0.00172100       0.00166400
Cu      10.08911000       2.44032000      15.42548000  T      -0.00157700       0.00236700       0.00464400
Cu       0.00019000       5.00672000      15.46494000  T      -0.00354700      -0.00010900      -0.00033000
Cu       2.47911000       5.00591000      15.34401000  T      -0.00259200       0.00009000      -0.00148400
Pd       5.00466000       5.00605000      15.51125000  T      -0.01556400       0.00044300      -0.00663600
Y        7.55399000       5.00630000      17.42818000  T      -0.00606900      -0.00002400       0.00095700
Cu       9.91976000       5.00566000      15.40979000  T      -0.00619500      -0.00020200       0.00601600
Cu       0.04652000       7.54322000      15.35208000  T      -0.00040500      -0.00002500       0.00001600
Cu       2.51057000       7.50426000      15.34904000  T       0.00020700       0.00027700      -0.00104000
Cu       4.98771000       7.59483000      15.47305000  T       0.00024800       0.00088500      -0.00202000
Cu       7.53326000       7.46746000      15.47486000  T       0.00228100      -0.00142900       0.00152500
Cu      10.08888000       7.57096000      15.42413000  T      -0.00139900      -0.00268000       0.00418900
Cu      12.51117000      10.01525000      15.36224000  T       0.00070300      -0.00002300      -0.00030700
Cu       2.50705000      10.00466000      15.36408000  T       0.00084400       0.00009400      -0.00042500
Cu       5.00634000      10.04192000      15.35785000  T       0.00094000       0.00024600      -0.00059100
Cu       7.50854000      10.02262000      15.34783000  T       0.00091500      -0.00032700      -0.00022000
Cu      10.01427000      10.03375000      15.34798000  T       0.00063300      -0.00067800       0.00017200
O        6.12365000       3.44809000      16.62143000  T      -0.00219200       0.00140100      -0.00478300
O        6.12380000       6.56433000      16.62138000  T      -0.00201500      -0.00115300      -0.00489500
O        8.98547000       6.44800000      16.48793000  T      -0.00178300       0.00073000       0.00498600
O        8.98556000       3.56379000      16.48876000  T      -0.00183600      -0.00074500       0.00575100
C       12.14423000       5.01615000      17.28085000  T       0.00738100       0.00019100      -0.00406300
O        7.82873000       5.00766000      19.42287000  T      -0.02737800       0.00010100       0.00434500
O       11.92042000       5.02329000      18.41284000  T       0.01353100       0.00063100       0.00689200
H        8.22629000       5.00760000      20.30144000  T      -0.04884300      -0.00001000       0.01482700
108
Lattice="12.515153631 0.0 0.0 0.0 12.515153631 0.0 0.0 0.0 25.30973" Properties=species:S:1:pos:R:3:move_mask:L:1:forces:R:3 stress="0.008189421708980165 2.8086791066474663e-07 0.00013469176693656072 2.8086791066474663e-07 0.007974807417686669 6.615999673436253e-07 0.00013469176693656072 6.615999673436253e-07 0.0019316846593696098" free_energy=-439.33238514 energy=-439.33230969 pbc="T T T"
Cu       1.25152000       1.25152000      10.00000000  F      -0.00595300      -0.00744200      -0.07396100
Cu       3.75455000       1.25152000      10.00000000  F       0.01827200      -0.00709900      -0.06499700
Cu       6.25758000       1.25152000      10.00000000  F      -0.01394100       0.00761300      -0.06094400
Cu       8.76061000       1.25152000      10.00000000  F       0.00282300       0.00628600      -0.04856900
Cu      11.26364000       1.25152000      10.00000000  F      -0.00446600       0.01011600      -0.07160700
Cu       1.25152000       3.75455000      10.00000000  F      -0.00374400       0.00863100      -0.06138000
Cu       3.75455000       3.75455000      10.00000000  F       0.00781800      -0.01489600      -0.05670900
Cu       6.25758000       3.75455000      10.00000000  F      -0.01529400      -0.01830500      -0.08041400
Cu       8.76061000       3.75455000      10.00000000  F       0.02699500      -0.01601400      -0.08914600
Cu      11.26364000       3.75455000      10.00000000  F      -0.01393600       0.00049800      -0.05552600
Cu       1.25152000       6.25758000      10.00000000  F      -0.00410300      -0.00706800      -0.06312200
Cu       3.75455000       6.25758000      10.00000000  F       0.00903600       0.01564300      -0.05709100
Cu       6.25758000       6.25758000      10.00000000  F      -0.01525700       0.02030600      -0.08357800
Cu       8.76061000       6.25758000      10.00000000  F       0.02570500       0.01679200      -0.08972800
Cu      11.26364000       6.25758000      10.00000000  F      -0.01353000       0.00107000      -0.05715200
Cu       1.25152000       8.76061000      10.00000000  F      -0.00569900       0.00387000      -0.07274600
Cu       3.75455000       8.76061000      10.00000000  F       0.01751000       0.00462700      -0.06403800
Cu       6.25758000       8.76061000      10.00000000  F      -0.01390400      -0.01181000      -0.05872500
Cu       8.76061000       8.76061000      10.00000000  F       0.00356000      -0.00887200      -0.04768200
Cu      11.26364000       8.76061000      10.00000000  F      -0.00473300      -0.01369900      -0.07032500
Cu       1.25152000      11.26364000      10.00000000  F      -0.00593200       0.00178800      -0.00796700
Cu       3.75455000      11.26364000      10.00000000  F       0.00602300       0.00150200      -0.06960200
Cu       6.25758000      11.26364000      10.00000000  F      -0.00884100       0.00191500      -0.07929200
Cu       8.76061000      11.26364000      10.00000000  F      -0.00921200       0.00156300      -0.07045500
Cu      11.26364000      11.26364000      10.00000000  F       0.01640500       0.00183100      -0.05874600
Cu       0.00000000       0.00000000      11.76991000  F      -0.01855900       0.04673400       0.04497800
Cu       2.50303000       0.00000000      11.76991000  F       0.05188400       0.01679700       0.05254000
Cu       5.00606000       0.00000000      11.76991000  F       0.05021800       0.10618100       0.07058800
Cu       7.50909000       0.00000000      11.76991000  F       0.00409400       0.07740900       0.07049700
Cu      10.01212000       0.00000000      11.76991000  F      -0.05883300       0.07622400       0.07452500
Cu       0.00000000       2.50303000      11.76991000  F      -0.06082100       0.06110600       0.06672400
Cu       2.50303000       2.50303000      11.76991000  F       0.03628200       0.06418000       0.08378900
Cu       5.00606000       2.50303000      11.76991000  F       0.00362000      -0.05294600       0.04545200
Cu       7.50909000       2.50303000      11.76991000  F      -0.03880400      -0.03362200       0.06500200
Cu      10.01212000       2.50303000      11.76991000  F       0.07956100      -0.03329900       0.03134700
Cu       0.00000000       5.00606000      11.76991000  F      -0.08339600       0.00088600       0.06307800
Cu       2.50303000       5.00606000      11.76991000  F       0.06391300       0.00106600       0.08690000
Cu       5.00606000       5.00606000      11.76991000  F      -0.03201200       0.00254000       0.10038600
Cu       7.50909000       5.00606000      11.76991000  F      -0.04631300       0.00239400       0.07702200
Cu      10.01212000       5.00606000      11.76991000  F       0.06870800       0.00031400       0.05460800
Cu       0.00000000       7.50909000      11.76991000  F      -0.06046200      -0.06556000       0.06766300
Cu       2.50303000       7.50909000      11.76991000  F       0.03655400      -0.06681500       0.08308900
Cu       5.00606000       7.50909000      11.76991000  F       0.00542500       0.04915200       0.04716800
Cu       7.50909000       7.50909000      11.76991000  F      -0.03951200       0.02989300       0.06660300
Cu      10.01212000       7.50909000      11.76991000  F       0.08015700       0.03134200       0.03149900
Cu       0.00000000      10.01212000      11.76991000  F      -0.01773900      -0.04485900       0.04270000
Cu       2.50303000      10.01212000      11.76991000  F       0.05297200      -0.01643900       0.05296000
Cu       5.00606000      10.01212000      11.76991000  F       0.05020400      -0.10343800       0.06960600
Cu       7.50909000      10.01212000      11.76991000  F       0.00427100      -0.07410900       0.06869900
Cu      10.01212000      10.01212000      11.76991000  F      -0.05946800      -0.07442800       0.07411400
Cu       1.26196000       1.24616000      13.57005000  T       0.00001300      -0.00003900       0.00007400
Cu       3.78072000       1.25815000      13.59940000  T       0.00028400      -0.00016900      -0.00027000
Cu       6.27735000       1.28125000      13.61680000  T       0.00049800       0.00003700       0.00004100
Cu       8.75202000       1.27908000      13.60955000  T       0.00021200       0.00034100       0.00057300
Cu      11.25789000       1.26392000      13.59018000  T      -0.00032000       0.00035200       0.00056800
Cu       1.23368000       3.76620000      13.58647000  T      -0.00051600      -0.00013200      -0.00016300
Cu       3.77160000       3.74598000      13.59700000  T      -0.00029100      -0.00024100      -0.00063000
Cu       6.27339000       3.76235000      13.56816000  T       0.00024600      -0.00009500       0.00003100
Cu       8.74837000       3.76185000      13.54914000  T      -0.00001500       0.00010200       0.00066600
Cu      11.24529000       3.77176000      13.61750000  T      -0.00087400       0.00011400       0.00097900
Cu       1.23367000       6.24565000      13.58637000  T      -0.00048100       0.00010900      -0.00016800
Cu       3.77167000       6.26618000      13.59695000  T      -0.00032300       0.00023700      -0.00066700
Cu       6.27372000       6.24986000      13.56844000  T       0.00024700       0.00003500      -0.00002800
Cu       8.74854000       6.25021000      13.54911000  T       0.00007600      -0.00024000       0.00061100
Cu      11.24534000       6.23954000      13.61682000  T      -0.00079400      -0.00025200       0.00094500
Cu       1.26237000       8.76505000      13.57005000  T       0.00000800       0.00005200       0.00005700
Cu       3.78101000       8.75379000      13.59936000  T       0.00024500       0.00025300      -0.00028300
Cu       6.27777000       8.73175000      13.61660000  T       0.00049400       0.00006900      -0.00004000
Cu       8.75221000       8.73355000      13.60923000  T       0.00026100      -0.00031200       0.00045000
Cu      11.25839000       8.74831000      13.58983000  T      -0.00022600      -0.00036800       0.00051000
Cu       1.25079000      11.26362000      13.59121000  T       0.00027500       0.00001100       0.00003100
Cu       3.74597000      11.26385000      13.57441000  T       0.00034100       0.00006500      -0.00013500
Cu       6.25555000      11.26438000      13.56683000  T       0.00036400       0.00007300      -0.00004100
Cu       8.75798000      11.26394000      13.57160000  T       0.00016800       0.00004300       0.00021200
Cu      11.27162000      11.26395000      13.56954000  T       0.00004200      -0.00002000       0.00024700
Cu      12.51005000      12.51302000      15.36213000  T       0.00030500      -0.00005100       0.00000100
Cu       2.50585000       0.00761000      15.36433000  T       0.00037600      -0.00001300      -0.00021800
Cu       5.00505000      12.48436000      15.35851000  T       0.00030500      -0.00002000      -0.00037200
Cu       7.50745000      12.50518000      15.34773000  T       0.00020600       0.00018200      -0.00001900
Cu      10.01328000      12.49249000      15.34837000  T       0.00014400       0.00026800       0.00026400
Cu       0.04674000       2.47014000      15.35198000  T      -0.00035300      -0.00004300       0.00011900
Cu       2.51065000       2.50710000      15.34908000  T      -0.00007900      -0.00012500      -0.00047800
Cu       4.98756000       2.41698000      15.47298000  T      -0.00012700      -0.00041700      -0.00109900
Cu       7.53326000       2.54568000      15.47480000  T       0.00063700       0.00061800       0.00057500
Cu      10.08901000       2.44044000      15.42576000  T      -0.00077200       0.00106800       0.00188900
Cu      -0.00002000       5.00671000      15.46491000  T      -0.00174600      -0.00008600      -0.00007800
Cu       2.47889000       5.00591000      15.34392000  T      -0.00143500      -0.00001100      -0.00063800
Pd       5.00422000       5.00607000      15.51106000  T      -0.00629500      -0.00008900      -0.00264700
Y        7.55351000       5.00629000      17.42836000  T      -0.00444400      -0.00008400       0.00123100
Cu       9.91938000       5.00564000      15.41016000  T      -0.00259400      -0.00016800       0.00247900
Cu       0.04649000       7.54322000      15.35209000  T      -0.00026000      -0.00004500       0.00011300
Cu       2.51056000       7.50427000      15.34899000  T      -0.00007800       0.00017600      -0.00042700
Cu       4.98768000       7.59491000      15.47294000  T      -0.00016900       0.00060200      -0.00095200
Cu       7.53335000       7.46740000      15.47495000  T       0.00070500      -0.00043200       0.00047900
Cu      10.08879000       7.57081000      15.42439000  T      -0.00056200      -0.00113600       0.00170800
Cu      12.51120000      10.01526000      15.36223000  T       0.00029700       0.00000500       0.00000100
Cu       2.50708000      10.00468000      15.36407000  T       0.00034000       0.00011200      -0.00019500
Cu       5.00637000      10.04194000      15.35783000  T       0.00027300       0.00029100      -0.00030900
Cu       7.50857000      10.02261000      15.34783000  T       0.00022600      -0.00001500      -0.00001500
Cu      10.01429000      10.03372000      15.34800000  T       0.00016400      -0.00028700       0.00025000
O        6.12343000       3.44821000      16.62106000  T      -0.00055100       0.00053600      -0.00187600
O        6.12360000       6.56421000      16.62101000  T      -0.00044800      -0.00068000      -0.00169700
O        8.98530000       6.44807000      16.48845000  T      -0.00055100      -0.00018400       0.00213200
O        8.98537000       3.56370000      16.48933000  T      -0.00061400      -0.00013200       0.00220900
C       12.14481000       5.01617000      17.28092000  T       0.00555800       0.00014900       0.00026700
O        7.82602000       5.00765000      19.42345000  T      -0.01770400       0.00011900       0.00078400
O       11.92180000       5.02334000      18.41311000  T       0.01009900       0.00027700       0.00154900
H        8.22238000       5.00760000      20.30259000  T      -0.04833700       0.00004400       0.01336300
108
Lattice="12.515153631 0.0 0.0 0.0 12.515153631 0.0 0.0 0.0 25.30973" Properties=species:S:1:pos:R:3:move_mask:L:1:forces:R:3 stress="0.008186126192161698 3.4952451104946246e-07 0.00013203288404893445 3.4952451104946246e-07 0.007972173500835546 7.677056224836408e-07 0.00013203288404893445 7.677056224836408e-07 0.0019275839878739043" free_energy=-439.33267511 energy=-439.33260069 pbc="T T T"
Cu       1.25152000       1.25152000      10.00000000  F      -0.00622000      -0.00758800      -0.07387500
Cu       3.75455000       1.25152000      10.00000000  F       0.01805100      -0.00722200      -0.06506000
Cu       6.25758000       1.25152000      10.00000000  F      -0.01390200       0.00748500      -0.06102500
Cu       8.76061000       1.25152000      10.00000000  F       0.00295900       0.00612200      -0.04853100
Cu      11.26364000       1.25152000      10.00000000  F      -0.00453200       0.00994400      -0.07146400
Cu       1.25152000       3.75455000      10.00000000  F      -0.00398300       0.00852800      -0.06139400
Cu       3.75455000       3.75455000      10.00000000  F       0.00760500      -0.01498500      -0.05684800
Cu       6.25758000       3.75455000      10.00000000  F      -0.01527400      -0.01838900      -0.08059800
Cu       8.76061000       3.75455000      10.00000000  F       0.02709800      -0.01612300      -0.08920800
Cu      11.26364000       3.75455000      10.00000000  F      -0.01398800       0.00038500      -0.05550700
Cu       1.25152000       6.25758000      10.00000000  F      -0.00433700      -0.00699200      -0.06313600
Cu       3.75455000       6.25758000      10.00000000  F       0.00882800       0.01571100      -0.05722000
Cu       6.25758000       6.25758000      10.00000000  F      -0.01523700       0.02037700      -0.08375500
Cu       8.76061000       6.25758000      10.00000000  F       0.02580300       0.01688100      -0.08978900
Cu      11.26364000       6.25758000      10.00000000  F      -0.01358600       0.00115400      -0.05713900
Cu       1.25152000       8.76061000      10.00000000  F      -0.00596000       0.00401600      -0.07266100
Cu       3.75455000       8.76061000      10.00000000  F       0.01729900       0.00474800      -0.06408000
Cu       6.25758000       8.76061000      10.00000000  F      -0.01386600      -0.01168600      -0.05879300
Cu       8.76061000       8.76061000      10.00000000  F       0.00368900      -0.00871100      -0.04764000
Cu      11.26364000       8.76061000      10.00000000  F      -0.00480400      -0.01352600      -0.07018900
Cu       1.25152000      11.26364000      10.00000000  F      -0.00622100       0.00179800      -0.00782200
Cu       3.75455000      11.26364000      10.00000000  F       0.00580700       0.00150700      -0.06962700
Cu       6.25758000      11.26364000      10.00000000  F      -0.00879100       0.00191400      -0.07931700
Cu       8.76061000      11.26364000      10.00000000  F      -0.00906400       0.00156800      -0.07035700
Cu      11.26364000      11.26364000      10.00000000  F       0.01633300       0.00184000      -0.05850600
Cu       0.00000000       0.00000000      11.76991000  F      -0.01885600       0.04661600       0.04503900
Cu       2.50303000       0.00000000      11.76991000  F       0.05147200       0.01667300       0.05244900
Cu       5.00606000       0.00000000      11.76991000  F       0.05015100       0.10605300       0.07046100
Cu       7.50909000       0.00000000      11.76991000  F       0.00439000       0.07729700       0.07044000
Cu      10.01212000       0.00000000      11.76991000  F      -0.05867600       0.07609400       0.07455700
Cu       0.00000000       2.50303000      11.76991000  F      -0.06117200       0.06085600       0.06672100
Cu       2.50303000       2.50303000      11.76991000  F       0.03581100       0.06388200       0.08361200
Cu       5.00606000       2.50303000      11.76991000  F       0.00353500      -0.05314800       0.04530200
Cu       7.50909000       2.50303000      11.76991000  F      -0.03856700      -0.03383100       0.06490400
Cu      10.01212000       2.50303000      11.76991000  F       0.07968600      -0.03351900       0.03128200
Cu       0.00000000       5.00606000      11.76991000  F      -0.08378700       0.00086900       0.06306000
Cu       2.50303000       5.00606000      11.76991000  F       0.06344000       0.00105100       0.08675100
Cu       5.00606000       5.00606000      11.76991000  F      -0.03210900       0.00254100       0.10027000
Cu       7.50909000       5.00606000      11.76991000  F      -0.04615500       0.00240100       0.07695300
Cu      10.01212000       5.00606000      11.76991000  F       0.06881500       0.00030200       0.05450600
Cu       0.00000000       7.50909000      11.76991000  F      -0.06081800      -0.06533500       0.06768000
Cu       2.50303000       7.50909000      11.76991000  F       0.03610300      -0.06652500       0.08294000
Cu       5.00606000       7.50909000      11.76991000  F       0.00535900       0.04935600       0.04707400
Cu       7.50909000       7.50909000      11.76991000  F      -0.03927000       0.03009300       0.06656300
Cu      10.01212000       7.50909000      11.76991000  F       0.08027000       0.03154200       0.03147300
Cu       0.00000000      10.01212000      11.76991000  F      -0.01803400      -0.04473300       0.04276200
Cu       2.50303000      10.01212000      11.76991000  F       0.05257000      -0.01629900       0.05288600
Cu       5.00606000      10.01212000      11.76991000  F       0.05014400      -0.10331000       0.06950700
Cu       7.50909000      10.01212000      11.76991000  F       0.00456700      -0.07400900       0.06867100
Cu      10.01212000      10.01212000      11.76991000  F      -0.05931900      -0.07430500       0.07415600
Cu       1.26195000       1.24615000      13.57006000  T      -0.00048700       0.00001800      -0.00015800
Cu       3.78073000       1.25813000      13.59938000  T       0.00024800       0.00014200      -0.00025200
Cu       6.27738000       1.28125000      13.61680000  T       0.00099400       0.00041700       0.00014400
Cu       8.75203000       1.27910000      13.60960000  T       0.00067600       0.00049700       0.00044200
Cu      11.25786000       1.26394000      13.59023000  T      -0.00053200       0.00036600       0.00031300
Cu       1.23362000       3.76619000      13.58645000  T      -0.00084900      -0.00016200      -0.00029800
Cu       3.77155000       3.74596000      13.59694000  T      -0.00027000      -0.00003100      -0.00036400
Cu       6.27339000       3.76234000      13.56816000  T       0.00034700       0.00019700       0.00055300
Cu       8.74836000       3.76186000      13.54919000  T       0.00008500       0.00016000       0.00066400
Cu      11.24520000       3.77177000      13.61759000  T      -0.00125600       0.00005600       0.00084300
Cu       1.23362000       6.24566000      13.58636000  T      -0.00078200       0.00002100      -0.00026900
Cu       3.77161000       6.26621000      13.59689000  T      -0.00023900      -0.00000800      -0.00033200
Cu       6.27372000       6.24987000      13.56844000  T       0.00036200      -0.00024000       0.00057800
Cu       8.74853000       6.25020000      13.54916000  T       0.00017700      -0.00033200       0.00068300
Cu      11.24527000       6.23952000      13.61691000  T      -0.00119700      -0.00033300       0.00085900
Cu       1.26237000       8.76505000      13.57006000  T      -0.00045600       0.00002300      -0.00010400
Cu       3.78101000       8.75382000      13.59934000  T       0.00029100      -0.00004900      -0.00017100
Cu       6.27779000       8.73176000      13.61660000  T       0.00100400      -0.00032100       0.00018500
Cu       8.75223000       8.73353000      13.60927000  T       0.00067600      -0.00048200       0.00041800
Cu      11.25837000       8.74828000      13.58987000  T      -0.00048500      -0.00037000       0.00030000
Cu       1.25080000      11.26361000      13.59121000  T      -0.00029800       0.00007400      -0.00026100
Cu       3.74598000      11.26385000      13.57440000  T       0.00025600       0.00009300      -0.00020900
Cu       6.25556000      11.26438000      13.56683000  T       0.00094900       0.00008500      -0.00009400
Cu       8.75799000      11.26394000      13.57162000  T       0.00075100       0.00004700      -0.00002900
Cu      11.27162000      11.26394000      13.56956000  T      -0.00009600       0.00003700      -0.00012600
Cu      12.51008000      12.51302000      15.36212000  T       0.00014400      -0.00004200      -0.00013600
Cu       2.50587000       0.00760000      15.36431000  T       0.00028800       0.00014400      -0.00001900
Cu       5.00506000      12.48435000      15.35848000  T       0.00056100       0.00020300      -0.00006400
Cu       7.50745000      12.50519000      15.34773000  T       0.00055200       0.00035000       0.00006600
Cu      10.01329000      12.49251000      15.34839000  T       0.00027200       0.00031600       0.00010300
Cu       0.04671000       2.47013000      15.35199000  T      -0.00055000      -0.00005300       0.00006000
Cu       2.51063000       2.50709000      15.34904000  T       0.00001900       0.00018700      -0.00041800
Cu       4.98752000       2.41693000      15.47286000  T       0.00003700       0.00016900      -0.00106600
Cu       7.53331000       2.54572000      15.47485000  T       0.00060300       0.00098100       0.00067900
Cu      10.08893000       2.44054000      15.42594000  T      -0.00083000       0.00112500       0.00201800
Cu      -0.00019000       5.00670000      15.46489000  T      -0.00211600      -0.00012100      -0.00046600
Cu       2.47872000       5.00591000      15.34385000  T      -0.00151300      -0.00002200      -0.00066300
Pd       5.00394000       5.00607000      15.51093000  T      -0.00310600      -0.00014600      -0.00101600
Y        7.55297000       5.00628000      17.42853000  T      -0.00352000       0.00002800      -0.00031900
Cu       9.91911000       5.00563000      15.41042000  T      -0.00312900      -0.00014400       0.00278500
Cu       0.04646000       7.54322000      15.35209000  T      -0.00046800      -0.00008200       0.00011900
Cu       2.51055000       7.50429000      15.34894000  T       0.00011400      -0.00013900      -0.00030700
Cu       4.98765000       7.59497000      15.47284000  T       0.00009700       0.00002800      -0.00080700
Cu       7.53341000       7.46736000      15.47500000  T       0.00065200      -0.00085400       0.00067700
Cu      10.08872000       7.57070000      15.42456000  T      -0.00071200      -0.00127600       0.00189500
Cu      12.51122000      10.01526000      15.36222000  T       0.00012100       0.00001100      -0.00009100
Cu       2.50710000      10.00468000      15.36404000  T       0.00028200      -0.00001600       0.00003500
Cu       5.00638000      10.04197000      15.35780000  T       0.00055800       0.00003900       0.00001500
Cu       7.50858000      10.02261000      15.34783000  T       0.00055800      -0.00024500       0.00008200
Cu      10.01430000      10.03369000      15.34802000  T       0.00026200      -0.00038000       0.00010800
O        6.12329000       3.44831000      16.62078000  T      -0.00134000       0.00080900      -0.00173600
O        6.12347000       6.56411000      16.62074000  T      -0.00129600      -0.00071000      -0.00191200
O        8.98516000       6.44809000      16.48883000  T      -0.00072800       0.00002600       0.00168800
O        8.98524000       3.56365000      16.48975000  T      -0.00062200      -0.00006700       0.00186200
C       12.14549000       5.01620000      17.28100000  T       0.00557700       0.00016500       0.00099600
O        7.82331000       5.00765000      19.42380000  T      -0.01632700       0.00026100       0.00147100
O       11.92321000       5.02339000      18.41334000  T       0.00987000       0.00014600       0.00084600
H        8.21717000       5.00761000      20.30403000  T      -0.04743300       0.00003600       0.01371500
108
Lattice="12.515153631 0.0 0.0 0.0 12.515153631 0.0 0.0 0.0 25.30973" Properties=species:S:1:pos:R:3:move_mask:L:1:forces:R:3 stress="0.008185695528032012 4.743546935671276e-07 0.0001310779331526743 4.743546935671276e-07 0.007972067395180405 7.302565677283412e-07 0.0001310779331526743 7.302565677283412e-07 0.001926585346413763" free_energy=-439.33319007 energy=-439.33311647 pbc="T T T"
Cu       1.25152000       1.25152000      10.00000000  F      -0.00611300      -0.00770600      -0.07384100
Cu       3.75455000       1.25152000      10.00000000  F       0.01794000      -0.00733800      -0.06499300
Cu       6.25758000       1.25152000      10.00000000  F      -0.01411500       0.00738900      -0.06105000
Cu       8.76061000       1.25152000      10.00000000  F       0.00289600       0.00604000      -0.04864500
Cu      11.26364000       1.25152000      10.00000000  F      -0.00438800       0.00984700      -0.07154100
Cu       1.25152000       3.75455000      10.00000000  F      -0.00388300       0.00847500      -0.06142300
Cu       3.75455000       3.75455000      10.00000000  F       0.00749900      -0.01504000      -0.05685900
Cu       6.25758000       3.75455000      10.00000000  F      -0.01546400      -0.01843600      -0.08067600
Cu       8.76061000       3.75455000      10.00000000  F       0.02703800      -0.01615600      -0.08934400
Cu      11.26364000       3.75455000      10.00000000  F      -0.01386700       0.00033900      -0.05561300
Cu       1.25152000       6.25758000      10.00000000  F      -0.00423900      -0.00692200      -0.06315000
Cu       3.75455000       6.25758000      10.00000000  F       0.00872400       0.01578200      -0.05722800
Cu       6.25758000       6.25758000      10.00000000  F      -0.01542400       0.02044000      -0.08382500
Cu       8.76061000       6.25758000      10.00000000  F       0.02574400       0.01693800      -0.08991100
Cu      11.26364000       6.25758000      10.00000000  F      -0.01346900       0.00122200      -0.05722600
Cu       1.25152000       8.76061000      10.00000000  F      -0.00585700       0.00411300      -0.07261200
Cu       3.75455000       8.76061000      10.00000000  F       0.01718800       0.00484300      -0.06401700
Cu       6.25758000       8.76061000      10.00000000  F      -0.01407600      -0.01161100      -0.05880200
Cu       8.76061000       8.76061000      10.00000000  F       0.00362800      -0.00865300      -0.04773000
Cu      11.26364000       8.76061000      10.00000000  F      -0.00466400      -0.01345200      -0.07023900
Cu       1.25152000      11.26364000      10.00000000  F      -0.00611200       0.00177800      -0.00774700
Cu       3.75455000      11.26364000      10.00000000  F       0.00568300       0.00148500      -0.06951000
Cu       6.25758000      11.26364000      10.00000000  F      -0.00901100       0.00189200      -0.07931100
Cu       8.76061000      11.26364000      10.00000000  F      -0.00912500       0.00154200      -0.07044500
Cu      11.26364000      11.26364000      10.00000000  F       0.01649200       0.00181500      -0.05854700
Cu       0.00000000       0.00000000      11.76991000  F      -0.01865400       0.04653100       0.04499100
Cu       2.50303000       0.00000000      11.76991000  F       0.05148600       0.01654200       0.05236600
Cu       5.00606000       0.00000000      11.76991000  F       0.04991200       0.10592800       0.07041600
Cu       7.50909000       0.00000000      11.76991000  F       0.00418600       0.07724100       0.07046200
Cu      10.01212000       0.00000000      11.76991000  F      -0.05859900       0.07603300       0.07455800
Cu       0.00000000       2.50303000      11.76991000  F      -0.06106500       0.06073100       0.06669800
Cu       2.50303000       2.50303000      11.76991000  F       0.03579700       0.06370800       0.08350100
Cu       5.00606000       2.50303000      11.76991000  F       0.00331500      -0.05329500       0.04525600
Cu       7.50909000       2.50303000      11.76991000  F      -0.03873700      -0.03389900       0.06496300
Cu      10.01212000       2.50303000      11.76991000  F       0.07972600      -0.03355900       0.03135800
Cu       0.00000000       5.00606000      11.76991000  F      -0.08373700       0.00089500       0.06304900
Cu       2.50303000       5.00606000      11.76991000  F       0.06339400       0.00108200       0.08658600
Cu       5.00606000       5.00606000      11.76991000  F      -0.03230200       0.00257700       0.10015900
Cu       7.50909000       5.00606000      11.76991000  F      -0.04631400       0.00243300       0.07700600
Cu      10.01212000       5.00606000      11.76991000  F       0.06882800       0.00032900       0.05458200
Cu       0.00000000       7.50909000      11.76991000  F      -0.06070300      -0.06520500       0.06764500
Cu       2.50303000       7.50909000      11.76991000  F       0.03609800      -0.06633600       0.08281000
Cu       5.00606000       7.50909000      11.76991000  F       0.00514200       0.04951700       0.04700400
Cu       7.50909000       7.50909000      11.76991000  F      -0.03944700       0.03017500       0.06660000
Cu      10.01212000       7.50909000      11.76991000  F       0.08030700       0.03158500       0.03153600
Cu       0.00000000      10.01212000      11.76991000  F      -0.01782700      -0.04471500       0.04271100
Cu       2.50303000      10.01212000      11.76991000  F       0.05258600      -0.01624100       0.05279200
Cu       5.00606000      10.01212000      11.76991000  F       0.04990600      -0.10325400       0.06944900
Cu       7.50909000      10.01212000      11.76991000  F       0.00435500      -0.07402300       0.06868100
Cu      10.01212000      10.01212000      11.76991000  F      -0.05923900      -0.07431300       0.07414900
Cu       1.26194000       1.24614000      13.57006000  T       0.00003500      -0.00004000      -0.00001700
Cu       3.78072000       1.25812000      13.59937000  T       0.00039400      -0.00011400      -0.00022100
Cu       6.27739000       1.28125000      13.61680000  T       0.00065800       0.00019800       0.00024500
Cu       8.75204000       1.27911000      13.60962000  T       0.00036500       0.00049800       0.00067200
Cu      11.25785000       1.26395000      13.59025000  T      -0.00024100       0.00036500       0.00035500
Cu       1.23359000       3.76619000      13.58645000  T      -0.00048300      -0.00025500      -0.00026200
Cu       3.77152000       3.74596000      13.59694000  T      -0.00012600      -0.00056200      -0.00081000
Cu       6.27337000       3.76235000      13.56817000  T       0.00061900      -0.00018500       0.00028200
Cu       8.74835000       3.76186000      13.54921000  T       0.00021200       0.00006100       0.00102900
Cu      11.24517000       3.77177000      13.61762000  T      -0.00091100       0.00002700       0.00091700
Cu       1.23359000       6.24567000      13.58635000  T      -0.00048400       0.00006500      -0.00018600
Cu       3.77159000       6.26622000      13.59688000  T      -0.00017600       0.00034500      -0.00078400
Cu       6.27371000       6.24987000      13.56845000  T       0.00067200      -0.00002700       0.00026900
Cu       8.74852000       6.25020000      13.54918000  T       0.00034700      -0.00033800       0.00103100
Cu      11.24523000       6.23951000      13.61694000  T      -0.00086100      -0.00025300       0.00095800
Cu       1.26236000       8.76506000      13.57006000  T      -0.00003100       0.00009300       0.00004200
Cu       3.78101000       8.75382000      13.59933000  T       0.00031800       0.00025800      -0.00015100
Cu       6.27779000       8.73176000      13.61660000  T       0.00071400      -0.00005700       0.00023400
Cu       8.75223000       8.73352000      13.60929000  T       0.00044500      -0.00044200       0.00063400
Cu      11.25835000       8.74827000      13.58989000  T      -0.00016500      -0.00031800       0.00040400
Cu       1.25080000      11.26361000      13.59120000  T       0.00023300       0.00010900      -0.00002100
Cu       3.74597000      11.26384000      13.57439000  T       0.00033700       0.00016300      -0.00005800
Cu       6.25556000      11.26438000      13.56683000  T       0.00054400       0.00012700       0.00008400
Cu       8.75800000      11.26393000      13.57163000  T       0.00032900       0.00011500       0.00026700
Cu      11.27162000      11.26394000      13.56957000  T       0.00011800       0.00000800       0.00012600
Cu      12.51008000      12.51301000      15.36212000  T       0.00031900      -0.00003100      -0.00006200
Cu       2.50587000       0.00760000      15.36430000  T       0.00043100       0.00000300      -0.00026000
Cu       5.00506000      12.48434000      15.35847000  T       0.00047200       0.00017700      -0.00025300
Cu       7.50745000      12.50519000      15.34773000  T       0.00035800       0.00043500       0.00010100
Cu      10.01329000      12.49251000      15.34840000  T       0.00019700       0.00039100       0.00026400
Cu       0.04669000       2.47013000      15.35200000  T      -0.00039400      -0.00013400       0.00004700
Cu       2.51061000       2.50710000      15.34902000  T       0.00012000      -0.00023900      -0.00040300
Cu       4.98749000       2.41692000      15.47282000  T       0.00045000      -0.00038000      -0.00086300
Cu       7.53330000       2.54574000      15.47486000  T       0.00083400       0.00086300       0.00085600
Cu      10.08891000       2.44056000      15.42600000  T      -0.00097500       0.00124100       0.00185500
Cu      -0.00024000       5.00670000      15.46485000  T      -0.00152600      -0.00009500       0.00027900
Cu       2.47868000       5.00591000      15.34384000  T      -0.00158600      -0.00006300      -0.00050700
Pd       5.00385000       5.00608000      15.51088000  T      -0.00701500      -0.00022500      -0.00188600
Y        7.55262000       5.00629000      17.42854000  T      -0.00276600       0.00016200      -0.00047100
Cu       9.91902000       5.00563000      15.41049000  T      -0.00275200      -0.00016300       0.00243100
Cu       0.04644000       7.54322000      15.35210000  T      -0.00033100       0.00001200       0.00011500
Cu       2.51054000       7.50429000      15.34892000  T       0.00005900       0.00023200      -0.00024700
Cu       4.98762000       7.59498000      15.47280000  T       0.00022200       0.00060500      -0.00074800
Cu       7.53340000       7.46735000      15.47500000  T       0.00094100      -0.00071800       0.00080800
Cu      10.08870000       7.57068000      15.42461000  T      -0.00080300      -0.00135800       0.00175800
Cu      12.51122000      10.01526000      15.36222000  T       0.00029200       0.00001500      -0.00001300
Cu       2.50710000      10.00468000      15.36404000  T       0.00038000       0.00015400      -0.00017000
Cu       5.00638000      10.04197000      15.35779000  T       0.00044700       0.00016900      -0.00012200
Cu       7.50858000      10.02261000      15.34783000  T       0.00040700      -0.00022400       0.00016300
Cu      10.01430000      10.03368000      15.34803000  T       0.00021000      -0.00039600       0.00029600
O        6.12324000       3.44829000      16.62080000  T      -0.00046600       0.00073700      -0.00136000
O        6.12342000       6.56413000      16.62075000  T      -0.00041600      -0.00071400      -0.00133600
O        8.98514000       6.44810000      16.48889000  T      -0.00105300       0.00021100       0.00125700
O        8.98522000       3.56365000      16.48981000  T      -0.00111100      -0.00022900       0.00149400
C       12.14602000       5.01622000      17.28107000  T       0.00560400       0.00021800       0.00079500
O        7.82183000       5.00767000      19.42381000  T      -0.01745000       0.00019700       0.00019600
O       11.92414000       5.02342000      18.41348000  T       0.00940000       0.00020000       0.00148600
H        8.21262000       5.00761000      20.30537000  T      -0.04679800       0.00001300       0.01441900
108
Lattice="12.515153631 0.0 0.0 0.0 12.515153631 0.0 0.0 0.0 25.30973" Properties=species:S:1:pos:R:3:move_mask:L:1:forces:R:3 stress="0.00819077611646048 4.369056388118281e-07 0.00013076585769638015 4.369056388118281e-07 0.007977647304338946 6.865660038471585e-07 0.00013076585769638015 6.865660038471585e-07 0.0019289196708268434" free_energy=-439.33471435 energy=-439.33463913 pbc="T T T"
Cu       1.25152000       1.25152000      10.00000000  F      -0.00628000      -0.00747300      -0.07383400
Cu       3.75455000       1.25152000      10.00000000  F       0.01817000      -0.00712200      -0.06507000
Cu       6.25758000       1.25152000      10.00000000  F      -0.01365200       0.00757800      -0.06094200
Cu       8.76061000       1.25152000      10.00000000  F       0.00309100       0.00621900      -0.04835500
Cu      11.26364000       1.25152000      10.00000000  F      -0.00457900       0.01005400      -0.07131000
Cu       1.25152000       3.75455000      10.00000000  F      -0.00404700       0.00855600      -0.06127500
Cu       3.75455000       3.75455000      10.00000000  F       0.00770500      -0.01496600      -0.05680500
Cu       6.25758000       3.75455000      10.00000000  F      -0.01502700      -0.01837900      -0.08048800
Cu       8.76061000       3.75455000      10.00000000  F       0.02724700      -0.01610700      -0.08898500
Cu      11.26364000       3.75455000      10.00000000  F      -0.01402500       0.00041300      -0.05529300
Cu       1.25152000       6.25758000      10.00000000  F      -0.00440300      -0.00709800      -0.06305200
Cu       3.75455000       6.25758000      10.00000000  F       0.00893100       0.01561600      -0.05721700
Cu       6.25758000       6.25758000      10.00000000  F      -0.01498500       0.02029200      -0.08368400
Cu       8.76061000       6.25758000      10.00000000  F       0.02595200       0.01679600      -0.08959500
Cu      11.26364000       6.25758000      10.00000000  F      -0.01362800       0.00105700      -0.05695500
Cu       1.25152000       8.76061000      10.00000000  F      -0.00602500       0.00393100      -0.07268700
Cu       3.75455000       8.76061000      10.00000000  F       0.01741900       0.00467900      -0.06416900
Cu       6.25758000       8.76061000      10.00000000  F      -0.01361400      -0.01175000      -0.05876500
Cu       8.76061000       8.76061000      10.00000000  F       0.00382200      -0.00878100      -0.04750700
Cu      11.26364000       8.76061000      10.00000000  F      -0.00485400      -0.01360800      -0.07009100
Cu       1.25152000      11.26364000      10.00000000  F      -0.00628600       0.00184800      -0.00785600
Cu       3.75455000      11.26364000      10.00000000  F       0.00593700       0.00155600      -0.06970100
Cu       6.25758000      11.26364000      10.00000000  F      -0.00853600       0.00196200      -0.07930000
Cu       8.76061000      11.26364000      10.00000000  F      -0.00893800       0.00161300      -0.07023900
Cu      11.26364000      11.26364000      10.00000000  F       0.01628200       0.00188500      -0.05842400
Cu       0.00000000       0.00000000      11.76991000  F      -0.01906900       0.04677100       0.04468600
Cu       2.50303000       0.00000000      11.76991000  F       0.05143500       0.01680000       0.05197000
Cu       5.00606000       0.00000000      11.76991000  F       0.05047400       0.10614700       0.06997000
Cu       7.50909000       0.00000000      11.76991000  F       0.00472600       0.07745300       0.07011000
Cu      10.01212000       0.00000000      11.76991000  F      -0.05867700       0.07622700       0.07427500
Cu       0.00000000       2.50303000      11.76991000  F      -0.06142900       0.06096900       0.06637700
Cu       2.50303000       2.50303000      11.76991000  F       0.03572100       0.06393900       0.08309500
Cu       5.00606000       2.50303000      11.76991000  F       0.00384700      -0.05308700       0.04480500
Cu       7.50909000       2.50303000      11.76991000  F      -0.03817900      -0.03371500       0.06459600
Cu      10.01212000       2.50303000      11.76991000  F       0.07968100      -0.03336000       0.03103300
Cu       0.00000000       5.00606000      11.76991000  F      -0.08408000       0.00080200       0.06274000
Cu       2.50303000       5.00606000      11.76991000  F       0.06330800       0.00098500       0.08623900
Cu       5.00606000       5.00606000      11.76991000  F      -0.03177100       0.00247500       0.09980700
Cu       7.50909000       5.00606000      11.76991000  F      -0.04574200       0.00233100       0.07668900
Cu      10.01212000       5.00606000      11.76991000  F       0.06880400       0.00022900       0.05426100
Cu       0.00000000       7.50909000      11.76991000  F      -0.06106900      -0.06549200       0.06731300
Cu       2.50303000       7.50909000      11.76991000  F       0.03601200      -0.06661700       0.08240500
Cu       5.00606000       7.50909000      11.76991000  F       0.00566800       0.04925300       0.04657100
Cu       7.50909000       7.50909000      11.76991000  F      -0.03888100       0.02993300       0.06623300
Cu      10.01212000       7.50909000      11.76991000  F       0.08026900       0.03134200       0.03119400
Cu       0.00000000      10.01212000      11.76991000  F      -0.01823700      -0.04477600       0.04239500
Cu       2.50303000      10.01212000      11.76991000  F       0.05253100      -0.01631800       0.05239400
Cu       5.00606000      10.01212000      11.76991000  F       0.05046000      -0.10328900       0.06901100
Cu       7.50909000      10.01212000      11.76991000  F       0.00490100      -0.07404700       0.06832500
Cu      10.01212000      10.01212000      11.76991000  F      -0.05931900      -0.07432600       0.07385800
Cu       1.26196000       1.24614000      13.57007000  T      -0.00014200      -0.00011800      -0.00030200
Cu       3.78073000       1.25811000      13.59938000  T       0.00014800      -0.00034000      -0.00051600
Cu       6.27738000       1.28125000      13.61682000  T       0.00047200       0.00001000       0.00000400
Cu       8.75203000       1.27912000      13.60965000  T       0.00028700       0.00042600       0.00049400
Cu      11.25785000       1.26395000      13.59026000  T      -0.00029500       0.00029500       0.00011600
Cu       1.23360000       3.76618000      13.58646000  T      -0.00068300      -0.00033600      -0.00043300
Cu       3.77153000       3.74593000      13.59693000  T      -0.00036200      -0.00080600      -0.00114800
Cu       6.27339000       3.76233000      13.56820000  T       0.00073400      -0.00027100       0.00011700
Cu       8.74836000       3.76186000      13.54926000  T       0.00030800       0.00004500       0.00090500
Cu      11.24517000       3.77177000      13.61764000  T      -0.00080000       0.00001800       0.00072100
Cu       1.23360000       6.24567000      13.58636000  T      -0.00071900       0.00009900      -0.00034500
Cu       3.77160000       6.26624000      13.59688000  T      -0.00042800       0.00051600      -0.00110200
Cu       6.27374000       6.24988000      13.56848000  T       0.00076300      -0.00000500       0.00012900
Cu       8.74854000       6.25019000      13.54923000  T       0.00045100      -0.00034900       0.00090100
Cu      11.24524000       6.23952000      13.61696000  T      -0.00076000      -0.00023800       0.00075300
Cu       1.26237000       8.76507000      13.57007000  T      -0.00023900       0.00021600      -0.00024600
Cu       3.78101000       8.75384000      13.59934000  T       0.00004400       0.00049600      -0.00043400
Cu       6.27780000       8.73176000      13.61663000  T       0.00051900       0.00014300       0.00001500
Cu       8.75223000       8.73351000      13.60932000  T       0.00037800      -0.00032700       0.00046600
Cu      11.25836000       8.74827000      13.58990000  T      -0.00022900      -0.00020500       0.00017900
Cu       1.25081000      11.26362000      13.59121000  T       0.00000500       0.00015300      -0.00036500
Cu       3.74598000      11.26385000      13.57440000  T       0.00005400       0.00021100      -0.00041400
Cu       6.25556000      11.26438000      13.56685000  T       0.00028500       0.00016900      -0.00011300
Cu       8.75799000      11.26394000      13.57165000  T       0.00016200       0.00017000       0.00015900
Cu      11.27163000      11.26394000      13.56958000  T       0.00000500       0.00005600      -0.00006200
Cu      12.51008000      12.51301000      15.36213000  T       0.00004400       0.00000200       0.00001500
Cu       2.50588000       0.00760000      15.36430000  T       0.00014800      -0.00005800      -0.00012600
Cu       5.00506000      12.48435000      15.35848000  T       0.00025800       0.00011100      -0.00006300
Cu       7.50745000      12.50521000      15.34775000  T       0.00023000       0.00047100       0.00028500
Cu      10.01329000      12.49252000      15.34842000  T       0.00005700       0.00047300       0.00031400
Cu       0.04668000       2.47013000      15.35200000  T      -0.00068800      -0.00014100       0.00006500
Cu       2.51063000       2.50708000      15.34903000  T      -0.00007100      -0.00041200      -0.00015600
Cu       4.98753000       2.41691000      15.47285000  T       0.00036100      -0.00069200      -0.00048600
Cu       7.53333000       2.54575000      15.47490000  T       0.00075500       0.00049900       0.00079500
Cu      10.08888000       2.44059000      15.42602000  T      -0.00081800       0.00102700       0.00141200
Cu      -0.00023000       5.00670000      15.46490000  T      -0.00138900      -0.00009800       0.00026300
Cu       2.47866000       5.00591000      15.34385000  T      -0.00196500      -0.00010400      -0.00028500
Pd       5.00373000       5.00607000      15.51089000  T      -0.00626600      -0.00061600       0.00035500
Y        7.55264000       5.00629000      17.42848000  T      -0.00434200       0.00015300      -0.00278100
Cu       9.91900000       5.00563000      15.41052000  T      -0.00216700      -0.00017000       0.00202400
Cu       0.04644000       7.54323000      15.35211000  T      -0.00063600       0.00005200       0.00015400
Cu       2.51054000       7.50431000      15.34894000  T      -0.00018400       0.00037000      -0.00001800
Cu       4.98765000       7.59499000      15.47282000  T       0.00033000       0.00068900      -0.00033600
Cu       7.53343000       7.46734000      15.47504000  T       0.00083500      -0.00035600       0.00073600
Cu      10.08868000       7.57065000      15.42463000  T      -0.00062500      -0.00108100       0.00135300
Cu      12.51123000      10.01526000      15.36223000  T       0.00001900       0.00006100       0.00006800
Cu       2.50710000      10.00469000      15.36404000  T       0.00008500       0.00025300      -0.00005400
Cu       5.00638000      10.04198000      15.35780000  T       0.00022800       0.00028200       0.00006700
Cu       7.50858000      10.02260000      15.34785000  T       0.00029100      -0.00015800       0.00035500
Cu      10.01430000      10.03367000      15.34804000  T       0.00006600      -0.00037100       0.00037600
O        6.12330000       3.44833000      16.62079000  T      -0.00033800       0.00014700      -0.00079700
O        6.12348000       6.56409000      16.62075000  T      -0.00032700      -0.00019900      -0.00077200
O        8.98511000       6.44811000      16.48883000  T      -0.00032600       0.00031000       0.00133000
O        8.98518000       3.56364000      16.48975000  T      -0.00036900      -0.00046300       0.00141000
C       12.14624000       5.01624000      17.28112000  T       0.00581400       0.00015800      -0.00058200
O        7.82167000       5.00767000      19.42351000  T      -0.02054500       0.00021300       0.00447700
O       11.92430000       5.02343000      18.41349000  T       0.01037100       0.00017700       0.00456300
H        8.20977000       5.00761000      20.30619000  T      -0.04585500       0.00004600       0.01780900
108
Lattice="12.515153631 0.0 0.0 0.0 12.515153631 0.0 0.0 0.0 25.30973" Properties=species:S:1:pos:R:3:move_mask:L:1:forces:R:3 stress="0.008183579656438338 4.743546935671276e-07 0.00013133383502683552 4.743546935671276e-07 0.007970731712227466 7.24015058602458e-07 0.00013133383502683552 7.24015058602458e-07 0.0019213175127115176" free_energy=-439.3361575 energy=-439.33608335 pbc="T T T"
Cu       1.25152000       1.25152000      10.00000000  F      -0.00617100      -0.00743700      -0.07363700
Cu       3.75455000       1.25152000      10.00000000  F       0.01824300      -0.00707500      -0.06482400
Cu       6.25758000       1.25152000      10.00000000  F      -0.01368100       0.00763700      -0.06070700
Cu       8.76061000       1.25152000      10.00000000  F       0.00300600       0.00627600      -0.04818000
Cu      11.26364000       1.25152000      10.00000000  F      -0.00455000       0.01008700      -0.07118600
Cu       1.25152000       3.75455000      10.00000000  F      -0.00393700       0.00866300      -0.06106300
Cu       3.75455000       3.75455000      10.00000000  F       0.00776800      -0.01486600      -0.05653200
Cu       6.25758000       3.75455000      10.00000000  F      -0.01506200      -0.01831100      -0.08021100
Cu       8.76061000       3.75455000      10.00000000  F       0.02716400      -0.01602400      -0.08878000
Cu      11.26364000       3.75455000      10.00000000  F      -0.01398700       0.00050100      -0.05512100
Cu       1.25152000       6.25758000      10.00000000  F      -0.00428100      -0.00705000      -0.06275200
Cu       3.75455000       6.25758000      10.00000000  F       0.00897900       0.01565200      -0.05688800
Cu       6.25758000       6.25758000      10.00000000  F      -0.01503800       0.02033700      -0.08338400
Cu       8.76061000       6.25758000      10.00000000  F       0.02587300       0.01682700      -0.08937400
Cu      11.26364000       6.25758000      10.00000000  F      -0.01357300       0.00109400      -0.05671600
Cu       1.25152000       8.76061000      10.00000000  F      -0.00591300       0.00388900      -0.07232800
Cu       3.75455000       8.76061000      10.00000000  F       0.01747500       0.00462900      -0.06377900
Cu       6.25758000       8.76061000      10.00000000  F      -0.01365300      -0.01179600      -0.05848600
Cu       8.76061000       8.76061000      10.00000000  F       0.00374600      -0.00882700      -0.04731600
Cu      11.26364000       8.76061000      10.00000000  F      -0.00480400      -0.01363900      -0.06985500
Cu       1.25152000      11.26364000      10.00000000  F      -0.00618200       0.00179600      -0.00764000
Cu       3.75455000      11.26364000      10.00000000  F       0.00599300       0.00151800      -0.06940300
Cu       6.25758000      11.26364000      10.00000000  F      -0.00858500       0.00193200      -0.07907800
Cu       8.76061000      11.26364000      10.00000000  F      -0.00900200       0.00158700      -0.07010500
Cu      11.26364000      11.26364000      10.00000000  F       0.01632900       0.00185200      -0.05828400
Cu       0.00000000       0.00000000      11.76991000  F      -0.01900800       0.04687500       0.04531600
Cu       2.50303000       0.00000000      11.76991000  F       0.05162200       0.01689800       0.05249100
Cu       5.00606000       0.00000000      11.76991000  F       0.05060700       0.10620500       0.07057500
Cu       7.50909000       0.00000000      11.76991000  F       0.00466500       0.07757900       0.07088200
Cu      10.01212000       0.00000000      11.76991000  F      -0.05879600       0.07629100       0.07499900
Cu       0.00000000       2.50303000      11.76991000  F      -0.06143300       0.06108900       0.06705400
Cu       2.50303000       2.50303000      11.76991000  F       0.03589400       0.06400500       0.08366300
Cu       5.00606000       2.50303000      11.76991000  F       0.00400700      -0.05293500       0.04553600
Cu       7.50909000       2.50303000      11.76991000  F      -0.03823100      -0.03355400       0.06541600
Cu      10.01212000       2.50303000      11.76991000  F       0.07957100      -0.03314700       0.03186400
Cu       0.00000000       5.00606000      11.76991000  F      -0.08408900       0.00082600       0.06348800
Cu       2.50303000       5.00606000      11.76991000  F       0.06346300       0.00100700       0.08691600
Cu       5.00606000       5.00606000      11.76991000  F      -0.03162100       0.00250700       0.10071600
Cu       7.50909000       5.00606000      11.76991000  F      -0.04581200       0.00236700       0.07766500
Cu      10.01212000       5.00606000      11.76991000  F       0.06870100       0.00025600       0.05509100
Cu       0.00000000       7.50909000      11.76991000  F      -0.06107900      -0.06556700       0.06803000
Cu       2.50303000       7.50909000      11.76991000  F       0.03619500      -0.06663100       0.08303000
Cu       5.00606000       7.50909000      11.76991000  F       0.00582700       0.04915300       0.04739100
Cu       7.50909000       7.50909000      11.76991000  F      -0.03893100       0.02981500       0.06713500
Cu      10.01212000       7.50909000      11.76991000  F       0.08015500       0.03118100       0.03206600
Cu       0.00000000      10.01212000      11.76991000  F      -0.01818800      -0.04484900       0.04303700
Cu       2.50303000      10.01212000      11.76991000  F       0.05272200      -0.01638400       0.05296500
Cu       5.00606000      10.01212000      11.76991000  F       0.05059800      -0.10332800       0.06966200
Cu       7.50909000      10.01212000      11.76991000  F       0.00484100      -0.07415600       0.06913400
Cu      10.01212000      10.01212000      11.76991000  F      -0.05944100      -0.07437400       0.07460900
Cu       1.26197000       1.24613000      13.57008000  T      -0.00062500       0.00015200       0.00004900
Cu       3.78075000       1.25809000      13.59938000  T      -0.00023200       0.00010200      -0.00018200
Cu       6.27740000       1.28126000      13.61686000  T       0.00041700      -0.00007900      -0.00056200
Cu       8.75204000       1.27915000      13.60971000  T       0.00047100      -0.00017000      -0.00049100
Cu      11.25784000       1.26397000      13.59030000  T      -0.00024900       0.00010200       0.00007500
Cu       1.23359000       3.76616000      13.58646000  T      -0.00069900       0.00018900      -0.00024700
Cu       3.77153000       3.74589000      13.59690000  T      -0.00067900       0.00072500       0.00003200
Cu       6.27343000       3.76233000      13.56825000  T      -0.00039500       0.00029100      -0.00078300
Cu       8.74837000       3.76187000      13.54935000  T      -0.00000300       0.00010100      -0.00100600
Cu      11.24514000       3.77178000      13.61773000  T      -0.00046300       0.00010000      -0.00015000
Cu       1.23358000       6.24568000      13.58637000  T      -0.00054100       0.00007300      -0.00034900
Cu       3.77159000       6.26626000      13.59685000  T      -0.00055900      -0.00026300      -0.00005100
Cu       6.27377000       6.24987000      13.56854000  T      -0.00044300       0.00013300      -0.00083700
Cu       8.74855000       6.25017000      13.54932000  T      -0.00014100       0.00016300      -0.00101500
Cu      11.24521000       6.23950000      13.61705000  T      -0.00040600      -0.00010300      -0.00024700
Cu       1.26238000       8.76508000      13.57008000  T      -0.00045900      -0.00025000      -0.00002700
Cu       3.78103000       8.75386000      13.59935000  T      -0.00008800      -0.00020800      -0.00028900
Cu       6.27782000       8.73176000      13.61667000  T       0.00036300      -0.00000600      -0.00057800
Cu       8.75225000       8.73349000      13.60938000  T       0.00036500       0.00006900      -0.00051400
Cu      11.25836000       8.74826000      13.58995000  T      -0.00025200      -0.00022900      -0.00008800
Cu       1.25083000      11.26362000      13.59122000  T      -0.00037300      -0.00015400       0.00001600
Cu       3.74599000      11.26386000      13.57440000  T       0.00006600      -0.00019900      -0.00005700
Cu       6.25556000      11.26439000      13.56687000  T       0.00056100      -0.00012500      -0.00030700
Cu       8.75799000      11.26395000      13.57169000  T       0.00046100      -0.00017700      -0.00039900
Cu      11.27164000      11.26395000      13.56961000  T      -0.00025200      -0.00004900      -0.00010100
Cu      12.51010000      12.51301000      15.36216000  T      -0.00002100      -0.00004300      -0.00048700
Cu       2.50590000       0.00759000      15.36433000  T      -0.00007300       0.00012800      -0.00029300
Cu       5.00508000      12.48436000      15.35850000  T       0.00014400      -0.00023700      -0.00043200
Cu       7.50745000      12.50524000      15.34781000  T       0.00037600      -0.00043300      -0.00063700
Cu      10.01329000      12.49255000      15.34847000  T       0.00023700      -0.00024600      -0.00052200
Cu       0.04666000       2.47012000      15.35204000  T      -0.00005300       0.00011500      -0.00037800
Cu       2.51066000       2.50705000      15.34905000  T      -0.00063100       0.00044700      -0.00068400
Cu       4.98758000       2.41688000      15.47286000  T      -0.00131500       0.00014000      -0.00155600
Cu       7.53336000       2.54577000      15.47498000  T      -0.00002300      -0.00026000      -0.00104700
Cu      10.08886000       2.44064000      15.42612000  T       0.00028100       0.00000700       0.00028000
Cu      -0.00029000       5.00670000      15.46494000  T      -0.00124300       0.00002800      -0.00046400
Cu       2.47856000       5.00590000      15.34385000  T      -0.00041800       0.00012200      -0.00087700
Pd       5.00356000       5.00608000      15.51083000  T      -0.00416000      -0.00105000       0.00220000
Y        7.55236000       5.00632000      17.42807000  T      -0.00372900      -0.00008200      -0.00027900
Cu       9.91889000       5.00562000      15.41068000  T      -0.00079300       0.00007300       0.00042400
Cu       0.04641000       7.54323000      15.35215000  T      -0.00001000      -0.00014400      -0.00047300
Cu       2.51056000       7.50433000      15.34896000  T      -0.00033100      -0.00028300      -0.00078000
Cu       4.98770000       7.59502000      15.47285000  T      -0.00113100       0.00022400      -0.00152000
Cu       7.53347000       7.46733000      15.47511000  T      -0.00008700       0.00026100      -0.00103500
Cu      10.08867000       7.57061000      15.42473000  T       0.00015200      -0.00010200       0.00015300
Cu      12.51124000      10.01527000      15.36226000  T       0.00000100      -0.00007700      -0.00053000
Cu       2.50712000      10.00471000      15.36406000  T      -0.00000100      -0.00022500      -0.00029900
Cu       5.00639000      10.04199000      15.35782000  T       0.00016800       0.00002700      -0.00053400
Cu       7.50859000      10.02259000      15.34791000  T       0.00029100       0.00018100      -0.00074600
Cu      10.01431000      10.03365000      15.34811000  T       0.00022700       0.00004900      -0.00063400
O        6.12334000       3.44840000      16.62070000  T      -0.00299300      -0.00104700      -0.00104500
O        6.12351000       6.56402000      16.62067000  T      -0.00289300       0.00126300      -0.00131200
O        8.98503000       6.44814000      16.48884000  T       0.00108900       0.00015800       0.00239200
O        8.98508000       3.56360000      16.48976000  T       0.00135500      -0.00010400       0.00264400
C       12.14727000       5.01631000      17.28144000  T       0.00502500      -0.00000100      -0.00690100
O        7.82010000       5.00768000      19.42261000  T      -0.02079400       0.00029700       0.00940600
O       11.92541000       5.02347000      18.41375000  T       0.00787000       0.00008100       0.00845000
H        8.19641000       5.00762000      20.31039000  T      -0.04076000       0.00016400       0.01252200
108
Lattice="12.515153631 0.0 0.0 0.0 12.515153631 0.0 0.0 0.0 25.30973" Properties=species:S:1:pos:R:3:move_mask:L:1:forces:R:3 stress="0.008187249663804356 4.993207300706607e-07 0.00013036015960319773 4.993207300706607e-07 0.007973802534717401 7.614641133577575e-07 0.00013036015960319773 7.614641133577575e-07 0.0019262233388844619" free_energy=-439.33409852 energy=-439.33402556 pbc="T T T"
Cu       1.25152000       1.25152000      10.00000000  F      -0.00623900      -0.00746600      -0.07392500
Cu       3.75455000       1.25152000      10.00000000  F       0.01819900      -0.00712400      -0.06511000
Cu       6.25758000       1.25152000      10.00000000  F      -0.01372600       0.00759700      -0.06094700
Cu       8.76061000       1.25152000      10.00000000  F       0.00295900       0.00625100      -0.04839200
Cu      11.26364000       1.25152000      10.00000000  F      -0.00461200       0.01007400      -0.07140600
Cu       1.25152000       3.75455000      10.00000000  F      -0.00401200       0.00858900      -0.06134100
Cu       3.75455000       3.75455000      10.00000000  F       0.00772400      -0.01494500      -0.05684600
Cu       6.25758000       3.75455000      10.00000000  F      -0.01508500      -0.01836900      -0.08048600
Cu       8.76061000       3.75455000      10.00000000  F       0.02712700      -0.01607700      -0.08898600
Cu      11.26364000       3.75455000      10.00000000  F      -0.01407200       0.00044200      -0.05533500
Cu       1.25152000       6.25758000      10.00000000  F      -0.00436500      -0.00708800      -0.06309900
Cu       3.75455000       6.25758000      10.00000000  F       0.00894400       0.01563400      -0.05723400
Cu       6.25758000       6.25758000      10.00000000  F      -0.01504700       0.02031300      -0.08367000
Cu       8.76061000       6.25758000      10.00000000  F       0.02583400       0.01679500      -0.08959400
Cu      11.26364000       6.25758000      10.00000000  F      -0.01366900       0.00106100      -0.05698700
Cu       1.25152000       8.76061000      10.00000000  F      -0.00597900       0.00392200      -0.07274300
Cu       3.75455000       8.76061000      10.00000000  F       0.01744300       0.00468200      -0.06417200
Cu       6.25758000       8.76061000      10.00000000  F      -0.01369300      -0.01176400      -0.05875100
Cu       8.76061000       8.76061000      10.00000000  F       0.00368900      -0.00881000      -0.04754500
Cu      11.26364000       8.76061000      10.00000000  F      -0.00488100      -0.01362700      -0.07016600
Cu       1.25152000      11.26364000      10.00000000  F      -0.00623600       0.00183500      -0.00796500
Cu       3.75455000      11.26364000      10.00000000  F       0.00596400       0.00154300      -0.06972200
Cu       6.25758000      11.26364000      10.00000000  F      -0.00863000       0.00195300      -0.07931700
Cu       8.76061000      11.26364000      10.00000000  F      -0.00907300       0.00160700      -0.07031400
Cu      11.26364000      11.26364000      10.00000000  F       0.01626500       0.00187900      -0.05854000
Cu       0.00000000       0.00000000      11.76991000  F      -0.01910800       0.04684600       0.04495400
Cu       2.50303000       0.00000000      11.76991000  F       0.05153700       0.01683600       0.05211100
Cu       5.00606000       0.00000000      11.76991000  F       0.05057000       0.10613100       0.07020600
Cu       7.50909000       0.00000000      11.76991000  F       0.00465600       0.07753900       0.07053700
Cu      10.01212000       0.00000000      11.76991000  F      -0.05883700       0.07628600       0.07466400
Cu       0.00000000       2.50303000      11.76991000  F      -0.06161000       0.06106100       0.06671700
Cu       2.50303000       2.50303000      11.76991000  F       0.03574300       0.06391200       0.08327500
Cu       5.00606000       2.50303000      11.76991000  F       0.00395900      -0.05303100       0.04517100
Cu       7.50909000       2.50303000      11.76991000  F      -0.03821200      -0.03361000       0.06507900
Cu      10.01212000       2.50303000      11.76991000  F       0.07954100      -0.03315600       0.03153100
Cu       0.00000000       5.00606000      11.76991000  F      -0.08431800       0.00082300       0.06316600
Cu       2.50303000       5.00606000      11.76991000  F       0.06327300       0.00100800       0.08651500
Cu       5.00606000       5.00606000      11.76991000  F      -0.03168500       0.00250600       0.10029200
Cu       7.50909000       5.00606000      11.76991000  F      -0.04577800       0.00235700       0.07726100
Cu      10.01212000       5.00606000      11.76991000  F       0.06868200       0.00024700       0.05474200
Cu       0.00000000       7.50909000      11.76991000  F      -0.06124300      -0.06556000       0.06767600
Cu       2.50303000       7.50909000      11.76991000  F       0.03603900      -0.06655500       0.08261400
Cu       5.00606000       7.50909000      11.76991000  F       0.00577300       0.04922800       0.04699000
Cu       7.50909000       7.50909000      11.76991000  F      -0.03891000       0.02984800       0.06676600
Cu      10.01212000       7.50909000      11.76991000  F       0.08013400       0.03115900       0.03171900
Cu       0.00000000      10.01212000      11.76991000  F      -0.01827800      -0.04487800       0.04266800
Cu       2.50303000      10.01212000      11.76991000  F       0.05263400      -0.01637400       0.05257200
Cu       5.00606000      10.01212000      11.76991000  F       0.05055700      -0.10329100       0.06927800
Cu       7.50909000      10.01212000      11.76991000  F       0.00482700      -0.07414800       0.06877300
Cu      10.01212000      10.01212000      11.76991000  F      -0.05947200      -0.07441200       0.07426100
Cu       1.26195000       1.24613000      13.57008000  T      -0.00046500      -0.00000900       0.00000300
Cu       3.78075000       1.25809000      13.59937000  T       0.00008400      -0.00020300      -0.00038900
Cu       6.27743000       1.28126000      13.61685000  T       0.00079900      -0.00005000      -0.00036900
Cu       8.75206000       1.27916000      13.60971000  T       0.00068500       0.00013900       0.00007100
Cu      11.25782000       1.26398000      13.59031000  T      -0.00035300       0.00027900       0.00047400
Cu       1.23355000       3.76616000      13.58645000  T      -0.00092300      -0.00008700      -0.00034900
Cu       3.77150000       3.74590000      13.59688000  T      -0.00070800       0.00030400      -0.00040600
Cu       6.27343000       3.76234000      13.56824000  T       0.00001500       0.00021000      -0.00037000
Cu       8.74837000       3.76187000      13.54934000  T       0.00010400       0.00016000      -0.00030200
Cu      11.24510000       3.77179000      13.61775000  T      -0.00084400       0.00020800       0.00075900
Cu       1.23355000       6.24568000      13.58636000  T      -0.00076500       0.00022700      -0.00044800
Cu       3.77156000       6.26626000      13.59684000  T      -0.00062400       0.00003300      -0.00042400
Cu       6.27377000       6.24987000      13.56852000  T      -0.00000200       0.00006300      -0.00037700
Cu       8.74855000       6.25017000      13.54930000  T       0.00007400      -0.00006600      -0.00030300
Cu      11.24517000       6.23949000      13.61707000  T      -0.00076100      -0.00033100       0.00067700
Cu       1.26235000       8.76508000      13.57008000  T      -0.00032900      -0.00004800      -0.00002400
Cu       3.78103000       8.75386000      13.59934000  T       0.00019600       0.00015100      -0.00037800
Cu       6.27784000       8.73176000      13.61666000  T       0.00075000       0.00005500      -0.00032500
Cu       8.75226000       8.73348000      13.60938000  T       0.00061400      -0.00019200       0.00006900
Cu      11.25833000       8.74824000      13.58996000  T      -0.00031200      -0.00041800       0.00036100
Cu       1.25082000      11.26362000      13.59121000  T      -0.00009300      -0.00009500      -0.00015200
Cu       3.74599000      11.26386000      13.57440000  T       0.00030200      -0.00010700      -0.00026700
Cu       6.25559000      11.26439000      13.56687000  T       0.00078500      -0.00004300      -0.00020600
Cu       8.75801000      11.26395000      13.57169000  T       0.00065100      -0.00010700      -0.00004700
Cu      11.27162000      11.26394000      13.56961000  T      -0.00005900      -0.00002400       0.00009700
Cu      12.51010000      12.51301000      15.36215000  T       0.00025200      -0.00008600      -0.00009000
Cu       2.50590000       0.00759000      15.36432000  T       0.00028200       0.00004100      -0.00001600
Cu       5.00509000      12.48435000      15.35849000  T       0.00040900      -0.00026500      -0.00017900
Cu       7.50747000      12.50524000      15.34780000  T       0.00050800      -0.00015700      -0.00002700
Cu      10.01330000      12.49256000      15.34847000  T       0.00037800       0.00006400       0.00012600
Cu       0.04663000       2.47012000      15.35203000  T      -0.00032600       0.00005500       0.00015100
Cu       2.51064000       2.50706000      15.34903000  T      -0.00032500       0.00015500      -0.00046200
Cu       4.98754000       2.41687000      15.47280000  T      -0.00050600      -0.00016900      -0.00128700
Cu       7.53337000       2.54577000      15.47496000  T       0.00038200      -0.00012500      -0.00015000
Cu      10.08886000       2.44065000      15.42616000  T       0.00028200       0.00025800       0.00135700
Cu      -0.00038000       5.00670000      15.46491000  T      -0.00207300      -0.00005300      -0.00117000
Cu       2.47849000       5.00591000      15.34381000  T      -0.00127600       0.00004300      -0.00067600
Pd       5.00355000       5.00608000      15.51082000  T      -0.00996900      -0.00044900      -0.00044200
Y        7.55210000       5.00631000      17.42805000  T      -0.00218900       0.00001500       0.00086800
Cu       9.91881000       5.00562000      15.41075000  T      -0.00144400      -0.00003500       0.00192100
Cu       0.04639000       7.54323000      15.35214000  T      -0.00025600      -0.00012100       0.00014600
Cu       2.51055000       7.50432000      15.34894000  T      -0.00011300      -0.00004400      -0.00050700
Cu       4.98767000       7.59504000      15.47279000  T      -0.00062900       0.00060000      -0.00127600
Cu       7.53348000       7.46734000      15.47510000  T       0.00037600       0.00023400      -0.00018100
Cu      10.08867000       7.57059000      15.42477000  T       0.00030400      -0.00037200       0.00121000
Cu      12.51124000      10.01527000      15.36225000  T       0.00025300      -0.00000800      -0.00010300
Cu       2.50712000      10.00471000      15.36405000  T       0.00031200      -0.00002500      -0.00002200
Cu       5.00640000      10.04200000      15.35781000  T       0.00041300       0.00027300      -0.00022900
Cu       7.50860000      10.02259000      15.34790000  T       0.00046400       0.00013200      -0.00010300
Cu      10.01431000      10.03364000      15.34810000  T       0.00036100      -0.00018200       0.00005100
O        6.12323000       3.44837000      16.62062000  T      -0.00074000      -0.00000500      -0.00086600
O        6.12340000       6.56406000      16.62057000  T      -0.00068900       0.00000400      -0.00089300
O        8.98506000       6.44816000      16.48892000  T      -0.00019500      -0.00031200       0.00217200
O        8.98512000       3.56358000      16.48986000  T      -0.00013400       0.00029500       0.00228000
C       12.14757000       5.01632000      17.28141000  T       0.00273400       0.00010000       0.00617400
O        7.81874000       5.00770000      19.42293000  T      -0.01874100       0.00018900       0.00682400
O       11.92605000       5.02348000      18.41393000  T       0.01104900       0.00004200      -0.00378500
H        8.19300000       5.00763000      20.31153000  T      -0.04328200       0.00018000       0.01486800
108
Lattice="12.515153631 0.0 0.0 0.0 12.515153631 0.0 0.0 0.0 25.30973" Properties=species:S:1:pos:R:3:move_mask:L:1:forces:R:3 stress="0.008191406508882195 4.4938865706359457e-07 0.0001296236615263435 4.4938865706359457e-07 0.007978252730724155 7.302565677283412e-07 0.0001296236615263435 7.302565677283412e-07 0.0019306360858364613" free_energy=-439.33436325 energy=-439.3342898 pbc="T T T"
Cu       1.25152000       1.25152000      10.00000000  F      -0.00590000      -0.00741300      -0.07397600
Cu       3.75455000       1.25152000      10.00000000  F       0.01843200      -0.00699600      -0.06505300
Cu       6.25758000       1.25152000      10.00000000  F      -0.01367600       0.00775300      -0.06092900
Cu       8.76061000       1.25152000      10.00000000  F       0.00297900       0.00635700      -0.04851200
Cu      11.26364000       1.25152000      10.00000000  F      -0.00441400       0.01011500      -0.07156600
Cu       1.25152000       3.75455000      10.00000000  F      -0.00361700       0.00862000      -0.06135800
Cu       3.75455000       3.75455000      10.00000000  F       0.00801600      -0.01486800      -0.05669900
Cu       6.25758000       3.75455000      10.00000000  F      -0.01505100      -0.01827700      -0.08034500
Cu       8.76061000       3.75455000      10.00000000  F       0.02708000      -0.01601200      -0.08899300
Cu      11.26364000       3.75455000      10.00000000  F      -0.01390800       0.00046500      -0.05545100
Cu       1.25152000       6.25758000      10.00000000  F      -0.00397200      -0.00713300      -0.06312500
Cu       3.75455000       6.25758000      10.00000000  F       0.00923900       0.01554300      -0.05709800
Cu       6.25758000       6.25758000      10.00000000  F      -0.01501000       0.02021300      -0.08353100
Cu       8.76061000       6.25758000      10.00000000  F       0.02578700       0.01672400      -0.08959700
Cu      11.26364000       6.25758000      10.00000000  F      -0.01350900       0.00102900      -0.05710600
Cu       1.25152000       8.76061000      10.00000000  F      -0.00564100       0.00386600      -0.07280700
Cu       3.75455000       8.76061000      10.00000000  F       0.01768000       0.00455100      -0.06413000
Cu       6.25758000       8.76061000      10.00000000  F      -0.01363900      -0.01192400      -0.05873400
Cu       8.76061000       8.76061000      10.00000000  F       0.00370700      -0.00892100      -0.04765500
Cu      11.26364000       8.76061000      10.00000000  F      -0.00468800      -0.01367100      -0.07032600
Cu       1.25152000      11.26364000      10.00000000  F      -0.00593000       0.00183900      -0.00804200
Cu       3.75455000      11.26364000      10.00000000  F       0.00615900       0.00154500      -0.06974600
Cu       6.25758000      11.26364000      10.00000000  F      -0.00856800       0.00195100      -0.07938100
Cu       8.76061000      11.26364000      10.00000000  F      -0.00900500       0.00160500      -0.07048700
Cu      11.26364000      11.26364000      10.00000000  F       0.01647900       0.00187800      -0.05869300
Cu       0.00000000       0.00000000      11.76991000  F      -0.01885500       0.04691100       0.04508000
Cu       2.50303000       0.00000000      11.76991000  F       0.05182200       0.01692000       0.05227000
Cu       5.00606000       0.00000000      11.76991000  F       0.05070500       0.10626400       0.07037500
Cu       7.50909000       0.00000000      11.76991000  F       0.00471100       0.07771000       0.07064100
Cu      10.01212000       0.00000000      11.76991000  F      -0.05869300       0.07639900       0.07471100
Cu       0.00000000       2.50303000      11.76991000  F      -0.06145500       0.06111600       0.06683000
Cu       2.50303000       2.50303000      11.76991000  F       0.03608300       0.06399200       0.08341200
Cu       5.00606000       2.50303000      11.76991000  F       0.00410600      -0.05277300       0.04541800
Cu       7.50909000       2.50303000      11.76991000  F      -0.03828400      -0.03336100       0.06525500
Cu      10.01212000       2.50303000      11.76991000  F       0.07956100      -0.03298700       0.03164300
Cu       0.00000000       5.00606000      11.76991000  F      -0.08421500       0.00080900       0.06326500
Cu       2.50303000       5.00606000      11.76991000  F       0.06366100       0.00100300       0.08660500
Cu       5.00606000       5.00606000      11.76991000  F      -0.03153800       0.00251400       0.10049300
Cu       7.50909000       5.00606000      11.76991000  F      -0.04597400       0.00236100       0.07743800
Cu      10.01212000       5.00606000      11.76991000  F       0.06864200       0.00023700       0.05483000
Cu       0.00000000       7.50909000      11.76991000  F      -0.06107700      -0.06562900       0.06777200
Cu       2.50303000       7.50909000      11.76991000  F       0.03640200      -0.06662900       0.08271200
Cu       5.00606000       7.50909000      11.76991000  F       0.00592800       0.04897900       0.04719300
Cu       7.50909000       7.50909000      11.76991000  F      -0.03898800       0.02960000       0.06691600
Cu      10.01212000       7.50909000      11.76991000  F       0.08014500       0.03096800       0.03182400
Cu       0.00000000      10.01212000      11.76991000  F      -0.01801900      -0.04495100       0.04279000
Cu       2.50303000      10.01212000      11.76991000  F       0.05292700      -0.01646900       0.05271400
Cu       5.00606000      10.01212000      11.76991000  F       0.05070000      -0.10342900       0.06942700
Cu       7.50909000      10.01212000      11.76991000  F       0.00487200      -0.07432700       0.06886200
Cu      10.01212000      10.01212000      11.76991000  F      -0.05932600      -0.07453500       0.07430100
Cu       1.26190000       1.24613000      13.57007000  T      -0.00002900       0.00006700      -0.00005500
Cu       3.78073000       1.25808000      13.59934000  T       0.00030200      -0.00002400      -0.00047900
Cu       6.27747000       1.28126000      13.61682000  T       0.00069100       0.00032900      -0.00022800
Cu       8.75209000       1.27917000      13.60972000  T       0.00039700       0.00060100       0.00038900
Cu      11.25778000       1.26400000      13.59034000  T      -0.00034200       0.00055800       0.00055500
Cu       1.23346000       3.76615000      13.58642000  T      -0.00079100      -0.00008100      -0.00047600
Cu       3.77142000       3.74592000      13.59685000  T      -0.00059300       0.00030100      -0.00065400
Cu       6.27340000       3.76236000      13.56822000  T      -0.00024000       0.00035700      -0.00012600
Cu       8.74836000       3.76189000      13.54932000  T      -0.00031800       0.00033900       0.00020100
Cu      11.24501000       3.77180000      13.61780000  T      -0.00132000       0.00033500       0.00113400
Cu       1.23347000       6.24570000      13.58632000  T      -0.00062200       0.00016600      -0.00056100
Cu       3.77149000       6.26626000      13.59680000  T      -0.00049900      -0.00007000      -0.00062700
Cu       6.27374000       6.24987000      13.56850000  T      -0.00024800      -0.00014700      -0.00013900
Cu       8.74853000       6.25016000      13.54929000  T      -0.00031700      -0.00033300       0.00020000
Cu      11.24509000       6.23946000      13.61712000  T      -0.00122700      -0.00054900       0.00105800
Cu       1.26232000       8.76507000      13.57008000  T       0.00009000      -0.00013100      -0.00006400
Cu       3.78103000       8.75387000      13.59931000  T       0.00042400       0.00003300      -0.00049400
Cu       6.27788000       8.73176000      13.61663000  T       0.00067400      -0.00028300      -0.00021700
Cu       8.75229000       8.73346000      13.60938000  T       0.00037200      -0.00065700       0.00033500
Cu      11.25830000       8.74821000      13.58998000  T      -0.00027400      -0.00072000       0.00047000
Cu       1.25080000      11.26361000      13.59120000  T       0.00040400      -0.00007700      -0.00014900
Cu       3.74600000      11.26385000      13.57438000  T       0.00048600      -0.00006000      -0.00025700
Cu       6.25563000      11.26439000      13.56685000  T       0.00058000      -0.00000900      -0.00018000
Cu       8.75804000      11.26394000      13.57168000  T       0.00044600      -0.00007700       0.00003300
Cu      11.27161000      11.26394000      13.56961000  T       0.00016900      -0.00004200       0.00009000
Cu      12.51011000      12.51300000      15.36213000  T       0.00055700      -0.00005100      -0.00001600
Cu       2.50591000       0.00760000      15.36430000  T       0.00064000       0.00015000      -0.00024800
Cu       5.00511000      12.48434000      15.35846000  T       0.00055300      -0.00006200      -0.00047400
Cu       7.50750000      12.50523000      15.34779000  T       0.00041600       0.00012200      -0.00001500
Cu      10.01332000      12.49256000      15.34847000  T       0.00035500       0.00026800       0.00042100
Cu       0.04659000       2.47012000      15.35204000  T      -0.00027100       0.00013500       0.00021000
Cu       2.51059000       2.50708000      15.34898000  T      -0.00012800       0.00030800      -0.00084800
Cu       4.98746000       2.41685000      15.47266000  T      -0.00079600      -0.00022300      -0.00228500
Cu       7.53340000       2.54578000      15.47495000  T       0.00046200       0.00040300      -0.00006400
Cu      10.08885000       2.44068000      15.42628000  T      -0.00012900       0.00074400       0.00208400
Cu      -0.00057000       5.00669000      15.46484000  T      -0.00287300      -0.00005300      -0.00084600
Cu       2.47833000       5.00591000      15.34374000  T      -0.00181400       0.00005100      -0.00113800
Pd       5.00336000       5.00608000      15.51075000  T      -0.00445800       0.00029700      -0.00277100
Y        7.55161000       5.00631000      17.42816000  T      -0.00323600      -0.00001500       0.00292800
Cu       9.91862000       5.00561000      15.41092000  T      -0.00296100      -0.00007200       0.00276300
Cu       0.04636000       7.54322000      15.35214000  T      -0.00014500      -0.00026100       0.00021700
Cu       2.51052000       7.50432000      15.34889000  T       0.00007200      -0.00018500      -0.00083900
Cu       4.98759000       7.59509000      15.47266000  T      -0.00081800       0.00059400      -0.00216000
Cu       7.53351000       7.46734000      15.47508000  T       0.00046800      -0.00024900      -0.00012400
Cu      10.08867000       7.57055000      15.42486000  T      -0.00003700      -0.00090400       0.00185800
Cu      12.51125000      10.01526000      15.36223000  T       0.00054600      -0.00010700      -0.00002700
Cu       2.50713000      10.00470000      15.36404000  T       0.00066400      -0.00013000      -0.00023200
Cu       5.00642000      10.04201000      15.35778000  T       0.00055400       0.00016300      -0.00049300
Cu       7.50863000      10.02259000      15.34788000  T       0.00037600      -0.00013000      -0.00006600
Cu      10.01433000      10.03362000      15.34810000  T       0.00033900      -0.00043200       0.00033900
O        6.12305000       3.44833000      16.62046000  T      -0.00156400       0.00052100      -0.00262800
O        6.12323000       6.56411000      16.62040000  T      -0.00151200      -0.00058900      -0.00267200
O        8.98506000       6.44819000      16.48914000  T      -0.00155800      -0.00036600       0.00319500
O        8.98513000       3.56355000      16.49010000  T      -0.00144500       0.00034100       0.00341600
C       12.14829000       5.01635000      17.28157000  T       0.00583800       0.00001600      -0.00237400
O        7.81545000       5.00773000      19.42347000  T      -0.02788600       0.00015800       0.00559000
O       11.92766000       5.02350000      18.41418000  T       0.01280900       0.00009500       0.00472300
H        8.18433000       5.00765000      20.31433000  T      -0.04410100       0.00010900       0.01337800
108
Lattice="12.515153631 0.0 0.0 0.0 12.515153631 0.0 0.0 0.0 25.30973" Properties=species:S:1:pos:R:3:move_mask:L:1:forces:R:3 stress="0.008201112055572944 4.930792209447775e-07 0.00012984211434574942 4.930792209447775e-07 0.007986441590697316 7.302565677283412e-07 0.00012984211434574942 7.302565677283412e-07 0.0019388561533552496" free_energy=-439.33481341 energy=-439.33473937 pbc="T T T"
Cu       1.25152000       1.25152000      10.00000000  F      -0.00635000      -0.00749800      -0.07378900
Cu       3.75455000       1.25152000      10.00000000  F       0.01816300      -0.00713300      -0.06503000
Cu       6.25758000       1.25152000      10.00000000  F      -0.01363800       0.00758400      -0.06087000
Cu       8.76061000       1.25152000      10.00000000  F       0.00303300       0.00621600      -0.04827800
Cu      11.26364000       1.25152000      10.00000000  F      -0.00464600       0.01002500      -0.07125100
Cu       1.25152000       3.75455000      10.00000000  F      -0.00409100       0.00857400      -0.06121100
Cu       3.75455000       3.75455000      10.00000000  F       0.00769200      -0.01494700      -0.05675800
Cu       6.25758000       3.75455000      10.00000000  F      -0.01502200      -0.01839200      -0.08040600
Cu       8.76061000       3.75455000      10.00000000  F       0.02718600      -0.01610800      -0.08884900
Cu      11.26364000       3.75455000      10.00000000  F      -0.01409700       0.00040300      -0.05518400
Cu       1.25152000       6.25758000      10.00000000  F      -0.00444700      -0.00710300      -0.06297600
Cu       3.75455000       6.25758000      10.00000000  F       0.00891500       0.01560600      -0.05716000
Cu       6.25758000       6.25758000      10.00000000  F      -0.01498100       0.02031200      -0.08359100
Cu       8.76061000       6.25758000      10.00000000  F       0.02589600       0.01680600      -0.08945100
Cu      11.26364000       6.25758000      10.00000000  F      -0.01370000       0.00107700      -0.05683700
Cu       1.25152000       8.76061000      10.00000000  F      -0.00609300       0.00393200      -0.07262200
Cu       3.75455000       8.76061000      10.00000000  F       0.01741100       0.00467100      -0.06411300
Cu       6.25758000       8.76061000      10.00000000  F      -0.01360000      -0.01177300      -0.05867700
Cu       8.76061000       8.76061000      10.00000000  F       0.00376100      -0.00879800      -0.04741800
Cu      11.26364000       8.76061000      10.00000000  F      -0.00491900      -0.01360200      -0.07000800
Cu       1.25152000      11.26364000      10.00000000  F      -0.00635200       0.00182700      -0.00786000
Cu       3.75455000      11.26364000      10.00000000  F       0.00591300       0.00153400      -0.06967900
Cu       6.25758000      11.26364000      10.00000000  F      -0.00852400       0.00194100      -0.07925500
Cu       8.76061000      11.26364000      10.00000000  F      -0.00897500       0.00159400      -0.07018800
Cu      11.26364000      11.26364000      10.00000000  F       0.01621500       0.00186500      -0.05833200
Cu       0.00000000       0.00000000      11.76991000  F      -0.01949500       0.04677100       0.04486500
Cu       2.50303000       0.00000000      11.76991000  F       0.05109200       0.01680400       0.05257500
Cu       5.00606000       0.00000000      11.76991000  F       0.05059800       0.10596500       0.07069500
Cu       7.50909000       0.00000000      11.76991000  F       0.00508000       0.07744700       0.07049600
Cu      10.01212000       0.00000000      11.76991000  F      -0.05861800       0.07624100       0.07424300
Cu       0.00000000       2.50303000      11.76991000  F      -0.06206300       0.06089800       0.06664100
Cu       2.50303000       2.50303000      11.76991000  F       0.03526600       0.06370900       0.08378200
Cu       5.00606000       2.50303000      11.76991000  F       0.00382100      -0.05310300       0.04592900
Cu       7.50909000       2.50303000      11.76991000  F      -0.03793100      -0.03377200       0.06525700
Cu      10.01212000       2.50303000      11.76991000  F       0.07981300      -0.03330800       0.03128900
Cu       0.00000000       5.00606000      11.76991000  F      -0.08478300       0.00080300       0.06300600
Cu       2.50303000       5.00606000      11.76991000  F       0.06277100       0.00100400       0.08690200
Cu       5.00606000       5.00606000      11.76991000  F      -0.03186400       0.00252200       0.10095300
Cu       7.50909000       5.00606000      11.76991000  F      -0.04562800       0.00237200       0.07741000
Cu      10.01212000       5.00606000      11.76991000  F       0.06895700       0.00025100       0.05445400
Cu       0.00000000       7.50909000      11.76991000  F      -0.06168100      -0.06541900       0.06753400
Cu       2.50303000       7.50909000      11.76991000  F       0.03559900      -0.06634700       0.08299900
Cu       5.00606000       7.50909000      11.76991000  F       0.00566400       0.04931400       0.04760300
Cu       7.50909000       7.50909000      11.76991000  F      -0.03865100       0.03002100       0.06685200
Cu      10.01212000       7.50909000      11.76991000  F       0.08037400       0.03126200       0.03144500
Cu       0.00000000      10.01212000      11.76991000  F      -0.01865900      -0.04484400       0.04256200
Cu       2.50303000      10.01212000      11.76991000  F       0.05220400      -0.01639600       0.05298000
Cu       5.00606000      10.01212000      11.76991000  F       0.05060100      -0.10318000       0.06970700
Cu       7.50909000      10.01212000      11.76991000  F       0.00522800      -0.07411400       0.06868400
Cu      10.01212000      10.01212000      11.76991000  F      -0.05924700      -0.07441200       0.07380700
Cu       1.26168000       1.24608000      13.57008000  T       0.00355500       0.00083700      -0.00027700
Cu       3.78063000       1.25800000      13.59935000  T       0.00187400       0.00125600      -0.00012200
Cu       6.27758000       1.28114000      13.61678000  T      -0.00151200       0.00223900       0.00107300
Cu       8.75226000       1.27906000      13.60966000  T      -0.00254200       0.00257600       0.00153400
Cu      11.25773000       1.26393000      13.59032000  T       0.00028200       0.00173400       0.00039800
Cu       1.23325000       3.76613000      13.58642000  T       0.00244200       0.00030800      -0.00034800
Cu       3.77126000       3.74591000      13.59686000  T       0.00183400       0.00044300      -0.00000400
Cu       6.27348000       3.76233000      13.56818000  T      -0.00191400       0.00065000       0.00157200
Cu       8.74851000       3.76184000      13.54921000  T      -0.00294400       0.00098800       0.00292300
Cu      11.24501000       3.77177000      13.61777000  T      -0.00166100       0.00091500       0.00208300
Cu       1.23327000       6.24574000      13.58631000  T       0.00251000      -0.00056600      -0.00030900
Cu       3.77135000       6.26631000      13.59681000  T       0.00178200      -0.00089500       0.00012300
Cu       6.27381000       6.24993000      13.56846000  T      -0.00180300      -0.00098800       0.00145800
Cu       8.74867000       6.25023000      13.54918000  T      -0.00261600      -0.00137600       0.00286800
Cu      11.24509000       6.23950000      13.61707000  T      -0.00168000      -0.00127700       0.00213600
Cu       1.26211000       8.76512000      13.57008000  T       0.00346200      -0.00080100      -0.00017500
Cu       3.78093000       8.75394000      13.59932000  T       0.00191200      -0.00095000      -0.00022100
Cu       6.27799000       8.73187000      13.61660000  T      -0.00142600      -0.00201800       0.00090100
Cu       8.75245000       8.73357000      13.60932000  T      -0.00241600      -0.00257500       0.00139000
Cu      11.25825000       8.74827000      13.58996000  T       0.00039700      -0.00177600       0.00050300
Cu       1.25060000      11.26360000      13.59120000  T       0.00372900       0.00012100      -0.00017500
Cu       3.74592000      11.26384000      13.57439000  T       0.00163400       0.00023000      -0.00002100
Cu       6.25577000      11.26438000      13.56684000  T      -0.00209200       0.00019100       0.00014600
Cu       8.75820000      11.26392000      13.57164000  T      -0.00233600       0.00018100       0.00024600
Cu      11.27154000      11.26394000      13.56959000  T       0.00127300      -0.00002000      -0.00014900
Cu      12.51001000      12.51297000      15.36208000  T       0.00163400       0.00036800       0.00133900
Cu       2.50578000       0.00756000      15.36435000  T       0.00225600       0.00059400      -0.00093200
Cu       5.00510000      12.48426000      15.35852000  T       0.00057500       0.00129300      -0.00155700
Cu       7.50762000      12.50513000      15.34777000  T      -0.00134700       0.00173600       0.00043900
Cu      10.01337000      12.49250000      15.34839000  T      -0.00066400       0.00127900       0.00240600
Cu       0.04650000       2.47008000      15.35201000  T       0.00059200       0.00079600       0.00106500
Cu       2.51042000       2.50704000      15.34902000  T       0.00206900       0.00075000      -0.00170400
Cu       4.98738000       2.41678000      15.47274000  T       0.00102300       0.00134600      -0.00281400
Cu       7.53348000       2.54566000      15.47494000  T      -0.00030000       0.00294100       0.00122100
Cu      10.08893000       2.44062000      15.42627000  T      -0.00256500       0.00257000       0.00342400
Cu      -0.00068000       5.00669000      15.46487000  T      -0.00230200      -0.00006000      -0.00055100
Cu       2.47812000       5.00592000      15.34377000  T       0.00115100      -0.00002400      -0.00166600
Pd       5.00337000       5.00607000      15.51093000  T      -0.00739600       0.00109700      -0.01360400
Y        7.55148000       5.00629000      17.42838000  T      -0.00277300       0.00020300      -0.00185800
Cu       9.91871000       5.00562000      15.41095000  T      -0.00555200      -0.00018600       0.00363200
Cu       0.04627000       7.54327000      15.35211000  T       0.00078300      -0.00094900       0.00112600
Cu       2.51037000       7.50436000      15.34892000  T       0.00193600      -0.00076400      -0.00145300
Cu       4.98754000       7.59516000      15.47274000  T       0.00050100      -0.00103700      -0.00278400
Cu       7.53359000       7.46745000      15.47508000  T      -0.00015700      -0.00271300       0.00106300
Cu      10.08874000       7.57061000      15.42486000  T      -0.00217200      -0.00262800       0.00312200
Cu      12.51115000      10.01529000      15.36218000  T       0.00158700      -0.00054400       0.00131500
Cu       2.50701000      10.00473000      15.36408000  T       0.00220300      -0.00051300      -0.00084500
Cu       5.00642000      10.04207000      15.35783000  T       0.00055700      -0.00086000      -0.00137000
Cu       7.50874000      10.02267000      15.34785000  T      -0.00133400      -0.00156000       0.00062000
Cu      10.01438000      10.03366000      15.34801000  T      -0.00063300      -0.00136000       0.00241100
O        6.12309000       3.44819000      16.62079000  T      -0.00194900       0.00024300      -0.00583400
O        6.12328000       6.56426000      16.62072000  T      -0.00185200      -0.00054700      -0.00557700
O        8.98525000       6.44818000      16.48934000  T      -0.00248400       0.00041500       0.00077900
O        8.98533000       3.56356000      16.49031000  T      -0.00237500      -0.00060700       0.00074800
C       12.14855000       5.01636000      17.28177000  T       0.00551200      -0.00005300      -0.00848900
O        7.81583000       5.00773000      19.42319000  T      -0.02232500       0.00006400       0.00539400
O       11.92787000       5.02349000      18.41430000  T       0.01014700       0.00009700       0.00804700
H        8.17673000       5.00768000      20.31726000  T      -0.03929100       0.00008300       0.01245900
108
Lattice="12.515153631 0.0 0.0 0.0 12.515153631 0.0 0.0 0.0 25.30973" Properties=species:S:1:pos:R:3:move_mask:L:1:forces:R:3 stress="0.008208576900487501 4.3066412968594477e-07 0.000126496665454276 4.3066412968594477e-07 0.00799604727324205 6.740829855953919e-07 0.000126496665454276 6.740829855953919e-07 0.001957218673203598" free_energy=-439.33631953 energy=-439.33624851 pbc="T T T"
Cu       1.25152000       1.25152000      10.00000000  F      -0.00639500      -0.00750100      -0.07382100
Cu       3.75455000       1.25152000      10.00000000  F       0.01799700      -0.00711700      -0.06504100
Cu       6.25758000       1.25152000      10.00000000  F      -0.01389500       0.00761300      -0.06093500
Cu       8.76061000       1.25152000      10.00000000  F       0.00283200       0.00623300      -0.04841100
Cu      11.26364000       1.25152000      10.00000000  F      -0.00471400       0.01002800      -0.07136900
Cu       1.25152000       3.75455000      10.00000000  F      -0.00412400       0.00859200      -0.06126300
Cu       3.75455000       3.75455000      10.00000000  F       0.00752600      -0.01494200      -0.05680100
Cu       6.25758000       3.75455000      10.00000000  F      -0.01528200      -0.01838500      -0.08048600
Cu       8.76061000       3.75455000      10.00000000  F       0.02698200      -0.01609800      -0.08894900
Cu      11.26364000       3.75455000      10.00000000  F      -0.01416900       0.00041300      -0.05529900
Cu       1.25152000       6.25758000      10.00000000  F      -0.00447800      -0.00708500      -0.06302500
Cu       3.75455000       6.25758000      10.00000000  F       0.00874600       0.01563600      -0.05719000
Cu       6.25758000       6.25758000      10.00000000  F      -0.01524000       0.02033500      -0.08368100
Cu       8.76061000       6.25758000      10.00000000  F       0.02568700       0.01682100      -0.08956800
Cu      11.26364000       6.25758000      10.00000000  F      -0.01377000       0.00109400      -0.05695600
Cu       1.25152000       8.76061000      10.00000000  F      -0.00613200       0.00395600      -0.07264100
Cu       3.75455000       8.76061000      10.00000000  F       0.01724300       0.00467700      -0.06410800
Cu       6.25758000       8.76061000      10.00000000  F      -0.01386500      -0.01177800      -0.05873800
Cu       8.76061000       8.76061000      10.00000000  F       0.00355800      -0.00879000      -0.04755900
Cu      11.26364000       8.76061000      10.00000000  F      -0.00498100      -0.01357700      -0.07012700
Cu       1.25152000      11.26364000      10.00000000  F      -0.00640700       0.00183600      -0.00787800
Cu       3.75455000      11.26364000      10.00000000  F       0.00573900       0.00154200      -0.06967600
Cu       6.25758000      11.26364000      10.00000000  F      -0.00877800       0.00195000      -0.07932200
Cu       8.76061000      11.26364000      10.00000000  F      -0.00917600       0.00160700      -0.07032100
Cu      11.26364000      11.26364000      10.00000000  F       0.01616700       0.00187700      -0.05842900
Cu       0.00000000       0.00000000      11.76991000  F      -0.01950000       0.04685900       0.04487200
Cu       2.50303000       0.00000000      11.76991000  F       0.05109300       0.01681500       0.05232300
Cu       5.00606000       0.00000000      11.76991000  F       0.05042700       0.10600800       0.07047200
Cu       7.50909000       0.00000000      11.76991000  F       0.00483500       0.07759200       0.07047100
Cu      10.01212000       0.00000000      11.76991000  F      -0.05875900       0.07634400       0.07431600
Cu       0.00000000       2.50303000      11.76991000  F      -0.06230000       0.06096500       0.06663200
Cu       2.50303000       2.50303000      11.76991000  F       0.03516100       0.06367600       0.08344800
Cu       5.00606000       2.50303000      11.76991000  F       0.00363600      -0.05306500       0.04566600
Cu       7.50909000       2.50303000      11.76991000  F      -0.03820300      -0.03360900       0.06524500
Cu      10.01212000       2.50303000      11.76991000  F       0.07956600      -0.03311700       0.03134800
Cu       0.00000000       5.00606000      11.76991000  F      -0.08515800       0.00080800       0.06302300
Cu       2.50303000       5.00606000      11.76991000  F       0.06258400       0.00101800       0.08651700
Cu       5.00606000       5.00606000      11.76991000  F      -0.03206000       0.00254200       0.10057900
Cu       7.50909000       5.00606000      11.76991000  F      -0.04598700       0.00238100       0.07746700
Cu      10.01212000       5.00606000      11.76991000  F       0.06864900       0.00024700       0.05448800
Cu       0.00000000       7.50909000      11.76991000  F      -0.06190200      -0.06547300       0.06751600
Cu       2.50303000       7.50909000      11.76991000  F       0.03552100      -0.06627700       0.08265800
Cu       5.00606000       7.50909000      11.76991000  F       0.00547900       0.04931000       0.04732000
Cu       7.50909000       7.50909000      11.76991000  F      -0.03891100       0.02988900       0.06682300
Cu      10.01212000       7.50909000      11.76991000  F       0.08013300       0.03107900       0.03149400
Cu       0.00000000      10.01212000      11.76991000  F      -0.01865000      -0.04492200       0.04256500
Cu       2.50303000      10.01212000      11.76991000  F       0.05220300      -0.01638200       0.05272500
Cu       5.00606000      10.01212000      11.76991000  F       0.05044200      -0.10317600       0.06946400
Cu       7.50909000      10.01212000      11.76991000  F       0.00498400      -0.07422500       0.06864800
Cu      10.01212000      10.01212000      11.76991000  F      -0.05938200      -0.07450800       0.07387400
Cu       1.26172000       1.24610000      13.57006000  T       0.00064800       0.00011300       0.00014500
Cu       3.78066000       1.25801000      13.59932000  T       0.00022100       0.00018900      -0.00015100
Cu       6.27759000       1.28119000      13.61679000  T      -0.00048400       0.00051500       0.00028000
Cu       8.75223000       1.27914000      13.60970000  T      -0.00060700       0.00064900       0.00079600
Cu      11.25770000       1.26400000      13.59034000  T       0.00000400       0.00042500       0.00065500
Cu       1.23320000       3.76613000      13.58637000  T       0.00015000      -0.00003700      -0.00000600
Cu       3.77122000       3.74593000      13.59682000  T      -0.00016300      -0.00025000      -0.00061700
Cu       6.27340000       3.76236000      13.56822000  T      -0.00041600      -0.00007200       0.00011600
Cu       8.74843000       3.76188000      13.54930000  T      -0.00084100       0.00019500       0.00087700
Cu      11.24487000       3.77181000      13.61787000  T      -0.00072800       0.00000600       0.00076600
Cu       1.23324000       6.24574000      13.58626000  T       0.00017200      -0.00002100       0.00004400
Cu       3.77131000       6.26629000      13.59677000  T      -0.00020300       0.00018100      -0.00062700
Cu       6.27374000       6.24991000      13.56850000  T      -0.00040800      -0.00000400       0.00011500
Cu       8.74858000       6.25018000      13.54927000  T      -0.00068900      -0.00032100       0.00089300
Cu      11.24495000       6.23944000      13.61717000  T      -0.00069500      -0.00013300       0.00081000
Cu       1.26216000       8.76510000      13.57006000  T       0.00063700      -0.00007400       0.00016400
Cu       3.78097000       8.75393000      13.59928000  T       0.00018100      -0.00007800      -0.00016400
Cu       6.27800000       8.73183000      13.61660000  T      -0.00046200      -0.00042700       0.00025200
Cu       8.75243000       8.73348000      13.60936000  T      -0.00057100      -0.00062000       0.00077300
Cu      11.25823000       8.74819000      13.58997000  T       0.00005100      -0.00042300       0.00072100
Cu       1.25069000      11.26360000      13.59117000  T       0.00076800       0.00002700       0.00022400
Cu       3.74597000      11.26384000      13.57437000  T       0.00012300       0.00009900      -0.00000400
Cu       6.25576000      11.26438000      13.56683000  T      -0.00063900       0.00006900       0.00015200
Cu       8.75817000      11.26392000      13.57162000  T      -0.00056000       0.00006200       0.00057800
Cu      11.27157000      11.26393000      13.56956000  T       0.00030200      -0.00001600       0.00054900
Cu      12.51005000      12.51296000      15.36213000  T       0.00033900       0.00006800      -0.00000700
Cu       2.50584000       0.00758000      15.36432000  T       0.00044400       0.00013500      -0.00037800
Cu       5.00515000      12.48428000      15.35845000  T      -0.00004900       0.00034600      -0.00040900
Cu       7.50763000      12.50517000      15.34778000  T      -0.00045000       0.00042400       0.00002600
Cu      10.01338000      12.49254000      15.34849000  T      -0.00018800       0.00032600       0.00031900
Cu       0.04646000       2.47009000      15.35207000  T      -0.00006900       0.00015700       0.00011900
Cu       2.51040000       2.50706000      15.34893000  T       0.00029500       0.00009400      -0.00048800
Cu       4.98736000       2.41681000      15.47255000  T      -0.00025300      -0.00007300      -0.00102800
Cu       7.53352000       2.54577000      15.47502000  T      -0.00018400       0.00087800       0.00051100
Cu      10.08883000       2.44074000      15.42655000  T      -0.00075000       0.00062300       0.00101700
Cu      -0.00098000       5.00669000      15.46483000  T      -0.00110800      -0.00001200      -0.00033700
Cu       2.47795000       5.00592000      15.34366000  T      -0.00103400       0.00000300      -0.00054100
Pd       5.00298000       5.00611000      15.51059000  T       0.00437100      -0.00042500       0.00392400
Y        7.55090000       5.00630000      17.42861000  T       0.00327500       0.00027900       0.00082400
Cu       9.91835000       5.00561000      15.41127000  T      -0.00255900      -0.00002500       0.00176500
Cu       0.04624000       7.54324000      15.35217000  T      -0.00004900      -0.00019800       0.00010500
Cu       2.51037000       7.50435000      15.34883000  T       0.00025300      -0.00007200      -0.00042400
Cu       4.98750000       7.59516000      15.47257000  T      -0.00023200       0.00018500      -0.00089400
Cu       7.53363000       7.46736000      15.47515000  T      -0.00016100      -0.00084600       0.00051100
Cu      10.08865000       7.57047000      15.42511000  T      -0.00070700      -0.00077100       0.00101800
Cu      12.51120000      10.01528000      15.36222000  T       0.00032200      -0.00011000      -0.00002300
Cu       2.50707000      10.00471000      15.36405000  T       0.00042200      -0.00007400      -0.00035300
Cu       5.00647000      10.04207000      15.35777000  T      -0.00005300      -0.00015500      -0.00035600
Cu       7.50875000      10.02264000      15.34787000  T      -0.00043900      -0.00036100       0.00007200
Cu      10.01439000      10.03361000      15.34811000  T      -0.00014200      -0.00034900       0.00031200
O        6.12294000       3.44819000      16.62054000  T      -0.00103900       0.00117600      -0.00277400
O        6.12313000       6.56426000      16.62048000  T      -0.00108200      -0.00113500      -0.00268900
O        8.98511000       6.44820000      16.48965000  T      -0.00224900       0.00033000       0.00060300
O        8.98519000       3.56354000      16.49062000  T      -0.00229200      -0.00025800       0.00073100
C       12.14934000       5.01637000      17.28185000  T       0.00283900       0.00000700       0.00531200
O        7.81250000       5.00775000      19.42389000  T      -0.02596300       0.00008100       0.00649100
O       11.92967000       5.02350000      18.41469000  T       0.01275600      -0.00006800      -0.00374100
H        8.16632000       5.00771000      20.32086000  T      -0.03502700       0.00005000       0.00508700
108
Lattice="12.515153631 0.0 0.0 0.0 12.515153631 0.0 0.0 0.0 25.30973" Properties=species:S:1:pos:R:3:move_mask:L:1:forces:R:3 stress="0.00819388438800517 4.681131844412444e-07 0.00012477400893553221 4.681131844412444e-07 0.007981142549449441 6.803244947212751e-07 0.00012477400893553221 6.803244947212751e-07 0.0019381196552783954" free_energy=-439.33619095 energy=-439.33611467 pbc="T T T"
Cu       1.25152000       1.25152000      10.00000000  F      -0.00625700      -0.00738700      -0.07397800
Cu       3.75455000       1.25152000      10.00000000  F       0.01823400      -0.00703500      -0.06515300
Cu       6.25758000       1.25152000      10.00000000  F      -0.01361800       0.00764900      -0.06095600
Cu       8.76061000       1.25152000      10.00000000  F       0.00298200       0.00626900      -0.04841300
Cu      11.26364000       1.25152000      10.00000000  F      -0.00467200       0.01011100      -0.07144600
Cu       1.25152000       3.75455000      10.00000000  F      -0.00398500       0.00864900      -0.06128800
Cu       3.75455000       3.75455000      10.00000000  F       0.00773100      -0.01488200      -0.05680700
Cu       6.25758000       3.75455000      10.00000000  F      -0.01502500      -0.01833800      -0.08047600
Cu       8.76061000       3.75455000      10.00000000  F       0.02714000      -0.01606400      -0.08893200
Cu      11.26364000       3.75455000      10.00000000  F      -0.01408700       0.00047000      -0.05529300
Cu       1.25152000       6.25758000      10.00000000  F      -0.00433900      -0.00716400      -0.06305800
Cu       3.75455000       6.25758000      10.00000000  F       0.00895500       0.01555700      -0.05721200
Cu       6.25758000       6.25758000      10.00000000  F      -0.01498400       0.02027500      -0.08366800
Cu       8.76061000       6.25758000      10.00000000  F       0.02584400       0.01677500      -0.08953600
Cu      11.26364000       6.25758000      10.00000000  F      -0.01368800       0.00102200      -0.05694500
Cu       1.25152000       8.76061000      10.00000000  F      -0.00599800       0.00384300      -0.07281300
Cu       3.75455000       8.76061000      10.00000000  F       0.01748400       0.00459300      -0.06423800
Cu       6.25758000       8.76061000      10.00000000  F      -0.01358100      -0.01181600      -0.05876600
Cu       8.76061000       8.76061000      10.00000000  F       0.00370700      -0.00882900      -0.04756100
Cu      11.26364000       8.76061000      10.00000000  F      -0.00494600      -0.01366200      -0.07021000
Cu       1.25152000      11.26364000      10.00000000  F      -0.00627300       0.00184400      -0.00807000
Cu       3.75455000      11.26364000      10.00000000  F       0.00601700       0.00154800      -0.06988000
Cu       6.25758000      11.26364000      10.00000000  F      -0.00848800       0.00195400      -0.07937200
Cu       8.76061000      11.26364000      10.00000000  F      -0.00903800       0.00160900      -0.07035300
Cu      11.26364000      11.26364000      10.00000000  F       0.01616800       0.00188100      -0.05851300
Cu       0.00000000       0.00000000      11.76991000  F      -0.01954200       0.04696600       0.04525300
Cu       2.50303000       0.00000000      11.76991000  F       0.05130700       0.01690300       0.05254800
Cu       5.00606000       0.00000000      11.76991000  F       0.05080300       0.10610800       0.07065600
Cu       7.50909000       0.00000000      11.76991000  F       0.00510200       0.07766700       0.07072300
Cu      10.01212000       0.00000000      11.76991000  F      -0.05876600       0.07643500       0.07466100
Cu       0.00000000       2.50303000      11.76991000  F      -0.06238500       0.06112600       0.06688700
Cu       2.50303000       2.50303000      11.76991000  F       0.03529500       0.06381000       0.08359300
Cu       5.00606000       2.50303000      11.76991000  F       0.00397600      -0.05288500       0.04585200
Cu       7.50909000       2.50303000      11.76991000  F      -0.03801000      -0.03346900       0.06547300
Cu      10.01212000       2.50303000      11.76991000  F       0.07955200      -0.03295800       0.03159700
Cu       0.00000000       5.00606000      11.76991000  F      -0.08527000       0.00079000       0.06322200
Cu       2.50303000       5.00606000      11.76991000  F       0.06271200       0.00100300       0.08669700
Cu       5.00606000       5.00606000      11.76991000  F      -0.03177200       0.00253300       0.10082300
Cu       7.50909000       5.00606000      11.76991000  F      -0.04586400       0.00237100       0.07769300
Cu      10.01212000       5.00606000      11.76991000  F       0.06863600       0.00022200       0.05469700
Cu       0.00000000       7.50909000      11.76991000  F      -0.06197900      -0.06565500       0.06777800
Cu       2.50303000       7.50909000      11.76991000  F       0.03566800      -0.06641900       0.08280600
Cu       5.00606000       7.50909000      11.76991000  F       0.00582100       0.04912400       0.04751100
Cu       7.50909000       7.50909000      11.76991000  F      -0.03871900       0.02972600       0.06705500
Cu      10.01212000       7.50909000      11.76991000  F       0.08012000       0.03089700       0.03174700
Cu       0.00000000      10.01212000      11.76991000  F      -0.01868900      -0.04501900       0.04294900
Cu       2.50303000      10.01212000      11.76991000  F       0.05242300      -0.01645200       0.05295200
Cu       5.00606000      10.01212000      11.76991000  F       0.05082200      -0.10325600       0.06965000
Cu       7.50909000      10.01212000      11.76991000  F       0.00524900      -0.07428000       0.06890200
Cu      10.01212000      10.01212000      11.76991000  F      -0.05939000      -0.07458700       0.07422300
Cu       1.26172000       1.24611000      13.57008000  T       0.00008600       0.00018600       0.00022000
Cu       3.78066000       1.25802000      13.59932000  T       0.00019000       0.00024600       0.00002600
Cu       6.27759000       1.28122000      13.61681000  T       0.00005400       0.00040400       0.00024100
Cu       8.75221000       1.27918000      13.60975000  T      -0.00021400       0.00045900       0.00050500
Cu      11.25767000       1.26404000      13.59039000  T      -0.00029600       0.00038400       0.00053400
Cu       1.23315000       3.76613000      13.58637000  T      -0.00026700       0.00004200       0.00006100
Cu       3.77117000       3.74593000      13.59680000  T      -0.00015300       0.00006100      -0.00016000
Cu       6.27337000       3.76237000      13.56825000  T      -0.00024200       0.00017500       0.00026600
Cu       8.74837000       3.76189000      13.54936000  T      -0.00050600       0.00021200       0.00045300
Cu      11.24477000       3.77182000      13.61795000  T      -0.00083400       0.00011500       0.00060800
Cu       1.23320000       6.24574000      13.58625000  T      -0.00023300      -0.00008500       0.00008400
Cu       3.77127000       6.26629000      13.59675000  T      -0.00015700      -0.00007800      -0.00015800
Cu       6.27370000       6.24990000      13.56853000  T      -0.00022800      -0.00018400       0.00027700
Cu       8.74853000       6.25016000      13.54932000  T      -0.00042000      -0.00029600       0.00046700
Cu      11.24486000       6.23941000      13.61724000  T      -0.00081700      -0.00023100       0.00061900
Cu       1.26216000       8.76509000      13.57008000  T       0.00009600      -0.00015800       0.00024100
Cu       3.78098000       8.75393000      13.59928000  T       0.00019200      -0.00017300       0.00003800
Cu       6.27800000       8.73181000      13.61662000  T       0.00006700      -0.00033900       0.00024000
Cu       8.75241000       8.73344000      13.60940000  T      -0.00020100      -0.00044500       0.00049800
Cu      11.25820000       8.74815000      13.59001000  T      -0.00029500      -0.00040700       0.00058800
Cu       1.25071000      11.26360000      13.59118000  T       0.00017400       0.00002200       0.00033000
Cu       3.74597000      11.26384000      13.57438000  T       0.00018400       0.00007000       0.00017200
Cu       6.25575000      11.26438000      13.56684000  T      -0.00001500       0.00004800       0.00017500
Cu       8.75816000      11.26392000      13.57164000  T      -0.00018400       0.00003300       0.00039300
Cu      11.27156000      11.26393000      13.56958000  T      -0.00007400      -0.00000200       0.00042000
Cu      12.51006000      12.51296000      15.36214000  T       0.00011200       0.00004100      -0.00027200
Cu       2.50585000       0.00759000      15.36430000  T       0.00026200       0.00014200      -0.00040100
Cu       5.00516000      12.48429000      15.35842000  T       0.00013500       0.00021500      -0.00047900
Cu       7.50763000      12.50518000      15.34778000  T      -0.00013200       0.00024100      -0.00032700
Cu      10.01337000      12.49256000      15.34853000  T      -0.00012200       0.00017900      -0.00014700
Cu       0.04642000       2.47010000      15.35209000  T      -0.00022700       0.00010700      -0.00020400
Cu       2.51038000       2.50708000      15.34888000  T       0.00010700       0.00023000      -0.00056700
Cu       4.98732000       2.41681000      15.47245000  T      -0.00025600       0.00018200      -0.00111900
Cu       7.53352000       2.54583000      15.47505000  T      -0.00017600       0.00058300      -0.00010700
Cu      10.08876000       2.44080000      15.42669000  T      -0.00044900       0.00041600       0.00063400
Cu      -0.00117000       5.00669000      15.46480000  T      -0.00176600      -0.00002400      -0.00042600
Cu       2.47781000       5.00593000      15.34360000  T      -0.00074700      -0.00001200      -0.00069000
Pd       5.00287000       5.00612000      15.51056000  T       0.00283700      -0.00024300       0.00218600
Y        7.55044000       5.00631000      17.42894000  T      -0.00199200       0.00014800       0.00202900
Cu       9.91810000       5.00561000      15.41146000  T      -0.00203700      -0.00003300       0.00103900
Cu       0.04621000       7.54322000      15.35219000  T      -0.00019400      -0.00015900      -0.00020600
Cu       2.51035000       7.50434000      15.34879000  T       0.00012600      -0.00019800      -0.00052100
Cu       4.98746000       7.59518000      15.47247000  T      -0.00021800      -0.00004900      -0.00100800
Cu       7.53364000       7.46731000      15.47519000  T      -0.00016800      -0.00053600      -0.00011700
Cu      10.08859000       7.57040000      15.42524000  T      -0.00037700      -0.00050800       0.00058500
Cu      12.51120000      10.01527000      15.36223000  T       0.00010500      -0.00007800      -0.00027500
Cu       2.50708000      10.00471000      15.36404000  T       0.00026100      -0.00009700      -0.00038500
Cu       5.00648000      10.04207000      15.35774000  T       0.00013600      -0.00007800      -0.00045100
Cu       7.50875000      10.02262000      15.34787000  T      -0.00011600      -0.00018300      -0.00033300
Cu      10.01438000      10.03358000      15.34814000  T      -0.00011100      -0.00022400      -0.00015100
O        6.12284000       3.44826000      16.62036000  T      -0.00079700       0.00179500      -0.00274300
O        6.12303000       6.56419000      16.62030000  T      -0.00084200      -0.00175500      -0.00274200
O        8.98495000       6.44820000      16.48989000  T      -0.00206500      -0.00038400       0.00180300
O        8.98503000       3.56354000      16.49087000  T      -0.00203000       0.00045100       0.00198000
C       12.15024000       5.01637000      17.28201000  T       0.00416800      -0.00005400       0.00033200
O        7.80882000       5.00776000      19.42450000  T      -0.02179100       0.00002400       0.00322500
O       11.93169000       5.02350000      18.41501000  T       0.01035400       0.00004200       0.00059900
H        8.15250000       5.00776000      20.32533000  T      -0.04027900       0.00019000       0.00911000
108
Lattice="12.515153631 0.0 0.0 0.0 12.515153631 0.0 0.0 0.0 25.30973" Properties=species:S:1:pos:R:3:move_mask:L:1:forces:R:3 stress="0.008192330252232826 3.8073205667887874e-07 0.0001255292315397641 3.8073205667887874e-07 0.007979925455169894 6.865660038471585e-07 0.0001255292315397641 6.865660038471585e-07 0.0019327020253571286" free_energy=-439.33901576 energy=-439.33894146 pbc="T T T"
Cu       1.25152000       1.25152000      10.00000000  F      -0.00623200      -0.00743500      -0.07395100
Cu       3.75455000       1.25152000      10.00000000  F       0.01815100      -0.00706100      -0.06513600
Cu       6.25758000       1.25152000      10.00000000  F      -0.01373600       0.00763500      -0.06098800
Cu       8.76061000       1.25152000      10.00000000  F       0.00295500       0.00625500      -0.04848100
Cu      11.26364000       1.25152000      10.00000000  F      -0.00459500       0.01007000      -0.07147600
Cu       1.25152000       3.75455000      10.00000000  F      -0.00395900       0.00864200      -0.06125600
Cu       3.75455000       3.75455000      10.00000000  F       0.00764400      -0.01486100      -0.05681900
Cu       6.25758000       3.75455000      10.00000000  F      -0.01514000      -0.01834200      -0.08052700
Cu       8.76061000       3.75455000      10.00000000  F       0.02711300      -0.01606100      -0.08900200
Cu      11.26364000       3.75455000      10.00000000  F      -0.01401300       0.00047900      -0.05534000
Cu       1.25152000       6.25758000      10.00000000  F      -0.00431400      -0.00711400      -0.06285000
Cu       3.75455000       6.25758000      10.00000000  F       0.00888000       0.01558800      -0.05718400
Cu       6.25758000       6.25758000      10.00000000  F      -0.01510500       0.02029700      -0.08371800
Cu       8.76061000       6.25758000      10.00000000  F       0.02582300       0.01679600      -0.08959900
Cu      11.26364000       6.25758000      10.00000000  F      -0.01362800       0.00107000      -0.05694000
Cu       1.25152000       8.76061000      10.00000000  F      -0.00597800       0.00387000      -0.07271000
Cu       3.75455000       8.76061000      10.00000000  F       0.01736600       0.00458100      -0.06420200
Cu       6.25758000       8.76061000      10.00000000  F      -0.01371100      -0.01182400      -0.05879600
Cu       8.76061000       8.76061000      10.00000000  F       0.00370300      -0.00883900      -0.04762700
Cu      11.26364000       8.76061000      10.00000000  F      -0.00483700      -0.01366100      -0.07021100
Cu       1.25152000      11.26364000      10.00000000  F      -0.00625700       0.00180500      -0.00802000
Cu       3.75455000      11.26364000      10.00000000  F       0.00590900       0.00151700      -0.06983100
Cu       6.25758000      11.26364000      10.00000000  F      -0.00861400       0.00193900      -0.07940500
Cu       8.76061000      11.26364000      10.00000000  F      -0.00904600       0.00159000      -0.07041500
Cu      11.26364000      11.26364000      10.00000000  F       0.01627100       0.00184600      -0.05853500
Cu       0.00000000       0.00000000      11.76991000  F      -0.01944900       0.04691900       0.04502700
Cu       2.50303000       0.00000000      11.76991000  F       0.05128700       0.01685200       0.05230000
Cu       5.00606000       0.00000000      11.76991000  F       0.05065400       0.10608300       0.07042300
Cu       7.50909000       0.00000000      11.76991000  F       0.00499100       0.07767300       0.07054000
Cu      10.01212000       0.00000000      11.76991000  F      -0.05872300       0.07641700       0.07447600
Cu       0.00000000       2.50303000      11.76991000  F      -0.06234700       0.06101100       0.06672100
Cu       2.50303000       2.50303000      11.76991000  F       0.03529300       0.06369400       0.08337700
Cu       5.00606000       2.50303000      11.76991000  F       0.00386700      -0.05295900       0.04560500
Cu       7.50909000       2.50303000      11.76991000  F      -0.03810100      -0.03349500       0.06530000
Cu      10.01212000       2.50303000      11.76991000  F       0.07953800      -0.03299300       0.03147000
Cu       0.00000000       5.00606000      11.76991000  F      -0.08526100       0.00079200       0.06310100
Cu       2.50303000       5.00606000      11.76991000  F       0.06269600       0.00100200       0.08646200
Cu       5.00606000       5.00606000      11.76991000  F      -0.03183300       0.00253100       0.10057800
Cu       7.50909000       5.00606000      11.76991000  F      -0.04594400       0.00237200       0.07751200
Cu      10.01212000       5.00606000      11.76991000  F       0.06858500       0.00022300       0.05459300
Cu       0.00000000       7.50909000      11.76991000  F      -0.06194100      -0.06555700       0.06760500
Cu       2.50303000       7.50909000      11.76991000  F       0.03566400      -0.06631500       0.08258300
Cu       5.00606000       7.50909000      11.76991000  F       0.00573100       0.04920000       0.04726700
Cu       7.50909000       7.50909000      11.76991000  F      -0.03880600       0.02975200       0.06688200
Cu      10.01212000       7.50909000      11.76991000  F       0.08009300       0.03093200       0.03162500
Cu       0.00000000      10.01212000      11.76991000  F      -0.01859700      -0.04497500       0.04272600
Cu       2.50303000      10.01212000      11.76991000  F       0.05240100      -0.01640100       0.05270700
Cu       5.00606000      10.01212000      11.76991000  F       0.05067200      -0.10324300       0.06941600
Cu       7.50909000      10.01212000      11.76991000  F       0.00514000      -0.07430100       0.06871600
Cu      10.01212000      10.01212000      11.76991000  F      -0.05934400      -0.07458900       0.07403900
Cu       1.26172000       1.24610000      13.57007000  T       0.00049800       0.00036900       0.00038800
Cu       3.78066000       1.25802000      13.59931000  T       0.00049300       0.00052500       0.00019100
Cu       6.27759000       1.28122000      13.61681000  T      -0.00003900       0.00071600       0.00045900
Cu       8.75221000       1.27918000      13.60975000  T      -0.00039400       0.00068600       0.00071000
Cu      11.25767000       1.26404000      13.59039000  T      -0.00020500       0.00054100       0.00067800
Cu       1.23314000       3.76612000      13.58636000  T       0.00017600       0.00015300       0.00012200
Cu       3.77116000       3.74593000      13.59679000  T       0.00013200       0.00036000       0.00011300
Cu       6.27336000       3.76237000      13.56824000  T      -0.00055500       0.00029900       0.00052900
Cu       8.74837000       3.76189000      13.54936000  T      -0.00086500       0.00029500       0.00072700
Cu      11.24476000       3.77182000      13.61796000  T      -0.00086700       0.00018400       0.00082100
Cu       1.23319000       6.24575000      13.58624000  T       0.00021600      -0.00019400       0.00011800
Cu       3.77126000       6.26630000      13.59674000  T       0.00014400      -0.00036700       0.00013500
Cu       6.27370000       6.24990000      13.56852000  T      -0.00053500      -0.00031600       0.00055300
Cu       8.74853000       6.25016000      13.54933000  T      -0.00078200      -0.00041500       0.00075900
Cu      11.24485000       6.23941000      13.61725000  T      -0.00084700      -0.00033300       0.00084100
Cu       1.26215000       8.76509000      13.57007000  T       0.00052400      -0.00037700       0.00038500
Cu       3.78097000       8.75393000      13.59927000  T       0.00049700      -0.00048700       0.00019000
Cu       6.27800000       8.73181000      13.61662000  T      -0.00003700      -0.00067200       0.00046500
Cu       8.75241000       8.73344000      13.60941000  T      -0.00037400      -0.00071100       0.00070600
Cu      11.25819000       8.74814000      13.59002000  T      -0.00019300      -0.00062900       0.00074600
Cu       1.25071000      11.26360000      13.59118000  T       0.00058400      -0.00000500       0.00047100
Cu       3.74597000      11.26384000      13.57438000  T       0.00047600       0.00005200       0.00035200
Cu       6.25575000      11.26438000      13.56683000  T      -0.00003000       0.00003100       0.00033400
Cu       8.75816000      11.26392000      13.57164000  T      -0.00030800       0.00000700       0.00052300
Cu      11.27156000      11.26393000      13.56958000  T       0.00005600      -0.00003500       0.00053200
Cu      12.51006000      12.51296000      15.36214000  T       0.00042100       0.00007200      -0.00022300
Cu       2.50585000       0.00759000      15.36430000  T       0.00064100       0.00026500      -0.00059700
Cu       5.00516000      12.48429000      15.35842000  T       0.00025000       0.00036100      -0.00064900
Cu       7.50763000      12.50519000      15.34778000  T      -0.00024100       0.00041000      -0.00030200
Cu      10.01337000      12.49256000      15.34853000  T      -0.00008100       0.00027300       0.00004200
Cu       0.04641000       2.47010000      15.35210000  T       0.00000700       0.00015100      -0.00012200
Cu       2.51037000       2.50708000      15.34888000  T       0.00045300       0.00037800      -0.00087200
Cu       4.98730000       2.41681000      15.47243000  T      -0.00003100       0.00055000      -0.00135300
Cu       7.53352000       2.54583000      15.47506000  T      -0.00027600       0.00095000       0.00008600
Cu      10.08875000       2.44081000      15.42671000  T      -0.00075200       0.00078300       0.00113700
Cu      -0.00119000       5.00669000      15.46479000  T      -0.00159400      -0.00002200      -0.00070500
Cu       2.47779000       5.00593000      15.34359000  T      -0.00051300      -0.00002400      -0.00102800
Pd       5.00285000       5.00612000      15.51055000  T       0.00051600       0.00005000      -0.00013700
Y        7.55035000       5.00631000      17.42898000  T      -0.00332000       0.00009600       0.00151800
Cu       9.91806000       5.00561000      15.41149000  T      -0.00267500      -0.00007100       0.00161400
Cu       0.04620000       7.54322000      15.35219000  T       0.00000100      -0.00026700      -0.00014000
Cu       2.51034000       7.50434000      15.34879000  T       0.00049400      -0.00036000      -0.00080400
Cu       4.98745000       7.59519000      15.47246000  T       0.00005100      -0.00046000      -0.00122000
Cu       7.53364000       7.46730000      15.47519000  T      -0.00029600      -0.00089800       0.00005500
Cu      10.08858000       7.57038000      15.42526000  T       0.00025900      -0.00021100       0.00060800
Cu      12.51120000      10.01527000      15.36223000  T       0.00042600      -0.00014600      -0.00021400
Cu       2.50708000      10.00471000      15.36404000  T       0.00063400      -0.00021600      -0.00050000
Cu       5.00648000      10.04207000      15.35773000  T       0.00024600      -0.00020600      -0.00060100
Cu       7.50875000      10.02262000      15.34787000  T      -0.00022900      -0.00038300      -0.00030200
Cu      10.01438000      10.03358000      15.34814000  T      -0.00007000      -0.00039300       0.00002500
O        6.12282000       3.44830000      16.62031000  T      -0.00063500       0.00105500      -0.00271000
O        6.12301000       6.56415000      16.62024000  T      -0.00070500      -0.00102100      -0.00272200
O        8.98490000       6.44820000      16.48992000  T      -0.00172800      -0.00030900       0.00176800
O        8.98498000       3.56354000      16.49092000  T      -0.00162300       0.00028500       0.00184900
C       12.15039000       5.01637000      17.28202000  T       0.00520700      -0.00004700      -0.00364600
O        7.80800000       5.00776000      19.42460000  T      -0.02276500       0.00003200       0.00385300
O       11.93206000       5.02350000      18.41502000  T       0.00929100       0.00003200       0.00612800
H        8.15174000       5.00776000      20.32539000  T      -0.04004500       0.00020200       0.01028300
108
Lattice="12.515153631 0.0 0.0 0.0 12.515153631 0.0 0.0 0.0 25.30973" Properties=species:S:1:pos:R:3:move_mask:L:1:forces:R:3 stress="0.008194290086098354 4.181811114341783e-07 0.00012434334480584627 4.181811114341783e-07 0.00798234091920161 7.302565677283412e-07 0.00012434334480584627 7.302565677283412e-07 0.0019365280704512953" free_energy=-439.33623425 energy=-439.3361598 pbc="T T T"
Cu       1.25152000       1.25152000      10.00000000  F      -0.00626900      -0.00745300      -0.07391900
Cu       3.75455000       1.25152000      10.00000000  F       0.01813900      -0.00707600      -0.06509800
Cu       6.25758000       1.25152000      10.00000000  F      -0.01378100       0.00763900      -0.06094200
Cu       8.76061000       1.25152000      10.00000000  F       0.00287200       0.00626000      -0.04844200
Cu      11.26364000       1.25152000      10.00000000  F      -0.00467600       0.01005600      -0.07144800
Cu       1.25152000       3.75455000      10.00000000  F      -0.00398900       0.00860800      -0.06129800
Cu       3.75455000       3.75455000      10.00000000  F       0.00766400      -0.01490600      -0.05679300
Cu       6.25758000       3.75455000      10.00000000  F      -0.01517000      -0.01835200      -0.08047500
Cu       8.76061000       3.75455000      10.00000000  F       0.02701100      -0.01607300      -0.08895400
Cu      11.26364000       3.75455000      10.00000000  F      -0.01413000       0.00043100      -0.05532200
Cu       1.25152000       6.25758000      10.00000000  F      -0.00434500      -0.00711400      -0.06306600
Cu       3.75455000       6.25758000      10.00000000  F       0.00888600       0.01558700      -0.05719900
Cu       6.25758000       6.25758000      10.00000000  F      -0.01512800       0.02029400      -0.08366800
Cu       8.76061000       6.25758000      10.00000000  F       0.02571800       0.01679200      -0.08955900
Cu      11.26364000       6.25758000      10.00000000  F      -0.01373100       0.00107200      -0.05697500
Cu       1.25152000       8.76061000      10.00000000  F      -0.00601200       0.00391000      -0.07275000
Cu       3.75455000       8.76061000      10.00000000  F       0.01738700       0.00463600      -0.06418300
Cu       6.25758000       8.76061000      10.00000000  F      -0.01374200      -0.01180300      -0.05875200
Cu       8.76061000       8.76061000      10.00000000  F       0.00360000      -0.00881900      -0.04758700
Cu      11.26364000       8.76061000      10.00000000  F      -0.00494900      -0.01360600      -0.07020600
Cu       1.25152000      11.26364000      10.00000000  F      -0.00629200       0.00184300      -0.00798600
Cu       3.75455000      11.26364000      10.00000000  F       0.00589900       0.00154900      -0.06979300
Cu       6.25758000      11.26364000      10.00000000  F      -0.00866100       0.00195500      -0.07936100
Cu       8.76061000      11.26364000      10.00000000  F      -0.00913000       0.00160800      -0.07038000
Cu      11.26364000      11.26364000      10.00000000  F       0.01619300       0.00187900      -0.05849900
Cu       0.00000000       0.00000000      11.76991000  F      -0.01950700       0.04694100       0.04511300
Cu       2.50303000       0.00000000      11.76991000  F       0.05125500       0.01687800       0.05239700
Cu       5.00606000       0.00000000      11.76991000  F       0.05060100       0.10610500       0.07051900
Cu       7.50909000       0.00000000      11.76991000  F       0.00489100       0.07769100       0.07062300
Cu      10.01212000       0.00000000      11.76991000  F      -0.05882500       0.07643000       0.07455400
Cu       0.00000000       2.50303000      11.76991000  F      -0.06239800       0.06105700       0.06679600
Cu       2.50303000       2.50303000      11.76991000  F       0.03526800       0.06374400       0.08347500
Cu       5.00606000       2.50303000      11.76991000  F       0.00380500      -0.05292700       0.04570900
Cu       7.50909000       2.50303000      11.76991000  F      -0.03820500      -0.03347300       0.06538200
Cu      10.01212000       2.50303000      11.76991000  F       0.07944200      -0.03296600       0.03154400
Cu       0.00000000       5.00606000      11.76991000  F      -0.08530600       0.00079900       0.06318200
Cu       2.50303000       5.00606000      11.76991000  F       0.06267000       0.00101000       0.08656200
Cu       5.00606000       5.00606000      11.76991000  F      -0.03191200       0.00253700       0.10067100
Cu       7.50909000       5.00606000      11.76991000  F      -0.04605900       0.00237600       0.07760300
Cu      10.01212000       5.00606000      11.76991000  F       0.06850900       0.00022800       0.05464900
Cu       0.00000000       7.50909000      11.76991000  F      -0.06199200      -0.06557600       0.06768600
Cu       2.50303000       7.50909000      11.76991000  F       0.03563600      -0.06634400       0.08268700
Cu       5.00606000       7.50909000      11.76991000  F       0.00564900       0.04917400       0.04736400
Cu       7.50909000       7.50909000      11.76991000  F      -0.03891000       0.02973800       0.06696000
Cu      10.01212000       7.50909000      11.76991000  F       0.08001600       0.03091400       0.03169100
Cu       0.00000000      10.01212000      11.76991000  F      -0.01865500      -0.04500100       0.04280800
Cu       2.50303000      10.01212000      11.76991000  F       0.05236800      -0.01642800       0.05280000
Cu       5.00606000      10.01212000      11.76991000  F       0.05061900      -0.10324900       0.06951100
Cu       7.50909000      10.01212000      11.76991000  F       0.00504000      -0.07430300       0.06879900
Cu      10.01212000      10.01212000      11.76991000  F      -0.05944600      -0.07458700       0.07411400
Cu       1.26171000       1.24611000      13.57008000  T       0.00057000       0.00006800      -0.00006400
Cu       3.78065000       1.25802000      13.59932000  T       0.00041000       0.00005400      -0.00048000
Cu       6.27758000       1.28122000      13.61681000  T       0.00025300       0.00044200      -0.00000000
Cu       8.75220000       1.27919000      13.60975000  T       0.00005300       0.00069700       0.00068400
Cu      11.25765000       1.26404000      13.59039000  T       0.00003600       0.00055600       0.00063900
Cu       1.23314000       3.76613000      13.58636000  T      -0.00027300      -0.00013200      -0.00042400
Cu       3.77116000       3.74593000      13.59679000  T      -0.00040500      -0.00006000      -0.00091400
Cu       6.27335000       3.76237000      13.56825000  T      -0.00026700       0.00014200       0.00002100
Cu       8.74836000       3.76189000      13.54936000  T      -0.00052600       0.00027900       0.00076000
Cu      11.24475000       3.77182000      13.61796000  T      -0.00104100       0.00016000       0.00108400
Cu       1.23318000       6.24575000      13.58625000  T      -0.00018100       0.00010900      -0.00043300
Cu       3.77125000       6.26629000      13.59675000  T      -0.00039700       0.00009500      -0.00092200
Cu       6.27369000       6.24990000      13.56852000  T      -0.00023500      -0.00012400       0.00001300
Cu       8.74852000       6.25016000      13.54933000  T      -0.00042600      -0.00044100       0.00081000
Cu      11.24484000       6.23941000      13.61725000  T      -0.00097800      -0.00039900       0.00106700
Cu       1.26215000       8.76509000      13.57008000  T       0.00060200      -0.00006400      -0.00002700
Cu       3.78097000       8.75393000      13.59928000  T       0.00044100       0.00003600      -0.00048500
Cu       6.27799000       8.73181000      13.61662000  T       0.00026300      -0.00034300      -0.00001700
Cu       8.75240000       8.73343000      13.60941000  T       0.00007400      -0.00070700       0.00064200
Cu      11.25818000       8.74814000      13.59002000  T       0.00010300      -0.00064600       0.00064800
Cu       1.25070000      11.26360000      13.59118000  T       0.00089300       0.00000700       0.00000100
Cu       3.74597000      11.26384000      13.57438000  T       0.00047200       0.00006800      -0.00021000
Cu       6.25574000      11.26438000      13.56684000  T       0.00009500       0.00006300      -0.00013000
Cu       8.75815000      11.26392000      13.57164000  T       0.00015500       0.00001500       0.00026900
Cu      11.27155000      11.26393000      13.56958000  T       0.00053100      -0.00003800       0.00030500
Cu      12.51005000      12.51296000      15.36214000  T       0.00064700       0.00000100      -0.00000600
Cu       2.50585000       0.00759000      15.36430000  T       0.00075100       0.00019000      -0.00043700
Cu       5.00515000      12.48429000      15.35842000  T       0.00044100       0.00020600      -0.00052100
Cu       7.50762000      12.50519000      15.34778000  T       0.00016500       0.00033200       0.00003500
Cu      10.01336000      12.49257000      15.34853000  T       0.00028500       0.00032000       0.00046800
Cu       0.04640000       2.47010000      15.35210000  T      -0.00010900       0.00009700       0.00023000
Cu       2.51037000       2.50708000      15.34888000  T       0.00012700       0.00018000      -0.00077400
Cu       4.98729000       2.41681000      15.47242000  T      -0.00043200      -0.00004300      -0.00176200
Cu       7.53351000       2.54584000      15.47506000  T       0.00027900       0.00091600       0.00039700
Cu      10.08873000       2.44082000      15.42671000  T      -0.00082400       0.00118700       0.00225100
Cu      -0.00120000       5.00669000      15.46478000  T      -0.00230800      -0.00003700      -0.00115000
Cu       2.47779000       5.00593000      15.34359000  T      -0.00168400      -0.00001700      -0.00083300
Pd       5.00280000       5.00613000      15.51054000  T       0.00023600      -0.00038200      -0.00045500
Y        7.55016000       5.00632000      17.42905000  T      -0.00209500       0.00006800       0.00052000
Cu       9.91804000       5.00561000      15.41150000  T      -0.00339800      -0.00007400       0.00277400
Cu       0.04619000       7.54322000      15.35219000  T      -0.00002900      -0.00023300       0.00020100
Cu       2.51033000       7.50434000      15.34879000  T       0.00019900      -0.00011800      -0.00069200
Cu       4.98744000       7.59519000      15.47245000  T      -0.00037400       0.00032000      -0.00165700
Cu       7.53363000       7.46730000      15.47519000  T       0.00030100      -0.00080000       0.00034100
Cu      10.08856000       7.57038000      15.42526000  T      -0.00020500      -0.00099400       0.00191200
Cu      12.51119000      10.01527000      15.36223000  T       0.00064800      -0.00011700      -0.00000400
Cu       2.50708000      10.00471000      15.36404000  T       0.00074800      -0.00011600      -0.00036000
Cu       5.00647000      10.04207000      15.35773000  T       0.00043300       0.00003700      -0.00046300
Cu       7.50874000      10.02262000      15.34787000  T       0.00017800      -0.00025600       0.00003200
Cu      10.01437000      10.03358000      15.34814000  T       0.00029800      -0.00044400       0.00044400
O        6.12279000       3.44832000      16.62026000  T      -0.00021600       0.00111300      -0.00180300
O        6.12298000       6.56413000      16.62020000  T      -0.00024400      -0.00107800      -0.00174300
O        8.98485000       6.44820000      16.48995000  T      -0.00154900      -0.00048400       0.00205200
O        8.98493000       3.56354000      16.49095000  T      -0.00145300       0.00048700       0.00212100
C       12.15065000       5.01637000      17.28203000  T       0.00490300      -0.00001400      -0.00233600
O        7.80664000       5.00776000      19.42481000  T      -0.02338600       0.00002400       0.00324800
O       11.93265000       5.02350000      18.41511000  T       0.00865200      -0.00000500       0.00470800
H        8.14976000       5.00777000      20.32583000  T      -0.03912300       0.00021500       0.00988500
108
Lattice="12.515153631 0.0 0.0 0.0 12.515153631 0.0 0.0 0.0 25.30973" Properties=species:S:1:pos:R:3:move_mask:L:1:forces:R:3 stress="0.008194514780426886 4.4938865706359457e-07 0.00012311376750804727 4.4938865706359457e-07 0.007982322194674232 7.364980768542245e-07 0.00012311376750804727 7.364980768542245e-07 0.0019374705383293032" free_energy=-439.33676536 energy=-439.33669151 pbc="T T T"
Cu       1.25152000       1.25152000      10.00000000  F      -0.00611000      -0.00746800      -0.07379300
Cu       3.75455000       1.25152000      10.00000000  F       0.01826000      -0.00709300      -0.06495900
Cu       6.25758000       1.25152000      10.00000000  F      -0.01369500       0.00762600      -0.06081700
Cu       8.76061000       1.25152000      10.00000000  F       0.00297800       0.00625100      -0.04834100
Cu      11.26364000       1.25152000      10.00000000  F      -0.00452800       0.01004800      -0.07134400
Cu       1.25152000       3.75455000      10.00000000  F      -0.00383100       0.00859500      -0.06117500
Cu       3.75455000       3.75455000      10.00000000  F       0.00778300      -0.01492000      -0.05666600
Cu       6.25758000       3.75455000      10.00000000  F      -0.01507600      -0.01836200      -0.08035700
Cu       8.76061000       3.75455000      10.00000000  F       0.02711800      -0.01608000      -0.08883900
Cu      11.26364000       3.75455000      10.00000000  F      -0.01398700       0.00041800      -0.05521200
Cu       1.25152000       6.25758000      10.00000000  F      -0.00418700      -0.00711700      -0.06294700
Cu       3.75455000       6.25758000      10.00000000  F       0.00900500       0.01558600      -0.05707300
Cu       6.25758000       6.25758000      10.00000000  F      -0.01503400       0.02028900      -0.08354900
Cu       8.76061000       6.25758000      10.00000000  F       0.02582500       0.01678400      -0.08944400
Cu      11.26364000       6.25758000      10.00000000  F      -0.01358800       0.00106900      -0.05686600
Cu       1.25152000       8.76061000      10.00000000  F      -0.00585400       0.00391300      -0.07262800
Cu       3.75455000       8.76061000      10.00000000  F       0.01750900       0.00464000      -0.06404800
Cu       6.25758000       8.76061000      10.00000000  F      -0.01365600      -0.01180300      -0.05862800
Cu       8.76061000       8.76061000      10.00000000  F       0.00370500      -0.00882300      -0.04748700
Cu      11.26364000       8.76061000      10.00000000  F      -0.00480200      -0.01361100      -0.07010500
Cu       1.25152000      11.26364000      10.00000000  F      -0.00613400       0.00183800      -0.00785900
Cu       3.75455000      11.26364000      10.00000000  F       0.00601600       0.00154400      -0.06964900
Cu       6.25758000      11.26364000      10.00000000  F      -0.00857600       0.00194900      -0.07923600
Cu       8.76061000      11.26364000      10.00000000  F      -0.00902800       0.00160200      -0.07028800
Cu      11.26364000      11.26364000      10.00000000  F       0.01634700       0.00187400      -0.05840200
Cu       0.00000000       0.00000000      11.76991000  F      -0.01936500       0.04693400       0.04508300
Cu       2.50303000       0.00000000      11.76991000  F       0.05137000       0.01686200       0.05230200
Cu       5.00606000       0.00000000      11.76991000  F       0.05068200       0.10609000       0.07044000
Cu       7.50909000       0.00000000      11.76991000  F       0.00497600       0.07770400       0.07062800
Cu      10.01212000       0.00000000      11.76991000  F      -0.05870600       0.07643500       0.07458100
Cu       0.00000000       2.50303000      11.76991000  F      -0.06230000       0.06104000       0.06678100
Cu       2.50303000       2.50303000      11.76991000  F       0.03536000       0.06369400       0.08337700
Cu       5.00606000       2.50303000      11.76991000  F       0.00389600      -0.05295600       0.04564600
Cu       7.50909000       2.50303000      11.76991000  F      -0.03810000      -0.03346500       0.06541700
Cu      10.01212000       2.50303000      11.76991000  F       0.07954000      -0.03293700       0.03159700
Cu       0.00000000       5.00606000      11.76991000  F      -0.08524600       0.00079200       0.06320000
Cu       2.50303000       5.00606000      11.76991000  F       0.06275400       0.00100200       0.08648000
Cu       5.00606000       5.00606000      11.76991000  F      -0.03180900       0.00252900       0.10063000
Cu       7.50909000       5.00606000      11.76991000  F      -0.04594000       0.00237000       0.07765000
Cu      10.01212000       5.00606000      11.76991000  F       0.06859300       0.00021800       0.05471900
Cu       0.00000000       7.50909000      11.76991000  F      -0.06189400      -0.06557500       0.06767200
Cu       2.50303000       7.50909000      11.76991000  F       0.03572800      -0.06630600       0.08258500
Cu       5.00606000       7.50909000      11.76991000  F       0.00574200       0.04919000       0.04729900
Cu       7.50909000       7.50909000      11.76991000  F      -0.03880300       0.02971400       0.06699300
Cu      10.01212000       7.50909000      11.76991000  F       0.08011700       0.03087100       0.03174100
Cu       0.00000000      10.01212000      11.76991000  F      -0.01851200      -0.04500700       0.04277900
Cu       2.50303000      10.01212000      11.76991000  F       0.05248300      -0.01642200       0.05270300
Cu       5.00606000      10.01212000      11.76991000  F       0.05070200      -0.10324200       0.06943200
Cu       7.50909000      10.01212000      11.76991000  F       0.00512500      -0.07432500       0.06880200
Cu      10.01212000      10.01212000      11.76991000  F      -0.05932600      -0.07460600       0.07414100
Cu       1.26170000       1.24610000      13.57008000  T       0.00089000       0.00051200      -0.00047700
Cu       3.78064000       1.25801000      13.59931000  T       0.00126400       0.00051300      -0.00113600
Cu       6.27757000       1.28122000      13.61682000  T       0.00094500       0.00093800      -0.00070200
Cu       8.75219000       1.27920000      13.60977000  T      -0.00005000       0.00121400       0.00019600
Cu      11.25764000       1.26405000      13.59041000  T      -0.00043000       0.00112400       0.00038700
Cu       1.23312000       3.76612000      13.58636000  T      -0.00021000       0.00001700      -0.00121200
Cu       3.77113000       3.74593000      13.59678000  T       0.00002600       0.00024900      -0.00185000
Cu       6.27334000       3.76237000      13.56825000  T      -0.00001100       0.00049500      -0.00098300
Cu       8.74834000       3.76190000      13.54939000  T      -0.00102700       0.00058900      -0.00012000
Cu      11.24472000       3.77182000      13.61799000  T      -0.00185500       0.00043400       0.00077400
Cu       1.23316000       6.24575000      13.58624000  T      -0.00007700      -0.00006100      -0.00121900
Cu       3.77123000       6.26630000      13.59674000  T       0.00004300      -0.00021000      -0.00185400
Cu       6.27368000       6.24991000      13.56853000  T      -0.00001100      -0.00046800      -0.00098800
Cu       8.74851000       6.25015000      13.54935000  T      -0.00087700      -0.00083800      -0.00006800
Cu      11.24481000       6.23941000      13.61728000  T      -0.00175400      -0.00081300       0.00074200
Cu       1.26214000       8.76509000      13.57008000  T       0.00094200      -0.00051600      -0.00043400
Cu       3.78096000       8.75394000      13.59927000  T       0.00131400      -0.00038800      -0.00114700
Cu       6.27798000       8.73181000      13.61662000  T       0.00095800      -0.00079500      -0.00073400
Cu       8.75239000       8.73342000      13.60943000  T      -0.00002300      -0.00123500       0.00012500
Cu      11.25817000       8.74813000      13.59004000  T      -0.00032600      -0.00126700       0.00039100
Cu       1.25070000      11.26361000      13.59119000  T       0.00128000       0.00000500      -0.00024700
Cu       3.74596000      11.26384000      13.57438000  T       0.00141500       0.00009800      -0.00064600
Cu       6.25573000      11.26438000      13.56684000  T       0.00080900       0.00009200      -0.00072300
Cu       8.75814000      11.26392000      13.57165000  T       0.00014800       0.00001800      -0.00021000
Cu      11.27155000      11.26393000      13.56959000  T       0.00027000      -0.00005900      -0.00003100
Cu      12.51004000      12.51296000      15.36214000  T       0.00092400       0.00007500       0.00074700
Cu       2.50584000       0.00759000      15.36430000  T       0.00146900       0.00043300       0.00021700
Cu       5.00514000      12.48429000      15.35841000  T       0.00111900       0.00037400      -0.00025700
Cu       7.50761000      12.50519000      15.34778000  T       0.00036700       0.00048000       0.00030900
Cu      10.01335000      12.49257000      15.34854000  T       0.00022900       0.00047900       0.00108300
Cu       0.04638000       2.47010000      15.35210000  T      -0.00009200       0.00032200       0.00092400
Cu       2.51035000       2.50708000      15.34887000  T       0.00053100       0.00055000      -0.00059600
Cu       4.98727000       2.41680000      15.47240000  T      -0.00056000      -0.00000700      -0.00241000
Cu       7.53351000       2.54585000      15.47507000  T       0.00037900       0.00123400       0.00059400
Cu      10.08869000       2.44085000      15.42676000  T      -0.00112500       0.00157100       0.00363000
Cu      -0.00126000       5.00669000      15.46475000  T      -0.00311500      -0.00006700      -0.00210600
Cu       2.47774000       5.00593000      15.34358000  T      -0.00197000      -0.00002500      -0.00079900
Pd       5.00274000       5.00613000      15.51052000  T      -0.00721200      -0.00005200      -0.00531600
Y        7.54988000       5.00633000      17.42915000  T      -0.00349700       0.00010400       0.00134300
Cu       9.91796000       5.00560000      15.41157000  T      -0.00493900      -0.00012000       0.00418200
Cu       0.04617000       7.54322000      15.35219000  T       0.00004300      -0.00053800       0.00088100
Cu       2.51032000       7.50435000      15.34878000  T       0.00064000      -0.00046600      -0.00048800
Cu       4.98741000       7.59520000      15.47243000  T      -0.00049300       0.00039200      -0.00225600
Cu       7.53363000       7.46729000      15.47520000  T       0.00040200      -0.00104200       0.00047100
Cu      10.08853000       7.57034000      15.42531000  T      -0.00027500      -0.00134300       0.00314300
Cu      12.51118000      10.01527000      15.36223000  T       0.00092500      -0.00026300       0.00074000
Cu       2.50707000      10.00471000      15.36403000  T       0.00147000      -0.00034600       0.00030600
Cu       5.00646000      10.04207000      15.35772000  T       0.00110800      -0.00001200      -0.00018600
Cu       7.50873000      10.02261000      15.34787000  T       0.00038500      -0.00037500       0.00030100
Cu      10.01436000      10.03357000      15.34815000  T       0.00024500      -0.00066800       0.00104400
O        6.12275000       3.44836000      16.62019000  T      -0.00053000       0.00178900      -0.00184300
O        6.12294000       6.56409000      16.62013000  T      -0.00063200      -0.00169100      -0.00179100
O        8.98478000       6.44819000      16.49002000  T      -0.00265900      -0.00069000       0.00450100
O        8.98486000       3.56355000      16.49102000  T      -0.00261300       0.00074500       0.00467500
C       12.15117000       5.01637000      17.28204000  T       0.00407100       0.00002600       0.00617800
O        7.80410000       5.00776000      19.42520000  T      -0.02393600      -0.00010100       0.00288000
O       11.93374000       5.02350000      18.41531000  T       0.01153600       0.00000100      -0.00233300
H        8.14510000       5.00780000      20.32699000  T      -0.03937800       0.00022800       0.01142800
108
Lattice="12.515153631 0.0 0.0 0.0 12.515153631 0.0 0.0 0.0 25.30973" Properties=species:S:1:pos:R:3:move_mask:L:1:forces:R:3 stress="0.00818980868254597 4.556301661894778e-07 0.0001226581373418578 4.556301661894778e-07 0.007977734685466706 7.677056224836408e-07 0.0001226581373418578 7.677056224836408e-07 0.0019315785537144699" free_energy=-439.33698371 energy=-439.33690928 pbc="T T T"
Cu       1.25152000       1.25152000      10.00000000  F      -0.00608900      -0.00747000      -0.07395300
Cu       3.75455000       1.25152000      10.00000000  F       0.01832100      -0.00709100      -0.06511700
Cu       6.25758000       1.25152000      10.00000000  F      -0.01360200       0.00762400      -0.06095000
Cu       8.76061000       1.25152000      10.00000000  F       0.00304100       0.00624300      -0.04845500
Cu      11.26364000       1.25152000      10.00000000  F      -0.00450400       0.01003600      -0.07147600
Cu       1.25152000       3.75455000      10.00000000  F      -0.00379800       0.00859500      -0.06132000
Cu       3.75455000       3.75455000      10.00000000  F       0.00784200      -0.01491300      -0.05681000
Cu       6.25758000       3.75455000      10.00000000  F      -0.01499200      -0.01836200      -0.08048900
Cu       8.76061000       3.75455000      10.00000000  F       0.02717500      -0.01608700      -0.08896400
Cu      11.26364000       3.75455000      10.00000000  F      -0.01395800       0.00041300      -0.05534600
Cu       1.25152000       6.25758000      10.00000000  F      -0.00415400      -0.00711900      -0.06309300
Cu       3.75455000       6.25758000      10.00000000  F       0.00906400       0.01557800      -0.05722000
Cu       6.25758000       6.25758000      10.00000000  F      -0.01495100       0.02028700      -0.08368200
Cu       8.76061000       6.25758000      10.00000000  F       0.02588200       0.01678900      -0.08956900
Cu      11.26364000       6.25758000      10.00000000  F      -0.01355900       0.00107300      -0.05700200
Cu       1.25152000       8.76061000      10.00000000  F      -0.00583200       0.00391400      -0.07278600
Cu       3.75455000       8.76061000      10.00000000  F       0.01756900       0.00463700      -0.06420500
Cu       6.25758000       8.76061000      10.00000000  F      -0.01356300      -0.01180200      -0.05876300
Cu       8.76061000       8.76061000      10.00000000  F       0.00376800      -0.00881400      -0.04760300
Cu      11.26364000       8.76061000      10.00000000  F      -0.00477800      -0.01360000      -0.07023800
Cu       1.25152000      11.26364000      10.00000000  F      -0.00611700       0.00183800      -0.00801600
Cu       3.75455000      11.26364000      10.00000000  F       0.00607700       0.00154500      -0.06982300
Cu       6.25758000      11.26364000      10.00000000  F      -0.00848100       0.00194900      -0.07937500
Cu       8.76061000      11.26364000      10.00000000  F      -0.00896000       0.00160300      -0.07040300
Cu      11.26364000      11.26364000      10.00000000  F       0.01636700       0.00187400      -0.05852200
Cu       0.00000000       0.00000000      11.76991000  F      -0.01939500       0.04693500       0.04514400
Cu       2.50303000       0.00000000      11.76991000  F       0.05138100       0.01687200       0.05230900
Cu       5.00606000       0.00000000      11.76991000  F       0.05077100       0.10610400       0.07049200
Cu       7.50909000       0.00000000      11.76991000  F       0.00507500       0.07770700       0.07074900
Cu      10.01212000       0.00000000      11.76991000  F      -0.05868300       0.07642400       0.07469200
Cu       0.00000000       2.50303000      11.76991000  F      -0.06233100       0.06103000       0.06685200
Cu       2.50303000       2.50303000      11.76991000  F       0.03537900       0.06370000       0.08342800
Cu       5.00606000       2.50303000      11.76991000  F       0.00397100      -0.05293300       0.04576400
Cu       7.50909000       2.50303000      11.76991000  F      -0.03802000      -0.03345900       0.06556800
Cu      10.01212000       2.50303000      11.76991000  F       0.07955300      -0.03294000       0.03172600
Cu       0.00000000       5.00606000      11.76991000  F      -0.08527200       0.00079000       0.06329100
Cu       2.50303000       5.00606000      11.76991000  F       0.06277800       0.00100000       0.08656400
Cu       5.00606000       5.00606000      11.76991000  F      -0.03174300       0.00252800       0.10079500
Cu       7.50909000       5.00606000      11.76991000  F      -0.04587600       0.00236900       0.07784100
Cu      10.01212000       5.00606000      11.76991000  F       0.06859400       0.00021500       0.05485500
Cu       0.00000000       7.50909000      11.76991000  F      -0.06192300      -0.06556600       0.06774500
Cu       2.50303000       7.50909000      11.76991000  F       0.03574700      -0.06631100       0.08263700
Cu       5.00606000       7.50909000      11.76991000  F       0.00581700       0.04916900       0.04741600
Cu       7.50909000       7.50909000      11.76991000  F      -0.03872300       0.02970700       0.06714500
Cu      10.01212000       7.50909000      11.76991000  F       0.08013100       0.03087100       0.03187200
Cu       0.00000000      10.01212000      11.76991000  F      -0.01854300      -0.04500700       0.04284000
Cu       2.50303000      10.01212000      11.76991000  F       0.05249500      -0.01642900       0.05271200
Cu       5.00606000      10.01212000      11.76991000  F       0.05079100      -0.10325300       0.06948400
Cu       7.50909000      10.01212000      11.76991000  F       0.00522400      -0.07432400       0.06892200
Cu      10.01212000      10.01212000      11.76991000  F      -0.05930300      -0.07459300       0.07425400
Cu       1.26170000       1.24610000      13.57008000  T       0.00039400       0.00015800      -0.00014100
Cu       3.78062000       1.25800000      13.59931000  T       0.00048800       0.00012000      -0.00053700
Cu       6.27755000       1.28122000      13.61683000  T       0.00040200       0.00044300      -0.00012100
Cu       8.75219000       1.27920000      13.60980000  T       0.00002400       0.00067700       0.00049000
Cu      11.25765000       1.26405000      13.59043000  T      -0.00020600       0.00058700       0.00047700
Cu       1.23310000       3.76611000      13.58636000  T      -0.00026700      -0.00009800      -0.00055700
Cu       3.77111000       3.74592000      13.59679000  T      -0.00022700       0.00005900      -0.00081200
Cu       6.27332000       3.76236000      13.56827000  T      -0.00011300       0.00019300      -0.00016200
Cu       8.74833000       3.76190000      13.54942000  T      -0.00052200       0.00030700       0.00046600
Cu      11.24471000       3.77182000      13.61801000  T      -0.00114100       0.00019700       0.00083700
Cu       1.23315000       6.24576000      13.58625000  T      -0.00018800       0.00007400      -0.00056000
Cu       3.77120000       6.26631000      13.59674000  T      -0.00022200      -0.00003000      -0.00082400
Cu       6.27366000       6.24991000      13.56855000  T      -0.00011000      -0.00016700      -0.00017000
Cu       8.74850000       6.25015000      13.54939000  T      -0.00043100      -0.00044000       0.00048500
Cu      11.24480000       6.23941000      13.61731000  T      -0.00107700      -0.00042200       0.00081400
Cu       1.26214000       8.76510000      13.57008000  T       0.00042700      -0.00015700      -0.00012100
Cu       3.78094000       8.75395000      13.59927000  T       0.00052000      -0.00004600      -0.00054500
Cu       6.27796000       8.73181000      13.61664000  T       0.00041100      -0.00035500      -0.00014100
Cu       8.75238000       8.73342000      13.60945000  T       0.00003700      -0.00068600       0.00044500
Cu      11.25817000       8.74813000      13.59005000  T      -0.00014400      -0.00066600       0.00047000
Cu       1.25070000      11.26361000      13.59119000  T       0.00067900       0.00000500      -0.00009500
Cu       3.74594000      11.26384000      13.57438000  T       0.00058900       0.00005700      -0.00030100
Cu       6.25570000      11.26438000      13.56685000  T       0.00028700       0.00005400      -0.00021000
Cu       8.75813000      11.26392000      13.57167000  T       0.00011100       0.00001100       0.00013400
Cu      11.27156000      11.26393000      13.56960000  T       0.00024800      -0.00003400       0.00015600
Cu      12.51004000      12.51296000      15.36213000  T       0.00052100       0.00000400       0.00015700
Cu       2.50583000       0.00758000      15.36429000  T       0.00068100       0.00017000      -0.00014800
Cu       5.00512000      12.48429000      15.35840000  T       0.00043400       0.00017400      -0.00034800
Cu       7.50760000      12.50519000      15.34779000  T       0.00012900       0.00031100       0.00007100
Cu      10.01335000      12.49258000      15.34855000  T       0.00016800       0.00034000       0.00047600
Cu       0.04637000       2.47010000      15.35210000  T      -0.00023500       0.00012000       0.00035400
Cu       2.51033000       2.50707000      15.34886000  T       0.00011800       0.00019400      -0.00056600
Cu       4.98724000       2.41678000      15.47238000  T      -0.00037400       0.00001800      -0.00161500
Cu       7.53351000       2.54586000      15.47508000  T       0.00026500       0.00077800       0.00033200
Cu      10.08868000       2.44087000      15.42678000  T      -0.00083700       0.00114800       0.00219600
Cu      -0.00128000       5.00669000      15.46471000  T      -0.00213400      -0.00004100      -0.00184600
Cu       2.47771000       5.00593000      15.34358000  T      -0.00139400      -0.00001100      -0.00066900
Pd       5.00270000       5.00613000      15.51051000  T      -0.00432300      -0.00006700      -0.00276200
Y        7.54972000       5.00634000      17.42913000  T      -0.00363600       0.00005700       0.00013200
Cu       9.91792000       5.00560000      15.41161000  T      -0.00321600      -0.00006900       0.00278600
Cu       0.04616000       7.54322000      15.35220000  T      -0.00014200      -0.00024500       0.00032600
Cu       2.51030000       7.50435000      15.34877000  T       0.00017700      -0.00013500      -0.00050900
Cu       4.98738000       7.59522000      15.47241000  T      -0.00042600       0.00031000      -0.00148700
Cu       7.53362000       7.46729000      15.47521000  T       0.00028600      -0.00063900       0.00023900
Cu      10.08852000       7.57033000      15.42533000  T      -0.00038100      -0.00104300       0.00192400
Cu      12.51118000      10.01527000      15.36223000  T       0.00051900      -0.00011800       0.00014900
Cu       2.50706000      10.00471000      15.36402000  T       0.00068200      -0.00012500      -0.00011300
Cu       5.00644000      10.04208000      15.35772000  T       0.00042900       0.00004400      -0.00031300
Cu       7.50872000      10.02261000      15.34788000  T       0.00013700      -0.00025100       0.00007100
Cu      10.01436000      10.03356000      15.34816000  T       0.00017600      -0.00044500       0.00045400
O        6.12274000       3.44835000      16.62016000  T      -0.00054900       0.00122100      -0.00241700
O        6.12293000       6.56411000      16.62010000  T      -0.00062400      -0.00110400      -0.00235500
O        8.98478000       6.44818000      16.49002000  T      -0.00205900      -0.00050900       0.00320100
O        8.98485000       3.56357000      16.49103000  T      -0.00203200       0.00052200       0.00330500
C       12.15152000       5.01637000      17.28204000  T       0.00464800      -0.00000900       0.00387700
O        7.80309000       5.00775000      19.42516000  T      -0.02521100      -0.00007600       0.00378100
O       11.93435000       5.02351000      18.41533000  T       0.01195100       0.00004000      -0.00089600
H        8.14124000       5.00782000      20.32803000  T      -0.03937700       0.00025400       0.01081600
108
Lattice="12.515153631 0.0 0.0 0.0 12.515153631 0.0 0.0 0.0 25.30973" Properties=species:S:1:pos:R:3:move_mask:L:1:forces:R:3 stress="0.008188897422213591 4.993207300706607e-07 0.00012207143548402478 4.993207300706607e-07 0.00797704811946286 7.864301498612905e-07 0.00012207143548402478 7.864301498612905e-07 0.0019306236028182096" free_energy=-439.33710845 energy=-439.33703242 pbc="T T T"
Cu       1.25152000       1.25152000      10.00000000  F      -0.00603100      -0.00740600      -0.07403500
Cu       3.75455000       1.25152000      10.00000000  F       0.01842200      -0.00703900      -0.06518200
Cu       6.25758000       1.25152000      10.00000000  F      -0.01350600       0.00766700      -0.06098400
Cu       8.76061000       1.25152000      10.00000000  F       0.00307900       0.00628600      -0.04848500
Cu      11.26364000       1.25152000      10.00000000  F      -0.00449600       0.01009700      -0.07153000
Cu       1.25152000       3.75455000      10.00000000  F      -0.00374200       0.00863700      -0.06132800
Cu       3.75455000       3.75455000      10.00000000  F       0.00792600      -0.01487900      -0.05683100
Cu       6.25758000       3.75455000      10.00000000  F      -0.01490100      -0.01833100      -0.08050300
Cu       8.76061000       3.75455000      10.00000000  F       0.02721900      -0.01605600      -0.08895700
Cu      11.26364000       3.75455000      10.00000000  F      -0.01393300       0.00045200      -0.05534000
Cu       1.25152000       6.25758000      10.00000000  F      -0.00409900      -0.00715400      -0.06309400
Cu       3.75455000       6.25758000      10.00000000  F       0.00914900       0.01555000      -0.05723500
Cu       6.25758000       6.25758000      10.00000000  F      -0.01486000       0.02026100      -0.08369300
Cu       8.76061000       6.25758000      10.00000000  F       0.02592600       0.01676200      -0.08956200
Cu      11.26364000       6.25758000      10.00000000  F      -0.01353400       0.00103900      -0.05699400
Cu       1.25152000       8.76061000      10.00000000  F      -0.00577300       0.00385000      -0.07286300
Cu       3.75455000       8.76061000      10.00000000  F       0.01766800       0.00458500      -0.06426400
Cu       6.25758000       8.76061000      10.00000000  F      -0.01346800      -0.01184400      -0.05879300
Cu       8.76061000       8.76061000      10.00000000  F       0.00380600      -0.00885700      -0.04763300
Cu      11.26364000       8.76061000      10.00000000  F      -0.00476800      -0.01366100      -0.07028600
Cu       1.25152000      11.26364000      10.00000000  F      -0.00605600       0.00183500      -0.00812200
Cu       3.75455000      11.26364000      10.00000000  F       0.00618700       0.00154200      -0.06992100
Cu       6.25758000      11.26364000      10.00000000  F      -0.00838400       0.00194700      -0.07942600
Cu       8.76061000      11.26364000      10.00000000  F      -0.00892800       0.00160100      -0.07044700
Cu      11.26364000      11.26364000      10.00000000  F       0.01637100       0.00187300      -0.05860200
Cu       0.00000000       0.00000000      11.76991000  F      -0.01939700       0.04700000       0.04533100
Cu       2.50303000       0.00000000      11.76991000  F       0.05147500       0.01691300       0.05239400
Cu       5.00606000       0.00000000      11.76991000  F       0.05093100       0.10614300       0.07054700
Cu       7.50909000       0.00000000      11.76991000  F       0.00518400       0.07775300       0.07086400
Cu      10.01212000       0.00000000      11.76991000  F      -0.05868000       0.07648400       0.07488400
Cu       0.00000000       2.50303000      11.76991000  F      -0.06238100       0.06112200       0.06698700
Cu       2.50303000       2.50303000      11.76991000  F       0.03542400       0.06375500       0.08344000
Cu       5.00606000       2.50303000      11.76991000  F       0.00410400      -0.05286900       0.04577200
Cu       7.50909000       2.50303000      11.76991000  F      -0.03792400      -0.03339300       0.06562000
Cu      10.01212000       2.50303000      11.76991000  F       0.07955600      -0.03284900       0.03184800
Cu       0.00000000       5.00606000      11.76991000  F      -0.08535200       0.00079000       0.06341200
Cu       2.50303000       5.00606000      11.76991000  F       0.06280000       0.00100100       0.08657900
Cu       5.00606000       5.00606000      11.76991000  F      -0.03163900       0.00253400       0.10076800
Cu       7.50909000       5.00606000      11.76991000  F      -0.04580800       0.00237400       0.07786500
Cu      10.01212000       5.00606000      11.76991000  F       0.06860600       0.00021200       0.05492900
Cu       0.00000000       7.50909000      11.76991000  F      -0.06196900      -0.06566000       0.06788000
Cu       2.50303000       7.50909000      11.76991000  F       0.03579400      -0.06636000       0.08265000
Cu       5.00606000       7.50909000      11.76991000  F       0.00595000       0.04910800       0.04743000
Cu       7.50909000       7.50909000      11.76991000  F      -0.03862300       0.02963900       0.06720400
Cu      10.01212000       7.50909000      11.76991000  F       0.08013500       0.03077600       0.03200000
Cu       0.00000000      10.01212000      11.76991000  F      -0.01854300      -0.04507500       0.04302500
Cu       2.50303000      10.01212000      11.76991000  F       0.05259100      -0.01646900       0.05279800
Cu       5.00606000      10.01212000      11.76991000  F       0.05095200      -0.10328700       0.06954100
Cu       7.50909000      10.01212000      11.76991000  F       0.00533200      -0.07436800       0.06903600
Cu      10.01212000      10.01212000      11.76991000  F      -0.05929700      -0.07465700       0.07444700
Cu       1.26171000       1.24610000      13.57008000  T       0.00054700       0.00028200       0.00011500
Cu       3.78063000       1.25800000      13.59930000  T       0.00071200       0.00024500      -0.00045700
Cu       6.27756000       1.28123000      13.61683000  T       0.00064900       0.00074000       0.00018900
Cu       8.75219000       1.27922000      13.60982000  T       0.00017500       0.00105800       0.00105100
Cu      11.25763000       1.26407000      13.59045000  T      -0.00027200       0.00092400       0.00103100
Cu       1.23309000       3.76611000      13.58635000  T      -0.00042000      -0.00010800      -0.00049800
Cu       3.77109000       3.74592000      13.59676000  T      -0.00035900       0.00016200      -0.00079700
Cu       6.27331000       3.76237000      13.56827000  T      -0.00022900       0.00031100       0.00017600
Cu       8.74831000       3.76191000      13.54944000  T      -0.00066600       0.00045600       0.00104700
Cu      11.24466000       3.77183000      13.61805000  T      -0.00169000       0.00029700       0.00155100
Cu       1.23313000       6.24576000      13.58623000  T      -0.00030500       0.00007900      -0.00049900
Cu       3.77118000       6.26631000      13.59671000  T      -0.00036600      -0.00009100      -0.00083300
Cu       6.27365000       6.24991000      13.56855000  T      -0.00020400      -0.00025200       0.00015100
Cu       8.74848000       6.25014000      13.54941000  T      -0.00054100      -0.00062200       0.00107200
Cu      11.24475000       6.23939000      13.61734000  T      -0.00159800      -0.00057500       0.00151000
Cu       1.26215000       8.76510000      13.57008000  T       0.00060300      -0.00028400       0.00013500
Cu       3.78095000       8.75395000      13.59925000  T       0.00075600      -0.00013200      -0.00046500
Cu       6.27797000       8.73180000      13.61664000  T       0.00065600      -0.00060900       0.00016400
Cu       8.75238000       8.73340000      13.60947000  T       0.00019500      -0.00107800       0.00099300
Cu      11.25816000       8.74811000      13.59007000  T      -0.00016900      -0.00103500       0.00099800
Cu       1.25072000      11.26361000      13.59118000  T       0.00098100      -0.00000300       0.00016100
Cu       3.74595000      11.26384000      13.57437000  T       0.00085200       0.00007600      -0.00011600
Cu       6.25571000      11.26439000      13.56684000  T       0.00051100       0.00007500       0.00003000
Cu       8.75813000      11.26392000      13.57168000  T       0.00030000       0.00000800       0.00048600
Cu      11.27156000      11.26393000      13.56961000  T       0.00043300      -0.00005800       0.00049300
Cu      12.51006000      12.51296000      15.36213000  T       0.00088200       0.00004400      -0.00016200
Cu       2.50585000       0.00759000      15.36428000  T       0.00115000       0.00032000      -0.00058500
Cu       5.00513000      12.48430000      15.35839000  T       0.00076200       0.00035900      -0.00085500
Cu       7.50760000      12.50521000      15.34779000  T       0.00025900       0.00058200      -0.00021600
Cu      10.01335000      12.49259000      15.34856000  T       0.00032100       0.00060700       0.00036200
Cu       0.04635000       2.47010000      15.35211000  T      -0.00034700       0.00016200       0.00006200
Cu       2.51033000       2.50708000      15.34883000  T       0.00031900       0.00038500      -0.00128400
Cu       4.98722000       2.41678000      15.47231000  T      -0.00028600       0.00031200      -0.00271800
Cu       7.53352000       2.54589000      15.47509000  T       0.00031500       0.00129600       0.00017200
Cu      10.08864000       2.44091000      15.42687000  T      -0.00125100       0.00181200       0.00296600
Cu      -0.00137000       5.00669000      15.46466000  T      -0.00336200      -0.00004300      -0.00156800
Cu       2.47765000       5.00593000      15.34355000  T      -0.00195300      -0.00001600      -0.00151200
Pd       5.00261000       5.00612000      15.51042000  T      -0.00388300      -0.00058400      -0.00327600
Y        7.54951000       5.00635000      17.42914000  T      -0.00354800       0.00006600       0.00062000
Cu       9.91779000       5.00560000      15.41172000  T      -0.00476500      -0.00007000       0.00367500
Cu       0.04615000       7.54321000      15.35220000  T      -0.00018000      -0.00034700       0.00000900
Cu       2.51030000       7.50435000      15.34875000  T       0.00040200      -0.00028600      -0.00121200
Cu       4.98736000       7.59523000      15.47235000  T      -0.00034800       0.00021400      -0.00254000
Cu       7.53363000       7.46726000      15.47522000  T       0.00036200      -0.00109400       0.00004800
Cu      10.08849000       7.57029000      15.42541000  T      -0.00069900      -0.00177000       0.00264900
Cu      12.51120000      10.01527000      15.36223000  T       0.00087400      -0.00023200      -0.00017900
Cu       2.50708000      10.00471000      15.36401000  T       0.00113500      -0.00023400      -0.00054100
Cu       5.00645000      10.04208000      15.35770000  T       0.00075700      -0.00002300      -0.00081200
Cu       7.50872000      10.02260000      15.34788000  T       0.00026600      -0.00049200      -0.00022300
Cu      10.01436000      10.03354000      15.34817000  T       0.00032900      -0.00075900       0.00032400
O        6.12270000       3.44841000      16.62002000  T      -0.00104900       0.00152100      -0.00417700
O        6.12289000       6.56406000      16.61996000  T      -0.00114500      -0.00132700      -0.00411100
O        8.98467000       6.44817000      16.49016000  T      -0.00218000      -0.00036100       0.00349000
O        8.98475000       3.56358000      16.49118000  T      -0.00215900       0.00049600       0.00373200
C       12.15181000       5.01637000      17.28210000  T       0.00621200      -0.00004900      -0.00355000
O        7.80157000       5.00775000      19.42538000  T      -0.02717500      -0.00010100       0.00471200
O       11.93501000       5.02351000      18.41539000  T       0.01067400       0.00010400       0.00597600
H        8.13893000       5.00784000      20.32856000  T      -0.03973400       0.00026300       0.00989100
108
Lattice="12.515153631 0.0 0.0 0.0 12.515153631 0.0 0.0 0.0 25.30973" Properties=species:S:1:pos:R:3:move_mask:L:1:forces:R:3 stress="0.008191518856046461 4.743546935671276e-07 0.00011913168468573376 4.743546935671276e-07 0.007980705643810627 8.613282593718895e-07 0.00011913168468573376 8.613282593718895e-07 0.001935679225210175" free_energy=-439.33792987 energy=-439.33785569 pbc="T T T"
Cu       1.25152000       1.25152000      10.00000000  F      -0.00627800      -0.00742600      -0.07391800
Cu       3.75455000       1.25152000      10.00000000  F       0.01807200      -0.00706500      -0.06506300
Cu       6.25758000       1.25152000      10.00000000  F      -0.01389900       0.00765600      -0.06090400
Cu       8.76061000       1.25152000      10.00000000  F       0.00273800       0.00629900      -0.04845000
Cu      11.26364000       1.25152000      10.00000000  F      -0.00473500       0.01008900      -0.07148200
Cu       1.25152000       3.75455000      10.00000000  F      -0.00399800       0.00862900      -0.06125500
Cu       3.75455000       3.75455000      10.00000000  F       0.00758200      -0.01488400      -0.05675200
Cu       6.25758000       3.75455000      10.00000000  F      -0.01527500      -0.01833100      -0.08044600
Cu       8.76061000       3.75455000      10.00000000  F       0.02688700      -0.01604500      -0.08890000
Cu      11.26364000       3.75455000      10.00000000  F      -0.01419900       0.00045000      -0.05528100
Cu       1.25152000       6.25758000      10.00000000  F      -0.00435500      -0.00713100      -0.06301500
Cu       3.75455000       6.25758000      10.00000000  F       0.00880300       0.01557000      -0.05715100
Cu       6.25758000       6.25758000      10.00000000  F      -0.01523400       0.02027500      -0.08363700
Cu       8.76061000       6.25758000      10.00000000  F       0.02559400       0.01676600      -0.08950700
Cu      11.26364000       6.25758000      10.00000000  F      -0.01379900       0.00105600      -0.05693400
Cu       1.25152000       8.76061000      10.00000000  F      -0.00601900       0.00387500      -0.07273800
Cu       3.75455000       8.76061000      10.00000000  F       0.01731800       0.00461700      -0.06413800
Cu       6.25758000       8.76061000      10.00000000  F      -0.01386200      -0.01182700      -0.05871100
Cu       8.76061000       8.76061000      10.00000000  F       0.00346500      -0.00886500      -0.04759400
Cu      11.26364000       8.76061000      10.00000000  F      -0.00500500      -0.01364600      -0.07023400
Cu       1.25152000      11.26364000      10.00000000  F      -0.00630200       0.00183400      -0.00797600
Cu       3.75455000      11.26364000      10.00000000  F       0.00583800       0.00154000      -0.06976200
Cu       6.25758000      11.26364000      10.00000000  F      -0.00879000       0.00194700      -0.07934300
Cu       8.76061000      11.26364000      10.00000000  F      -0.00927100       0.00160200      -0.07043200
Cu      11.26364000      11.26364000      10.00000000  F       0.01614400       0.00187200      -0.05853300
Cu       0.00000000       0.00000000      11.76991000  F      -0.01966300       0.04702500       0.04529200
Cu       2.50303000       0.00000000      11.76991000  F       0.05117100       0.01689300       0.05221100
Cu       5.00606000       0.00000000      11.76991000  F       0.05054000       0.10612300       0.07035700
Cu       7.50909000       0.00000000      11.76991000  F       0.00479000       0.07780100       0.07079300
Cu      10.01212000       0.00000000      11.76991000  F      -0.05899200       0.07652600       0.07488600
Cu       0.00000000       2.50303000      11.76991000  F      -0.06277200       0.06111800       0.06691700
Cu       2.50303000       2.50303000      11.76991000  F       0.03505700       0.06366600       0.08319700
Cu       5.00606000       2.50303000      11.76991000  F       0.00372100      -0.05291500       0.04555900
Cu       7.50909000       2.50303000      11.76991000  F      -0.03828400      -0.03338600       0.06550800
Cu      10.01212000       2.50303000      11.76991000  F       0.07921800      -0.03276700       0.03185900
Cu       0.00000000       5.00606000      11.76991000  F      -0.08581200       0.00079600       0.06336700
Cu       2.50303000       5.00606000      11.76991000  F       0.06238300       0.00101400       0.08630400
Cu       5.00606000       5.00606000      11.76991000  F      -0.03201400       0.00254400       0.10053900
Cu       7.50909000       5.00606000      11.76991000  F      -0.04617600       0.00238500       0.07772600
Cu      10.01212000       5.00606000      11.76991000  F       0.06826200       0.00021700       0.05489200
Cu       0.00000000       7.50909000      11.76991000  F      -0.06235500      -0.06564500       0.06781000
Cu       2.50303000       7.50909000      11.76991000  F       0.03543400      -0.06626100       0.08241000
Cu       5.00606000       7.50909000      11.76991000  F       0.00556500       0.04916800       0.04721700
Cu       7.50909000       7.50909000      11.76991000  F      -0.03898100       0.02964000       0.06710400
Cu      10.01212000       7.50909000      11.76991000  F       0.07979900       0.03070500       0.03201600
Cu       0.00000000      10.01212000      11.76991000  F      -0.01880600      -0.04510300       0.04298600
Cu       2.50303000      10.01212000      11.76991000  F       0.05228800      -0.01644400       0.05261600
Cu       5.00606000      10.01212000      11.76991000  F       0.05056000      -0.10325600       0.06935100
Cu       7.50909000      10.01212000      11.76991000  F       0.00493800      -0.07441100       0.06896800
Cu      10.01212000      10.01212000      11.76991000  F      -0.05961000      -0.07470400       0.07445100
Cu       1.26169000       1.24610000      13.57006000  T       0.00020300      -0.00008900       0.00010800
Cu       3.78062000       1.25799000      13.59925000  T       0.00014100      -0.00019100      -0.00014100
Cu       6.27756000       1.28123000      13.61680000  T       0.00004200       0.00001100       0.00011900
Cu       8.75218000       1.27924000      13.60982000  T      -0.00004200       0.00023100       0.00053300
Cu      11.25760000       1.26409000      13.59046000  T      -0.00011900       0.00022000       0.00054200
Cu       1.23304000       3.76610000      13.58630000  T      -0.00018700      -0.00018600      -0.00011400
Cu       3.77103000       3.74591000      13.59669000  T      -0.00027300      -0.00011800      -0.00027500
Cu       6.27329000       3.76236000      13.56822000  T      -0.00017000      -0.00004400       0.00012000
Cu       8.74828000       3.76192000      13.54943000  T      -0.00021300       0.00007700       0.00060100
Cu      11.24459000       3.77183000      13.61807000  T      -0.00064800       0.00001700       0.00076900
Cu       1.23309000       6.24577000      13.58619000  T      -0.00015000       0.00017100      -0.00011800
Cu       3.77113000       6.26632000      13.59664000  T      -0.00030200       0.00015300      -0.00033000
Cu       6.27363000       6.24991000      13.56850000  T      -0.00013600       0.00005800       0.00006900
Cu       8.74845000       6.25012000      13.54940000  T      -0.00017800      -0.00013300       0.00059800
Cu      11.24468000       6.23938000      13.61736000  T      -0.00060900      -0.00009000       0.00075100
Cu       1.26213000       8.76510000      13.57006000  T       0.00021500       0.00008900       0.00012000
Cu       3.78094000       8.75397000      13.59921000  T       0.00015000       0.00023200      -0.00015100
Cu       6.27797000       8.73181000      13.61660000  T       0.00003900       0.00003800       0.00010500
Cu       8.75237000       8.73338000      13.60947000  T      -0.00001800      -0.00022800       0.00050700
Cu      11.25813000       8.74809000      13.59008000  T      -0.00007900      -0.00024700       0.00051500
Cu       1.25072000      11.26361000      13.59117000  T       0.00040500       0.00000200       0.00009700
Cu       3.74595000      11.26385000      13.57434000  T       0.00020200       0.00003200      -0.00003500
Cu       6.25570000      11.26439000      13.56682000  T      -0.00004100       0.00003200       0.00006800
Cu       8.75812000      11.26393000      13.57167000  T      -0.00004500       0.00000900       0.00028200
Cu      11.27155000      11.26393000      13.56961000  T       0.00015200      -0.00001100       0.00030000
Cu      12.51006000      12.51295000      15.36216000  T       0.00023000       0.00000100      -0.00013300
Cu       2.50584000       0.00759000      15.36429000  T       0.00032500       0.00005100      -0.00034900
Cu       5.00512000      12.48429000      15.35839000  T       0.00015600       0.00003800      -0.00046300
Cu       7.50758000      12.50520000      15.34781000  T      -0.00000100       0.00016600      -0.00017500
Cu      10.01334000      12.49260000      15.34860000  T       0.00003200       0.00025900       0.00007400
Cu       0.04631000       2.47010000      15.35215000  T      -0.00028800       0.00000000      -0.00002200
Cu       2.51029000       2.50707000      15.34884000  T      -0.00001100       0.00000800      -0.00050600
Cu       4.98714000       2.41674000      15.47226000  T      -0.00024700      -0.00005800      -0.00103700
Cu       7.53352000       2.54590000      15.47512000  T       0.00013700       0.00045000       0.00011100
Cu      10.08856000       2.44099000      15.42702000  T      -0.00062600       0.00077800       0.00108900
Cu      -0.00149000       5.00668000      15.46455000  T      -0.00133600      -0.00001500      -0.00032600
Cu       2.47752000       5.00593000      15.34355000  T      -0.00091600      -0.00001400      -0.00055200
Pd       5.00241000       5.00614000      15.51033000  T       0.00013400      -0.00033200       0.00068500
Y        7.54884000       5.00635000      17.42931000  T      -0.00038100       0.00005800       0.00004100
Cu       9.91759000       5.00560000      15.41190000  T      -0.00195800       0.00003100       0.00151600
Cu       0.04611000       7.54321000      15.35224000  T      -0.00022700      -0.00006200      -0.00003900
Cu       2.51026000       7.50435000      15.34875000  T       0.00001200       0.00002800      -0.00048300
Cu       4.98729000       7.59527000      15.47229000  T      -0.00029300       0.00033800      -0.00100200
Cu       7.53363000       7.46726000      15.47524000  T       0.00014900      -0.00037600       0.00006400
Cu      10.08843000       7.57022000      15.42554000  T      -0.00047600      -0.00076200       0.00101500
Cu      12.51120000      10.01527000      15.36225000  T       0.00023100      -0.00005300      -0.00014000
Cu       2.50708000      10.00471000      15.36403000  T       0.00031800      -0.00001500      -0.00033500
Cu       5.00644000      10.04210000      15.35771000  T       0.00015600       0.00006700      -0.00045000
Cu       7.50870000      10.02261000      15.34790000  T      -0.00000000      -0.00012300      -0.00017700
Cu      10.01435000      10.03353000      15.34820000  T       0.00003600      -0.00028800       0.00006300
O        6.12259000       3.44847000      16.61990000  T      -0.00053200       0.00031300      -0.00141500
O        6.12276000       6.56401000      16.61985000  T      -0.00050700      -0.00025300      -0.00131900
O        8.98453000       6.44818000      16.49046000  T      -0.00047200      -0.00005100       0.00132200
O        8.98461000       3.56358000      16.49149000  T      -0.00043200      -0.00000000       0.00131800
C       12.15297000       5.01636000      17.28223000  T       0.00441200       0.00002400       0.00218000
O        7.79644000       5.00771000      19.42603000  T      -0.01905600      -0.00003200       0.00206100
O       11.93736000       5.02353000      18.41581000  T       0.00867900      -0.00000300      -0.00022100
H        8.12975000       5.00789000      20.33067000  T      -0.03726800       0.00020200       0.01038500
108
Lattice="12.515153631 0.0 0.0 0.0 12.515153631 0.0 0.0 0.0 25.30973" Properties=species:S:1:pos:R:3:move_mask:L:1:forces:R:3 stress="0.008190570146659328 4.556301661894778e-07 0.0001176149979681441 4.556301661894778e-07 0.0079799753872429 8.862942958754227e-07 0.0001176149979681441 8.862942958754227e-07 0.001931665934842232" free_energy=-439.33789143 energy=-439.33781632 pbc="T T T"
Cu       1.25152000       1.25152000      10.00000000  F      -0.00607900      -0.00761700      -0.07380500
Cu       3.75455000       1.25152000      10.00000000  F       0.01821000      -0.00724900      -0.06505700
Cu       6.25758000       1.25152000      10.00000000  F      -0.01361900       0.00746800      -0.06095800
Cu       8.76061000       1.25152000      10.00000000  F       0.00315700       0.00609600      -0.04843300
Cu      11.26364000       1.25152000      10.00000000  F      -0.00436900       0.00989000      -0.07135700
Cu       1.25152000       3.75455000      10.00000000  F      -0.00378700       0.00851100      -0.06125400
Cu       3.75455000       3.75455000      10.00000000  F       0.00771200      -0.01500500      -0.05687100
Cu       6.25758000       3.75455000      10.00000000  F      -0.01499800      -0.01845500      -0.08064200
Cu       8.76061000       3.75455000      10.00000000  F       0.02729100      -0.01617300      -0.08902200
Cu      11.26364000       3.75455000      10.00000000  F      -0.01382000       0.00032600      -0.05528500
Cu       1.25152000       6.25758000      10.00000000  F      -0.00414400      -0.00703200      -0.06302200
Cu       3.75455000       6.25758000      10.00000000  F       0.00893400       0.01567300      -0.05727800
Cu       6.25758000       6.25758000      10.00000000  F      -0.01495600       0.02038300      -0.08383500
Cu       8.76061000       6.25758000      10.00000000  F       0.02599700       0.01687800      -0.08963000
Cu      11.26364000       6.25758000      10.00000000  F      -0.01342200       0.00116200      -0.05694100
Cu       1.25152000       8.76061000      10.00000000  F      -0.00582100       0.00406600      -0.07263700
Cu       3.75455000       8.76061000      10.00000000  F       0.01745700       0.00480000      -0.06414500
Cu       6.25758000       8.76061000      10.00000000  F      -0.01358000      -0.01164100      -0.05877100
Cu       8.76061000       8.76061000      10.00000000  F       0.00388400      -0.00866300      -0.04758100
Cu      11.26364000       8.76061000      10.00000000  F      -0.00464200      -0.01344900      -0.07011500
Cu       1.25152000      11.26364000      10.00000000  F      -0.00610700       0.00184000      -0.00781500
Cu       3.75455000      11.26364000      10.00000000  F       0.00597400       0.00154600      -0.06969900
Cu       6.25758000      11.26364000      10.00000000  F      -0.00850200       0.00195100      -0.07932200
Cu       8.76061000      11.26364000      10.00000000  F      -0.00884700       0.00160500      -0.07033900
Cu      11.26364000      11.26364000      10.00000000  F       0.01650500       0.00187600      -0.05832600
Cu       0.00000000       0.00000000      11.76991000  F      -0.01943500       0.04685000       0.04539300
Cu       2.50303000       0.00000000      11.76991000  F       0.05116800       0.01671900       0.05223200
Cu       5.00606000       0.00000000      11.76991000  F       0.05067100       0.10593300       0.07029900
Cu       7.50909000       0.00000000      11.76991000  F       0.00523800       0.07762200       0.07077300
Cu      10.01212000       0.00000000      11.76991000  F      -0.05849200       0.07633300       0.07495000
Cu       0.00000000       2.50303000      11.76991000  F      -0.06255200       0.06080100       0.06695200
Cu       2.50303000       2.50303000      11.76991000  F       0.03505100       0.06334600       0.08314900
Cu       5.00606000       2.50303000      11.76991000  F       0.00382900      -0.05322200       0.04544900
Cu       7.50909000       2.50303000      11.76991000  F      -0.03784700      -0.03369000       0.06542000
Cu      10.01212000       2.50303000      11.76991000  F       0.07972000      -0.03306800       0.03186500
Cu       0.00000000       5.00606000      11.76991000  F      -0.08558500       0.00078400       0.06334900
Cu       2.50303000       5.00606000      11.76991000  F       0.06236300       0.00100200       0.08623400
Cu       5.00606000       5.00606000      11.76991000  F      -0.03189900       0.00253400       0.10037900
Cu       7.50909000       5.00606000      11.76991000  F      -0.04574500       0.00237500       0.07758900
Cu      10.01212000       5.00606000      11.76991000  F       0.06874600       0.00020400       0.05484000
Cu       0.00000000       7.50909000      11.76991000  F      -0.06213300      -0.06534100       0.06784300
Cu       2.50303000       7.50909000      11.76991000  F       0.03542900      -0.06595000       0.08236100
Cu       5.00606000       7.50909000      11.76991000  F       0.00567500       0.04946600       0.04710800
Cu       7.50909000       7.50909000      11.76991000  F      -0.03854400       0.02993400       0.06701600
Cu      10.01212000       7.50909000      11.76991000  F       0.08030100       0.03099200       0.03202200
Cu       0.00000000      10.01212000      11.76991000  F      -0.01857600      -0.04491500       0.04308600
Cu       2.50303000      10.01212000      11.76991000  F       0.05228700      -0.01625900       0.05263500
Cu       5.00606000      10.01212000      11.76991000  F       0.05069200      -0.10305700       0.06929400
Cu       7.50909000      10.01212000      11.76991000  F       0.00538600      -0.07422000       0.06894900
Cu      10.01212000      10.01212000      11.76991000  F      -0.05911000      -0.07449900       0.07451300
Cu       1.26168000       1.24609000      13.57007000  T       0.00124900      -0.00025300      -0.00011100
Cu       3.78061000       1.25798000      13.59925000  T       0.00054900      -0.00051100      -0.00106600
Cu       6.27755000       1.28122000      13.61680000  T       0.00004900       0.00008700      -0.00020700
Cu       8.75216000       1.27924000      13.60984000  T       0.00004700       0.00073800       0.00114700
Cu      11.25759000       1.26410000      13.59048000  T       0.00005300       0.00079700       0.00136900
Cu       1.23302000       3.76609000      13.58631000  T       0.00004600      -0.00060700      -0.00111300
Cu       3.77101000       3.74590000      13.59669000  T      -0.00106500      -0.00039000      -0.00160700
Cu       6.27328000       3.76236000      13.56823000  T      -0.00090900      -0.00002700      -0.00020100
Cu       8.74826000       3.76192000      13.54946000  T      -0.00090100       0.00030800       0.00117600
Cu      11.24456000       3.77183000      13.61810000  T      -0.00170600       0.00020600       0.00214200
Cu       1.23307000       6.24578000      13.58619000  T       0.00013600       0.00055000      -0.00099100
Cu       3.77111000       6.26633000      13.59664000  T      -0.00111100       0.00046200      -0.00168800
Cu       6.27362000       6.24992000      13.56851000  T      -0.00083100       0.00007700      -0.00029100
Cu       8.74844000       6.25012000      13.54942000  T      -0.00077600      -0.00051600       0.00117400
Cu      11.24465000       6.23938000      13.61739000  T      -0.00157400      -0.00053700       0.00210600
Cu       1.26212000       8.76511000      13.57007000  T       0.00132000       0.00029300      -0.00003300
Cu       3.78092000       8.75398000      13.59921000  T       0.00061500       0.00070800      -0.00103200
Cu       6.27796000       8.73182000      13.61661000  T       0.00006000       0.00012400      -0.00021400
Cu       8.75236000       8.73338000      13.60949000  T       0.00009500      -0.00068900       0.00110000
Cu      11.25812000       8.74808000      13.59011000  T       0.00017500      -0.00083700       0.00133900
Cu       1.25072000      11.26361000      13.59118000  T       0.00185000       0.00005100      -0.00012500
Cu       3.74594000      11.26385000      13.57434000  T       0.00089900       0.00015900      -0.00056200
Cu       6.25569000      11.26439000      13.56682000  T      -0.00022700       0.00015100      -0.00031700
Cu       8.75811000      11.26393000      13.57168000  T      -0.00002400       0.00006400       0.00049500
Cu      11.27154000      11.26393000      13.56962000  T       0.00108200       0.00000500       0.00052400
Cu      12.51005000      12.51295000      15.36216000  T       0.00153600      -0.00010200      -0.00023800
Cu       2.50584000       0.00759000      15.36429000  T       0.00158800       0.00019800      -0.00122600
Cu       5.00511000      12.48429000      15.35838000  T       0.00055900       0.00004000      -0.00161300
Cu       7.50757000      12.50521000      15.34781000  T      -0.00015200       0.00039500      -0.00035800
Cu      10.01332000      12.49261000      15.34860000  T       0.00044600       0.00074200       0.00065600
Cu       0.04629000       2.47010000      15.35215000  T      -0.00032300      -0.00006400       0.00012200
Cu       2.51027000       2.50707000      15.34883000  T       0.00024600       0.00006300      -0.00203400
Cu       4.98712000       2.41673000      15.47223000  T      -0.00066600       0.00001700      -0.00343600
Cu       7.53351000       2.54591000      15.47513000  T       0.00008300       0.00120700       0.00047100
Cu      10.08853000       2.44101000      15.42705000  T      -0.00126200       0.00213800       0.00424600
Cu      -0.00154000       5.00668000      15.46455000  T      -0.00443600      -0.00010600      -0.00178900
Cu       2.47748000       5.00593000      15.34354000  T      -0.00277900      -0.00002400      -0.00207900
Pd       5.00235000       5.00614000      15.51031000  T      -0.00181300      -0.00162900      -0.00018100
Y        7.54851000       5.00635000      17.42939000  T      -0.00420500       0.00002200      -0.00219500
Cu       9.91752000       5.00560000      15.41195000  T      -0.00605100       0.00009000       0.00534100
Cu       0.04609000       7.54321000      15.35224000  T      -0.00008900      -0.00016600       0.00011200
Cu       2.51024000       7.50436000      15.34874000  T       0.00037200       0.00006900      -0.00185800
Cu       4.98726000       7.59529000      15.47227000  T      -0.00072600       0.00075100      -0.00325200
Cu       7.53362000       7.46725000      15.47525000  T       0.00011200      -0.00096200       0.00035800
Cu      10.08840000       7.57019000      15.42558000  T      -0.00078900      -0.00211700       0.00403300
Cu      12.51119000      10.01527000      15.36225000  T       0.00153000      -0.00005500      -0.00023100
Cu       2.50707000      10.00471000      15.36402000  T       0.00158500      -0.00002600      -0.00114800
Cu       5.00643000      10.04211000      15.35770000  T       0.00055600       0.00042600      -0.00155400
Cu       7.50869000      10.02261000      15.34790000  T      -0.00014100      -0.00018500      -0.00036500
Cu      10.01433000      10.03353000      15.34821000  T       0.00044300      -0.00082100       0.00066000
O        6.12256000       3.44846000      16.61990000  T      -0.00223200       0.00058600      -0.00491600
O        6.12274000       6.56402000      16.61986000  T      -0.00235200      -0.00035800      -0.00472500
O        8.98448000       6.44819000      16.49049000  T      -0.00152400      -0.00065400       0.00612600
O        8.98457000       3.56357000      16.49153000  T      -0.00146900       0.00057500       0.00627400
C       12.15385000       5.01636000      17.28244000  T       0.00753900      -0.00011300      -0.00831000
O        7.79291000       5.00769000      19.42629000  T      -0.02124000       0.00004400       0.00669300
O       11.93902000       5.02354000      18.41605000  T       0.00947800      -0.00001100       0.01126200
H        8.12164000       5.00794000      20.33260000  T      -0.03799300       0.00015700       0.01057700
108
Lattice="12.515153631 0.0 0.0 0.0 12.515153631 0.0 0.0 0.0 25.30973" Properties=species:S:1:pos:R:3:move_mask:L:1:forces:R:3 stress="0.008194564712499892 4.681131844412444e-07 0.00011760251494989236 4.681131844412444e-07 0.007983377009716507 8.301207137424734e-07 0.00011760251494989236 8.301207137424734e-07 0.0019347242743139148" free_energy=-439.33994024 energy=-439.33986517 pbc="T T T"
Cu       1.25152000       1.25152000      10.00000000  F      -0.00593600      -0.00746500      -0.07380600
Cu       3.75455000       1.25152000      10.00000000  F       0.01836700      -0.00708700      -0.06507100
Cu       6.25758000       1.25152000      10.00000000  F      -0.01342000       0.00761400      -0.06097400
Cu       8.76061000       1.25152000      10.00000000  F       0.00337200       0.00622700      -0.04844400
Cu      11.26364000       1.25152000      10.00000000  F      -0.00418900       0.01002500      -0.07136500
Cu       1.25152000       3.75455000      10.00000000  F      -0.00363200       0.00861100      -0.06110300
Cu       3.75455000       3.75455000      10.00000000  F       0.00786200      -0.01489300      -0.05674600
Cu       6.25758000       3.75455000      10.00000000  F      -0.01481900      -0.01836200      -0.08053000
Cu       8.76061000       3.75455000      10.00000000  F       0.02750500      -0.01608400      -0.08892400
Cu      11.26364000       3.75455000      10.00000000  F      -0.01362300       0.00042600      -0.05517200
Cu       1.25152000       6.25758000      10.00000000  F      -0.00398700      -0.00715900      -0.06278800
Cu       3.75455000       6.25758000      10.00000000  F       0.00908800       0.01553500      -0.05713700
Cu       6.25758000       6.25758000      10.00000000  F      -0.01477900       0.02024600      -0.08372000
Cu       8.76061000       6.25758000      10.00000000  F       0.02621400       0.01675400      -0.08952600
Cu      11.26364000       6.25758000      10.00000000  F      -0.01322900       0.00103800      -0.05678900
Cu       1.25152000       8.76061000      10.00000000  F      -0.00568200       0.00384500      -0.07259500
Cu       3.75455000       8.76061000      10.00000000  F       0.01759700       0.00456200      -0.06414800
Cu       6.25758000       8.76061000      10.00000000  F      -0.01338400      -0.01185400      -0.05878200
Cu       8.76061000       8.76061000      10.00000000  F       0.00411100      -0.00886500      -0.04759100
Cu      11.26364000       8.76061000      10.00000000  F      -0.00444900      -0.01366000      -0.07009200
Cu       1.25152000      11.26364000      10.00000000  F      -0.00597300       0.00178800      -0.00787600
Cu       3.75455000      11.26364000      10.00000000  F       0.00613400       0.00149900      -0.06979300
Cu       6.25758000      11.26364000      10.00000000  F      -0.00829400       0.00191300      -0.07942000
Cu       8.76061000      11.26364000      10.00000000  F      -0.00862400       0.00156200      -0.07041600
Cu      11.26364000      11.26364000      10.00000000  F       0.01667600       0.00182800      -0.05837700
Cu       0.00000000       0.00000000      11.76991000  F      -0.01927900       0.04695000       0.04526200
Cu       2.50303000       0.00000000      11.76991000  F       0.05133100       0.01683300       0.05205700
Cu       5.00606000       0.00000000      11.76991000  F       0.05086300       0.10607300       0.07015700
Cu       7.50909000       0.00000000      11.76991000  F       0.00545500       0.07774300       0.07066700
Cu      10.01212000       0.00000000      11.76991000  F      -0.05829800       0.07643900       0.07484500
Cu       0.00000000       2.50303000      11.76991000  F      -0.06240400       0.06096700       0.06688700
Cu       2.50303000       2.50303000      11.76991000  F       0.03523600       0.06353700       0.08305200
Cu       5.00606000       2.50303000      11.76991000  F       0.00401800      -0.05297800       0.04541500
Cu       7.50909000       2.50303000      11.76991000  F      -0.03768600      -0.03348000       0.06539000
Cu      10.01212000       2.50303000      11.76991000  F       0.07988400      -0.03288700       0.03180100
Cu       0.00000000       5.00606000      11.76991000  F      -0.08543800       0.00075300       0.06332500
Cu       2.50303000       5.00606000      11.76991000  F       0.06257800       0.00096900       0.08621700
Cu       5.00606000       5.00606000      11.76991000  F      -0.03172600       0.00250800       0.10046000
Cu       7.50909000       5.00606000      11.76991000  F      -0.04562800       0.00234500       0.07761200
Cu      10.01212000       5.00606000      11.76991000  F       0.06888400       0.00017000       0.05481000
Cu       0.00000000       7.50909000      11.76991000  F      -0.06198100      -0.06557300       0.06778100
Cu       2.50303000       7.50909000      11.76991000  F       0.03561100      -0.06619400       0.08226400
Cu       5.00606000       7.50909000      11.76991000  F       0.00587300       0.04917000       0.04708500
Cu       7.50909000       7.50909000      11.76991000  F      -0.03838200       0.02967200       0.06699300
Cu      10.01212000       7.50909000      11.76991000  F       0.08045900       0.03075200       0.03196700
Cu       0.00000000      10.01212000      11.76991000  F      -0.01842000      -0.04506200       0.04295900
Cu       2.50303000      10.01212000      11.76991000  F       0.05245300      -0.01642300       0.05246900
Cu       5.00606000      10.01212000      11.76991000  F       0.05088500      -0.10325000       0.06915700
Cu       7.50909000      10.01212000      11.76991000  F       0.00560000      -0.07440000       0.06884600
Cu      10.01212000      10.01212000      11.76991000  F      -0.05891500      -0.07465900       0.07441400
Cu       1.26170000       1.24608000      13.57006000  T       0.00001200       0.00072900       0.00028100
Cu       3.78061000       1.25797000      13.59924000  T       0.00044700       0.00051200      -0.00053700
Cu       6.27754000       1.28122000      13.61680000  T       0.00111200       0.00085400      -0.00004800
Cu       8.75215000       1.27924000      13.60985000  T       0.00109200       0.00127000       0.00094100
Cu      11.25758000       1.26410000      13.59049000  T      -0.00005600       0.00134200       0.00116600
Cu       1.23302000       3.76608000      13.58629000  T      -0.00079300       0.00015800      -0.00058700
Cu       3.77100000       3.74589000      13.59667000  T      -0.00072700       0.00052800      -0.00070900
Cu       6.27326000       3.76235000      13.56822000  T       0.00004300       0.00053400       0.00004400
Cu       8.74825000       3.76192000      13.54947000  T       0.00016000       0.00069300       0.00085700
Cu      11.24454000       3.77183000      13.61811000  T      -0.00133300       0.00058000       0.00161900
Cu       1.23307000       6.24580000      13.58618000  T      -0.00068000      -0.00030000      -0.00063000
Cu       3.77110000       6.26634000      13.59662000  T      -0.00062200      -0.00061700      -0.00056300
Cu       6.27360000       6.24992000      13.56850000  T       0.00001300      -0.00059400       0.00017400
Cu       8.74842000       6.25012000      13.54943000  T       0.00026200      -0.00088000       0.00087800
Cu      11.24464000       6.23938000      13.61740000  T      -0.00122600      -0.00087000       0.00158100
Cu       1.26214000       8.76512000      13.57007000  T       0.00009300      -0.00086200       0.00025400
Cu       3.78093000       8.75400000      13.59920000  T       0.00047300      -0.00053900      -0.00055900
Cu       6.27795000       8.73183000      13.61660000  T       0.00110800      -0.00086200      -0.00006000
Cu       8.75235000       8.73338000      13.60950000  T       0.00112800      -0.00142200       0.00090700
Cu      11.25812000       8.74809000      13.59011000  T       0.00006300      -0.00156800       0.00111000
Cu       1.25074000      11.26361000      13.59117000  T       0.00059600      -0.00009500       0.00026300
Cu       3.74595000      11.26385000      13.57433000  T       0.00067000      -0.00001300      -0.00010800
Cu       6.25568000      11.26439000      13.56682000  T       0.00116700      -0.00001600      -0.00003400
Cu       8.75810000      11.26393000      13.57168000  T       0.00112500      -0.00008500       0.00051600
Cu      11.27155000      11.26393000      13.56962000  T       0.00059800      -0.00013800       0.00066900
Cu      12.51006000      12.51295000      15.36216000  T       0.00104800       0.00007900      -0.00005100
Cu       2.50585000       0.00759000      15.36427000  T       0.00100000       0.00032500      -0.00016100
Cu       5.00511000      12.48428000      15.35836000  T       0.00074900       0.00026700      -0.00030600
Cu       7.50756000      12.50521000      15.34780000  T       0.00061300       0.00049400       0.00016100
Cu      10.01332000      12.49261000      15.34861000  T       0.00076500       0.00069100       0.00047600
Cu       0.04629000       2.47009000      15.35216000  T      -0.00035700       0.00047900       0.00000200
Cu       2.51027000       2.50706000      15.34881000  T      -0.00003800       0.00055200      -0.00117800
Cu       4.98711000       2.41673000      15.47220000  T      -0.00054000       0.00016000      -0.00251400
Cu       7.53350000       2.54591000      15.47514000  T       0.00061900       0.00147000       0.00057800
Cu      10.08851000       2.44102000      15.42710000  T      -0.00109700       0.00247100       0.00352900
Cu      -0.00159000       5.00668000      15.46455000  T      -0.00358600      -0.00013800      -0.00237600
Cu       2.47745000       5.00593000      15.34352000  T      -0.00203600      -0.00001900      -0.00155700
Pd       5.00240000       5.00609000      15.51036000  T      -0.01510300       0.00500500      -0.00925700
Y        7.54849000       5.00635000      17.42939000  T      -0.00628900       0.00009100      -0.00063900
Cu       9.91746000       5.00560000      15.41200000  T      -0.00509900       0.00003500       0.00447700
Cu       0.04609000       7.54321000      15.35225000  T      -0.00017500      -0.00078000      -0.00007800
Cu       2.51025000       7.50437000      15.34873000  T       0.00003500      -0.00054400      -0.00116500
Cu       4.98725000       7.59531000      15.47224000  T      -0.00044600      -0.00033600      -0.00226700
Cu       7.53362000       7.46725000      15.47525000  T       0.00062000      -0.00146100       0.00054200
Cu      10.08839000       7.57018000      15.42562000  T      -0.00080100      -0.00263200       0.00336300
Cu      12.51120000      10.01527000      15.36225000  T       0.00103400      -0.00039500      -0.00009200
Cu       2.50709000      10.00472000      15.36401000  T       0.00100500      -0.00037300      -0.00014800
Cu       5.00643000      10.04212000      15.35768000  T       0.00074600      -0.00004100      -0.00030500
Cu       7.50868000      10.02261000      15.34790000  T       0.00063000      -0.00050400       0.00012100
Cu      10.01433000      10.03352000      15.34822000  T       0.00074200      -0.00095700       0.00048900
O        6.12254000       3.44846000      16.61987000  T      -0.00189700       0.00075000      -0.00490800
O        6.12271000       6.56402000      16.61983000  T      -0.00214300      -0.00081300      -0.00494000
O        8.98446000       6.44818000      16.49057000  T      -0.00120600      -0.00060100       0.00534800
O        8.98455000       3.56357000      16.49160000  T      -0.00113900       0.00049500       0.00559500
C       12.15396000       5.01636000      17.28246000  T       0.00757100      -0.00012500      -0.00344200
O        7.79246000       5.00769000      19.42640000  T      -0.02832500      -0.00004100       0.00385800
O       11.93923000       5.02354000      18.41615000  T       0.01293700      -0.00009100       0.00550700
H        8.12073000       5.00795000      20.33283000  T      -0.03844400       0.00012700       0.01321000
108
Lattice="12.515153631 0.0 0.0 0.0 12.515153631 0.0 0.0 0.0 25.30973" Properties=species:S:1:pos:R:3:move_mask:L:1:forces:R:3 stress="0.008197679225553709 4.805962026930109e-07 0.00011614200181443566 4.805962026930109e-07 0.007987103190664658 8.613282593718895e-07 0.00011614200181443566 8.613282593718895e-07 0.001944223851203509" free_energy=-439.33873967 energy=-439.33866611 pbc="T T T"
Cu       1.25152000       1.25152000      10.00000000  F      -0.00577400      -0.00732500      -0.07392400
Cu       3.75455000       1.25152000      10.00000000  F       0.01830000      -0.00696700      -0.06488900
Cu       6.25758000       1.25152000      10.00000000  F      -0.01413100       0.00773200      -0.06079900
Cu       8.76061000       1.25152000      10.00000000  F       0.00249700       0.00636600      -0.04858600
Cu      11.26364000       1.25152000      10.00000000  F      -0.00451300       0.01016900      -0.07168300
Cu       1.25152000       3.75455000      10.00000000  F      -0.00347100       0.00868100      -0.06116500
Cu       3.75455000       3.75455000      10.00000000  F       0.00778000      -0.01483500      -0.05652100
Cu       6.25758000       3.75455000      10.00000000  F      -0.01552100      -0.01829700      -0.08032300
Cu       8.76061000       3.75455000      10.00000000  F       0.02664500      -0.01601100      -0.08897700
Cu      11.26364000       3.75455000      10.00000000  F      -0.01396500       0.00048600      -0.05539900
Cu       1.25152000       6.25758000      10.00000000  F      -0.00382700      -0.00723200      -0.06294400
Cu       3.75455000       6.25758000      10.00000000  F       0.00900200       0.01547500      -0.05692900
Cu       6.25758000       6.25758000      10.00000000  F      -0.01547900       0.02019700      -0.08351400
Cu       8.76061000       6.25758000      10.00000000  F       0.02535000       0.01668500      -0.08958900
Cu      11.26364000       6.25758000      10.00000000  F      -0.01356600       0.00097100      -0.05706600
Cu       1.25152000       8.76061000      10.00000000  F      -0.00551400       0.00374600      -0.07276300
Cu       3.75455000       8.76061000      10.00000000  F       0.01755000       0.00449000      -0.06397000
Cu       6.25758000       8.76061000      10.00000000  F      -0.01409200      -0.01193300      -0.05860800
Cu       8.76061000       8.76061000      10.00000000  F       0.00321900      -0.00896100      -0.04773600
Cu      11.26364000       8.76061000      10.00000000  F      -0.00478700      -0.01375500      -0.07044800
Cu       1.25152000      11.26364000      10.00000000  F      -0.00580800       0.00182600      -0.00806100
Cu       3.75455000      11.26364000      10.00000000  F       0.00608100       0.00153100      -0.06964300
Cu       6.25758000      11.26364000      10.00000000  F      -0.00900400       0.00193500      -0.07927900
Cu       8.76061000      11.26364000      10.00000000  F      -0.00951600       0.00159000      -0.07061100
Cu      11.26364000      11.26364000      10.00000000  F       0.01635100       0.00186400      -0.05875800
Cu       0.00000000       0.00000000      11.76991000  F      -0.01919900       0.04713000       0.04551900
Cu       2.50303000       0.00000000      11.76991000  F       0.05165200       0.01696800       0.05231200
Cu       5.00606000       0.00000000      11.76991000  F       0.05048500       0.10617900       0.07040700
Cu       7.50909000       0.00000000      11.76991000  F       0.00440000       0.07791400       0.07092400
Cu      10.01212000       0.00000000      11.76991000  F      -0.05906300       0.07660500       0.07507300
Cu       0.00000000       2.50303000      11.76991000  F      -0.06242800       0.06120700       0.06705600
Cu       2.50303000       2.50303000      11.76991000  F       0.03548700       0.06369800       0.08318700
Cu       5.00606000       2.50303000      11.76991000  F       0.00360200      -0.05281000       0.04562800
Cu       7.50909000       2.50303000      11.76991000  F      -0.03871300      -0.03327100       0.06560900
Cu      10.01212000       2.50303000      11.76991000  F       0.07911100      -0.03259800       0.03199300
Cu       0.00000000       5.00606000      11.76991000  F      -0.08552800       0.00076500       0.06351600
Cu       2.50303000       5.00606000      11.76991000  F       0.06277500       0.00098400       0.08629200
Cu       5.00606000       5.00606000      11.76991000  F      -0.03216800       0.00252000       0.10061200
Cu       7.50909000       5.00606000      11.76991000  F      -0.04665700       0.00235700       0.07779900
Cu      10.01212000       5.00606000      11.76991000  F       0.06813900       0.00018000       0.05494200
Cu       0.00000000       7.50909000      11.76991000  F      -0.06200100      -0.06578100       0.06794800
Cu       2.50303000       7.50909000      11.76991000  F       0.03586000      -0.06632000       0.08239100
Cu       5.00606000       7.50909000      11.76991000  F       0.00544800       0.04903200       0.04728300
Cu       7.50909000       7.50909000      11.76991000  F      -0.03939700       0.02948700       0.06720500
Cu      10.01212000       7.50909000      11.76991000  F       0.07969900       0.03048700       0.03215500
Cu       0.00000000      10.01212000      11.76991000  F      -0.01833700      -0.04522500       0.04320600
Cu       2.50303000      10.01212000      11.76991000  F       0.05277200      -0.01652800       0.05271600
Cu       5.00606000      10.01212000      11.76991000  F       0.05050700      -0.10331300       0.06940200
Cu       7.50909000      10.01212000      11.76991000  F       0.00454800      -0.07453100       0.06909900
Cu      10.01212000      10.01212000      11.76991000  F      -0.05967700      -0.07480000       0.07463600
Cu       1.26168000       1.24611000      13.57008000  T       0.00068500       0.00023500       0.00008500
Cu       3.78061000       1.25798000      13.59922000  T       0.00047500       0.00012200      -0.00040100
Cu       6.27756000       1.28124000      13.61680000  T       0.00006800       0.00033400      -0.00009000
Cu       8.75216000       1.27928000      13.60988000  T      -0.00006700       0.00057900       0.00055400
Cu      11.25756000       1.26414000      13.59053000  T       0.00005900       0.00063100       0.00069200
Cu       1.23298000       3.76608000      13.58627000  T       0.00020700      -0.00005000      -0.00044200
Cu       3.77096000       3.74591000      13.59664000  T      -0.00011600       0.00017700      -0.00051500
Cu       6.27325000       3.76237000      13.56822000  T      -0.00044600       0.00016900      -0.00011800
Cu       8.74823000       3.76194000      13.54949000  T      -0.00051900       0.00028100       0.00046300
Cu      11.24447000       3.77185000      13.61817000  T      -0.00063800       0.00023100       0.00093300
Cu       1.23303000       6.24579000      13.58616000  T       0.00026700      -0.00009600      -0.00044400
Cu       3.77106000       6.26633000      13.59659000  T      -0.00004900      -0.00027100      -0.00042300
Cu       6.27359000       6.24991000      13.56849000  T      -0.00047000      -0.00025200      -0.00004400
Cu       8.74841000       6.25010000      13.54946000  T      -0.00046900      -0.00042100       0.00046200
Cu      11.24457000       6.23936000      13.61745000  T      -0.00059200      -0.00043000       0.00090500
Cu       1.26212000       8.76510000      13.57008000  T       0.00072300      -0.00031800       0.00009300
Cu       3.78093000       8.75398000      13.59918000  T       0.00049500      -0.00014100      -0.00040200
Cu       6.27797000       8.73180000      13.61660000  T       0.00006400      -0.00034800      -0.00009700
Cu       8.75236000       8.73334000      13.60953000  T      -0.00005200      -0.00067500       0.00054400
Cu      11.25809000       8.74804000      13.59015000  T       0.00011700      -0.00074100       0.00067300
Cu       1.25074000      11.26361000      13.59118000  T       0.00101200      -0.00004400       0.00011000
Cu       3.74596000      11.26385000      13.57433000  T       0.00061000      -0.00000000      -0.00016700
Cu       6.25569000      11.26439000      13.56682000  T       0.00002200      -0.00000300      -0.00008100
Cu       8.75811000      11.26393000      13.57170000  T      -0.00005800      -0.00003700       0.00030700
Cu      11.27154000      11.26393000      13.56965000  T       0.00045300      -0.00006300       0.00041300
Cu      12.51007000      12.51296000      15.36216000  T       0.00081600       0.00003000       0.00013400
Cu       2.50587000       0.00760000      15.36427000  T       0.00088100       0.00014100      -0.00018700
Cu       5.00512000      12.48429000      15.35835000  T       0.00029600       0.00010100      -0.00037000
Cu       7.50756000      12.50523000      15.34780000  T      -0.00012800       0.00023400       0.00007400
Cu      10.01332000      12.49264000      15.34862000  T       0.00016600       0.00036700       0.00046200
Cu       0.04625000       2.47012000      15.35216000  T       0.00007400       0.00015600       0.00022600
Cu       2.51025000       2.50708000      15.34877000  T       0.00034200       0.00018800      -0.00064900
Cu       4.98706000       2.41673000      15.47211000  T      -0.00058100      -0.00024700      -0.00157000
Cu       7.53351000       2.54596000      15.47515000  T      -0.00003100       0.00051700       0.00016000
Cu      10.08845000       2.44112000      15.42722000  T      -0.00043900       0.00101700       0.00176000
Cu      -0.00171000       5.00668000      15.46445000  T      -0.00173800      -0.00008400      -0.00124000
Cu       2.47735000       5.00593000      15.34347000  T      -0.00052900      -0.00002100      -0.00073000
Pd       5.00222000       5.00612000      15.51026000  T      -0.00843300       0.00334200      -0.00609500
Y        7.54793000       5.00635000      17.42943000  T      -0.00227900       0.00006100       0.00113400
Cu       9.91725000       5.00561000      15.41217000  T      -0.00241300       0.00001500       0.00228200
Cu       0.04606000       7.54318000      15.35225000  T       0.00015800      -0.00033200       0.00021000
Cu       2.51023000       7.50435000      15.34869000  T       0.00038500      -0.00021000      -0.00062000
Cu       4.98721000       7.59532000      15.47215000  T      -0.00052400       0.00006300      -0.00142100
Cu       7.53363000       7.46720000      15.47527000  T      -0.00004700      -0.00053300       0.00015400
Cu      10.08833000       7.57009000      15.42573000  T      -0.00045300      -0.00114800       0.00182500
Cu      12.51121000      10.01526000      15.36225000  T       0.00081100      -0.00018800       0.00012900
Cu       2.50710000      10.00470000      15.36400000  T       0.00088300      -0.00016800      -0.00017100
Cu       5.00644000      10.04212000      15.35767000  T       0.00029200       0.00000800      -0.00036500
Cu       7.50868000      10.02259000      15.34790000  T      -0.00012100      -0.00023900       0.00006100
Cu      10.01433000      10.03349000      15.34823000  T       0.00015500      -0.00049800       0.00047400
O        6.12242000       3.44852000      16.61964000  T      -0.00085000       0.00017700      -0.00167500
O        6.12259000       6.56397000      16.61961000  T      -0.00094500      -0.00019700      -0.00181800
O        8.98437000       6.44816000      16.49078000  T      -0.00123900      -0.00038100       0.00293100
O        8.98446000       3.56360000      16.49182000  T      -0.00121900       0.00030500       0.00300600
C       12.15484000       5.01635000      17.28244000  T       0.00380400      -0.00015300       0.00805300
O        7.78933000       5.00770000      19.42681000  T      -0.01623800       0.00016700       0.00253600
O       11.94076000       5.02352000      18.41636000  T       0.00986500      -0.00026200      -0.00517000
H        8.11425000       5.00797000      20.33451000  T      -0.03762700       0.00014100       0.00873200
108
Lattice="12.515153631 0.0 0.0 0.0 12.515153631 0.0 0.0 0.0 25.30973" Properties=species:S:1:pos:R:3:move_mask:L:1:forces:R:3 stress="0.00819447733137213 5.055622391965439e-07 0.00011181039448107267 5.055622391965439e-07 0.007984706451160319 9.611924053860218e-07 0.00011181039448107267 9.611924053860218e-07 0.001934181263019963" free_energy=-439.34025741 energy=-439.3401849 pbc="T T T"
Cu       1.25152000       1.25152000      10.00000000  F      -0.00623000      -0.00748900      -0.07398700
Cu       3.75455000       1.25152000      10.00000000  F       0.01810700      -0.00709400      -0.06511900
Cu       6.25758000       1.25152000      10.00000000  F      -0.01384100       0.00761700      -0.06100000
Cu       8.76061000       1.25152000      10.00000000  F       0.00277900       0.00620200      -0.04858800
Cu      11.26364000       1.25152000      10.00000000  F      -0.00471000       0.00999500      -0.07157800
Cu       1.25152000       3.75455000      10.00000000  F      -0.00389900       0.00863000      -0.06132800
Cu       3.75455000       3.75455000      10.00000000  F       0.00758400      -0.01489000      -0.05683700
Cu       6.25758000       3.75455000      10.00000000  F      -0.01524600      -0.01835500      -0.08061400
Cu       8.76061000       3.75455000      10.00000000  F       0.02689200      -0.01608600      -0.08910300
Cu      11.26364000       3.75455000      10.00000000  F      -0.01413200       0.00042300      -0.05546600
Cu       1.25152000       6.25758000      10.00000000  F      -0.00425800      -0.00709100      -0.06306300
Cu       3.75455000       6.25758000      10.00000000  F       0.00880000       0.01561000      -0.05724100
Cu       6.25758000       6.25758000      10.00000000  F      -0.01520300       0.02032600      -0.08380500
Cu       8.76061000       6.25758000      10.00000000  F       0.02560400       0.01684600      -0.08970600
Cu      11.26364000       6.25758000      10.00000000  F      -0.01373100       0.00112400      -0.05709300
Cu       1.25152000       8.76061000      10.00000000  F      -0.00597700       0.00395600      -0.07277400
Cu       3.75455000       8.76061000      10.00000000  F       0.01734400       0.00466600      -0.06419800
Cu       6.25758000       8.76061000      10.00000000  F      -0.01380000      -0.01176400      -0.05881300
Cu       8.76061000       8.76061000      10.00000000  F       0.00351400      -0.00874800      -0.04773200
Cu      11.26364000       8.76061000      10.00000000  F      -0.00498000      -0.01353800      -0.07028700
Cu       1.25152000      11.26364000      10.00000000  F      -0.00629400       0.00183700      -0.00805400
Cu       3.75455000      11.26364000      10.00000000  F       0.00585600       0.00154700      -0.06986000
Cu       6.25758000      11.26364000      10.00000000  F      -0.00869100       0.00195800      -0.07946200
Cu       8.76061000      11.26364000      10.00000000  F      -0.00919700       0.00160500      -0.07055000
Cu      11.26364000      11.26364000      10.00000000  F       0.01615200       0.00187400      -0.05853300
Cu       0.00000000       0.00000000      11.76991000  F      -0.01977600       0.04701500       0.04570400
Cu       2.50303000       0.00000000      11.76991000  F       0.05107000       0.01686800       0.05222200
Cu       5.00606000       0.00000000      11.76991000  F       0.05060900       0.10605200       0.07025400
Cu       7.50909000       0.00000000      11.76991000  F       0.00495500       0.07786300       0.07101600
Cu      10.01212000       0.00000000      11.76991000  F      -0.05894900       0.07647700       0.07532400
Cu       0.00000000       2.50303000      11.76991000  F      -0.06304000       0.06096600       0.06721500
Cu       2.50303000       2.50303000      11.76991000  F       0.03492800       0.06343100       0.08300300
Cu       5.00606000       2.50303000      11.76991000  F       0.00367600      -0.05294200       0.04556000
Cu       7.50909000       2.50303000      11.76991000  F      -0.03823400      -0.03345000       0.06567600
Cu      10.01212000       2.50303000      11.76991000  F       0.07919100      -0.03277400       0.03222700
Cu       0.00000000       5.00606000      11.76991000  F      -0.08617200       0.00079500       0.06364200
Cu       2.50303000       5.00606000      11.76991000  F       0.06226700       0.00102800       0.08621100
Cu       5.00606000       5.00606000      11.76991000  F      -0.03210300       0.00256600       0.10049200
Cu       7.50909000       5.00606000      11.76991000  F      -0.04625800       0.00240300       0.07788100
Cu      10.01212000       5.00606000      11.76991000  F       0.06815800       0.00021200       0.05511100
Cu       0.00000000       7.50909000      11.76991000  F      -0.06260800      -0.06548300       0.06810300
Cu       2.50303000       7.50909000      11.76991000  F       0.03532100      -0.06599700       0.08222000
Cu       5.00606000       7.50909000      11.76991000  F       0.00552800       0.04922900       0.04723700
Cu       7.50909000       7.50909000      11.76991000  F      -0.03893200       0.02972700       0.06729100
Cu      10.01212000       7.50909000      11.76991000  F       0.07977400       0.03072300       0.03239100
Cu       0.00000000      10.01212000      11.76991000  F      -0.01891300      -0.04504300       0.04338600
Cu       2.50303000      10.01212000      11.76991000  F       0.05220100      -0.01636900       0.05262600
Cu       5.00606000      10.01212000      11.76991000  F       0.05063500      -0.10312900       0.06926000
Cu       7.50909000      10.01212000      11.76991000  F       0.00509700      -0.07442700       0.06919900
Cu      10.01212000      10.01212000      11.76991000  F      -0.05956600      -0.07461200       0.07488700
Cu       1.26170000       1.24610000      13.57008000  T       0.00038300      -0.00014100      -0.00013400
Cu       3.78061000       1.25797000      13.59920000  T      -0.00005700      -0.00021900      -0.00039600
Cu       6.27753000       1.28125000      13.61680000  T      -0.00024900      -0.00007700      -0.00019100
Cu       8.75212000       1.27930000      13.60991000  T       0.00000600       0.00000900       0.00002500
Cu      11.25753000       1.26416000      13.59057000  T       0.00014800      -0.00001800       0.00016300
Cu       1.23297000       3.76607000      13.58625000  T       0.00026900      -0.00023400      -0.00044200
Cu       3.77093000       3.74590000      13.59660000  T      -0.00056300      -0.00010200      -0.00051700
Cu       6.27320000       3.76237000      13.56820000  T      -0.00059900       0.00000900      -0.00013800
Cu       8.74817000       3.76195000      13.54953000  T      -0.00048500       0.00001500       0.00002400
Cu      11.24441000       3.77186000      13.61823000  T      -0.00030100      -0.00004300       0.00032500
Cu       1.23303000       6.24581000      13.58613000  T       0.00024400       0.00021200      -0.00046900
Cu       3.77103000       6.26633000      13.59656000  T      -0.00052500       0.00015200      -0.00047600
Cu       6.27354000       6.24991000      13.56849000  T      -0.00060400       0.00001500      -0.00012900
Cu       8.74835000       6.25009000      13.54950000  T      -0.00041200      -0.00006200       0.00001800
Cu      11.24451000       6.23934000      13.61752000  T      -0.00026200      -0.00001800       0.00040100
Cu       1.26214000       8.76511000      13.57008000  T       0.00044500       0.00021300      -0.00009600
Cu       3.78093000       8.75400000      13.59916000  T      -0.00002900       0.00031000      -0.00036200
Cu       6.27794000       8.73180000      13.61660000  T      -0.00026600       0.00017200      -0.00016600
Cu       8.75232000       8.73332000      13.60956000  T      -0.00001800       0.00005900       0.00007300
Cu      11.25807000       8.74802000      13.59019000  T       0.00018100       0.00004400       0.00018900
Cu       1.25077000      11.26361000      13.59118000  T       0.00051300       0.00003600      -0.00016500
Cu       3.74596000      11.26385000      13.57432000  T       0.00010300       0.00005800      -0.00013200
Cu       6.25566000      11.26440000      13.56681000  T      -0.00026500       0.00006600      -0.00012200
Cu       8.75807000      11.26393000      13.57172000  T      -0.00005900       0.00005000      -0.00000600
Cu      11.27154000      11.26393000      13.56966000  T       0.00040500       0.00003400      -0.00002800
Cu      12.51009000      12.51296000      15.36216000  T       0.00052200      -0.00006200      -0.00017800
Cu       2.50590000       0.00761000      15.36425000  T       0.00044200       0.00009100      -0.00048500
Cu       5.00511000      12.48430000      15.35832000  T       0.00003000      -0.00003400      -0.00049700
Cu       7.50751000      12.50524000      15.34780000  T      -0.00023300       0.00005100      -0.00004900
Cu      10.01330000      12.49266000      15.34865000  T       0.00011000       0.00015700       0.00021400
Cu       0.04622000       2.47011000      15.35218000  T      -0.00000400      -0.00014400      -0.00011000
Cu       2.51024000       2.50708000      15.34873000  T       0.00006100       0.00004900      -0.00072200
Cu       4.98699000       2.41669000      15.47200000  T      -0.00040800       0.00000000      -0.00114100
Cu       7.53349000       2.54599000      15.47516000  T      -0.00024300       0.00031600       0.00018400
Cu      10.08837000       2.44119000      15.42734000  T      -0.00029300       0.00058700       0.00136800
Cu      -0.00183000       5.00668000      15.46440000  T      -0.00139100      -0.00001200      -0.00036800
Cu       2.47729000       5.00593000      15.34343000  T      -0.00074800       0.00002300      -0.00080200
Pd       5.00205000       5.00610000      15.51018000  T       0.00140400      -0.00127400       0.00157000
Y        7.54709000       5.00637000      17.42952000  T      -0.00067700      -0.00007200      -0.00108500
Cu       9.91704000       5.00561000      15.41233000  T      -0.00213500       0.00004000       0.00182600
Cu       0.04604000       7.54318000      15.35226000  T       0.00005000       0.00010300      -0.00008100
Cu       2.51023000       7.50435000      15.34865000  T       0.00012200       0.00002000      -0.00067400
Cu       4.98714000       7.59535000      15.47205000  T      -0.00039300       0.00008400      -0.00098100
Cu       7.53360000       7.46718000      15.47528000  T      -0.00025700      -0.00020700       0.00016200
Cu      10.08825000       7.57001000      15.42586000  T      -0.00029100      -0.00061700       0.00142000
Cu      12.51123000      10.01526000      15.36226000  T       0.00052400       0.00005900      -0.00015600
Cu       2.50713000      10.00470000      15.36398000  T       0.00044700      -0.00000300      -0.00045800
Cu       5.00642000      10.04213000      15.35764000  T       0.00002700       0.00019100      -0.00048700
Cu       7.50863000      10.02259000      15.34790000  T      -0.00023100       0.00004600      -0.00004800
Cu      10.01431000      10.03347000      15.34826000  T       0.00010000      -0.00014800       0.00024300
O        6.12225000       3.44853000      16.61948000  T      -0.00190900       0.00002000      -0.00275800
O        6.12242000       6.56397000      16.61944000  T      -0.00190400       0.00014900      -0.00274000
O        8.98418000       6.44815000      16.49092000  T      -0.00068800      -0.00019900       0.00384500
O        8.98427000       3.56361000      16.49198000  T      -0.00071300       0.00026400       0.00398300
C       12.15675000       5.01631000      17.28273000  T       0.00614800      -0.00026200      -0.01166600
O        7.78333000       5.00774000      19.42720000  T      -0.01610600       0.00009900       0.00503100
O       11.94392000       5.02346000      18.41667000  T       0.00445500      -0.00027900       0.01552600
H        8.09847000       5.00803000      20.33828000  T      -0.03512100       0.00012900       0.00951600
108
Lattice="12.515153631 0.0 0.0 0.0 12.515153631 0.0 0.0 0.0 25.30973" Properties=species:S:1:pos:R:3:move_mask:L:1:forces:R:3 stress="0.008193016818236674 5.554943122036099e-07 0.00011093034169432314 5.554943122036099e-07 0.007983345802170878 9.299848597566055e-07 0.00011093034169432314 9.299848597566055e-07 0.0019399359344340274" free_energy=-439.34017079 energy=-439.34010341 pbc="T T T"
Cu       1.25152000       1.25152000      10.00000000  F      -0.00643900      -0.00749400      -0.07387400
Cu       3.75455000       1.25152000      10.00000000  F       0.01791700      -0.00714500      -0.06519500
Cu       6.25758000       1.25152000      10.00000000  F      -0.01390500       0.00757600      -0.06108700
Cu       8.76061000       1.25152000      10.00000000  F       0.00272000       0.00621000      -0.04855800
Cu      11.26364000       1.25152000      10.00000000  F      -0.00478400       0.00998400      -0.07146800
Cu       1.25152000       3.75455000      10.00000000  F      -0.00411400       0.00858300      -0.06130800
Cu       3.75455000       3.75455000      10.00000000  F       0.00737600      -0.01492800      -0.05698100
Cu       6.25758000       3.75455000      10.00000000  F      -0.01529200      -0.01839700      -0.08076100
Cu       8.76061000       3.75455000      10.00000000  F       0.02688700      -0.01610500      -0.08906800
Cu      11.26364000       3.75455000      10.00000000  F      -0.01425500       0.00039500      -0.05531600
Cu       1.25152000       6.25758000      10.00000000  F      -0.00446900      -0.00709400      -0.06308100
Cu       3.75455000       6.25758000      10.00000000  F       0.00859800       0.01560700      -0.05739500
Cu       6.25758000       6.25758000      10.00000000  F      -0.01525000       0.02033900      -0.08395700
Cu       8.76061000       6.25758000      10.00000000  F       0.02559300       0.01682000      -0.08967900
Cu      11.26364000       6.25758000      10.00000000  F      -0.01385700       0.00110500      -0.05698100
Cu       1.25152000       8.76061000      10.00000000  F      -0.00618100       0.00396000      -0.07272100
Cu       3.75455000       8.76061000      10.00000000  F       0.01716600       0.00471200      -0.06428700
Cu       6.25758000       8.76061000      10.00000000  F      -0.01386400      -0.01173200      -0.05890900
Cu       8.76061000       8.76061000      10.00000000  F       0.00344300      -0.00875800      -0.04771400
Cu      11.26364000       8.76061000      10.00000000  F      -0.00505800      -0.01352700      -0.07023900
Cu       1.25152000      11.26364000      10.00000000  F      -0.00649500       0.00185000      -0.00798200
Cu       3.75455000      11.26364000      10.00000000  F       0.00570500       0.00155700      -0.06982900
Cu       6.25758000      11.26364000      10.00000000  F      -0.00879800       0.00196000      -0.07952200
Cu       8.76061000      11.26364000      10.00000000  F      -0.00927800       0.00161500      -0.07054700
Cu      11.26364000      11.26364000      10.00000000  F       0.01609300       0.00188800      -0.05839600
Cu       0.00000000       0.00000000      11.76991000  F      -0.01996400       0.04701800       0.04582500
Cu       2.50303000       0.00000000      11.76991000  F       0.05075100       0.01682800       0.05212700
Cu       5.00606000       0.00000000      11.76991000  F       0.05042000       0.10597700       0.07016000
Cu       7.50909000       0.00000000      11.76991000  F       0.00499600       0.07785700       0.07115900
Cu      10.01212000       0.00000000      11.76991000  F      -0.05892500       0.07646600       0.07557000
Cu       0.00000000       2.50303000      11.76991000  F      -0.06341000       0.06089400       0.06733300
Cu       2.50303000       2.50303000      11.76991000  F       0.03456200       0.06329100       0.08287800
Cu       5.00606000       2.50303000      11.76991000  F       0.00348200      -0.05306000       0.04545300
Cu       7.50909000       2.50303000      11.76991000  F      -0.03815500      -0.03352700       0.06579800
Cu      10.01212000       2.50303000      11.76991000  F       0.07922600      -0.03273900       0.03250600
Cu       0.00000000       5.00606000      11.76991000  F      -0.08658900       0.00078300       0.06383700
Cu       2.50303000       5.00606000      11.76991000  F       0.06180200       0.00102000       0.08601800
Cu       5.00606000       5.00606000      11.76991000  F      -0.03233100       0.00255800       0.10041300
Cu       7.50909000       5.00606000      11.76991000  F      -0.04617200       0.00239100       0.07802200
Cu      10.01212000       5.00606000      11.76991000  F       0.06821100       0.00019600       0.05534200
Cu       0.00000000       7.50909000      11.76991000  F      -0.06297500      -0.06542100       0.06823700
Cu       2.50303000       7.50909000      11.76991000  F       0.03495500      -0.06586800       0.08211000
Cu       5.00606000       7.50909000      11.76991000  F       0.00532800       0.04933300       0.04714200
Cu       7.50909000       7.50909000      11.76991000  F      -0.03884600       0.02978800       0.06743200
Cu      10.01212000       7.50909000      11.76991000  F       0.07982200       0.03067300       0.03268900
Cu       0.00000000      10.01212000      11.76991000  F      -0.01910000      -0.04506100       0.04351600
Cu       2.50303000      10.01212000      11.76991000  F       0.05188500      -0.01633000       0.05253600
Cu       5.00606000      10.01212000      11.76991000  F       0.05044300      -0.10304800       0.06917200
Cu       7.50909000      10.01212000      11.76991000  F       0.00514100      -0.07441600       0.06934600
Cu      10.01212000      10.01212000      11.76991000  F      -0.05953900      -0.07460700       0.07514400
Cu       1.26171000       1.24610000      13.57010000  T      -0.00064000      -0.00002400      -0.00021200
Cu       3.78060000       1.25796000      13.59919000  T      -0.00014200      -0.00009900      -0.00047000
Cu       6.27751000       1.28125000      13.61681000  T       0.00066100      -0.00001000      -0.00039200
Cu       8.75211000       1.27932000      13.60996000  T       0.00050300       0.00010300      -0.00007200
Cu      11.25752000       1.26418000      13.59062000  T      -0.00028300       0.00015800      -0.00000700
Cu       1.23296000       3.76606000      13.58624000  T      -0.00079400      -0.00008400      -0.00049300
Cu       3.77087000       3.74590000      13.59659000  T      -0.00034200      -0.00001500      -0.00051400
Cu       6.27315000       3.76237000      13.56821000  T       0.00041300       0.00005000      -0.00028600
Cu       8.74813000       3.76196000      13.54958000  T       0.00035600       0.00008200      -0.00018800
Cu      11.24435000       3.77187000      13.61831000  T      -0.00053000       0.00006600       0.00005400
Cu       1.23302000       6.24582000      13.58612000  T      -0.00074800       0.00007300      -0.00048000
Cu       3.77098000       6.26634000      13.59655000  T      -0.00033500      -0.00000500      -0.00050700
Cu       6.27349000       6.24991000      13.56850000  T       0.00042400      -0.00007300      -0.00026900
Cu       8.74831000       6.25008000      13.54954000  T       0.00034200      -0.00008700      -0.00018200
Cu      11.24446000       6.23933000      13.61760000  T      -0.00052700      -0.00012000       0.00001100
Cu       1.26216000       8.76511000      13.57010000  T      -0.00064900      -0.00001700      -0.00021900
Cu       3.78092000       8.75402000      13.59915000  T      -0.00013100       0.00008200      -0.00046700
Cu       6.27792000       8.73180000      13.61661000  T       0.00066600      -0.00001000      -0.00039500
Cu       8.75231000       8.73331000      13.60961000  T       0.00053100      -0.00015100      -0.00010300
Cu      11.25806000       8.74800000      13.59024000  T      -0.00027900      -0.00020600      -0.00000500
Cu       1.25079000      11.26361000      13.59119000  T      -0.00047100      -0.00002900      -0.00022600
Cu       3.74596000      11.26386000      13.57433000  T      -0.00009500      -0.00000600      -0.00038400
Cu       6.25563000      11.26440000      13.56683000  T       0.00063400      -0.00000900      -0.00038100
Cu       8.75806000      11.26393000      13.57176000  T       0.00057700      -0.00002400      -0.00018900
Cu      11.27155000      11.26393000      13.56970000  T      -0.00015500      -0.00003400      -0.00010300
Cu      12.51012000      12.51296000      15.36215000  T      -0.00012200      -0.00005300      -0.00006600
Cu       2.50592000       0.00762000      15.36421000  T      -0.00014300      -0.00002600       0.00028700
Cu       5.00510000      12.48430000      15.35828000  T       0.00017200      -0.00007500       0.00028400
Cu       7.50748000      12.50525000      15.34780000  T       0.00040700      -0.00001200       0.00008800
Cu      10.01329000      12.49268000      15.34867000  T       0.00015100       0.00006800      -0.00010100
Cu       0.04620000       2.47012000      15.35217000  T      -0.00045100       0.00009700       0.00010300
Cu       2.51023000       2.50709000      15.34868000  T      -0.00043600      -0.00000800       0.00010900
Cu       4.98691000       2.41667000      15.47188000  T      -0.00054900      -0.00042300      -0.00053600
Cu       7.53348000       2.54602000      15.47517000  T       0.00043300      -0.00014400      -0.00014000
Cu      10.08831000       2.44127000      15.42747000  T      -0.00018600       0.00037000       0.00066200
Cu      -0.00196000       5.00668000      15.46429000  T      -0.00068900      -0.00000000      -0.00132800
Cu       2.47721000       5.00593000      15.34336000  T      -0.00094000       0.00000600       0.00009600
Pd       5.00192000       5.00608000      15.51014000  T      -0.00272200       0.00099900      -0.00184700
Y        7.54650000       5.00638000      17.42939000  T      -0.00165400       0.00006900      -0.00019500
Cu       9.91682000       5.00561000      15.41251000  T      -0.00048800      -0.00010300       0.00077000
Cu       0.04601000       7.54318000      15.35225000  T      -0.00041500      -0.00014000       0.00007200
Cu       2.51022000       7.50435000      15.34860000  T      -0.00044400       0.00002800       0.00006600
Cu       4.98706000       7.59537000      15.47194000  T      -0.00059100       0.00044600      -0.00053900
Cu       7.53359000       7.46716000      15.47528000  T       0.00043700       0.00017900      -0.00017500
Cu      10.08820000       7.56993000      15.42600000  T      -0.00008500      -0.00041700       0.00059900
Cu      12.51126000      10.01525000      15.36224000  T      -0.00013300      -0.00001700      -0.00009000
Cu       2.50715000      10.00470000      15.36395000  T      -0.00014100       0.00000400       0.00025700
Cu       5.00642000      10.04214000      15.35760000  T       0.00017000       0.00008200       0.00027400
Cu       7.50861000      10.02259000      15.34789000  T       0.00041300       0.00001300       0.00007400
Cu      10.01430000      10.03345000      15.34828000  T       0.00014900      -0.00012000      -0.00010900
O        6.12210000       3.44854000      16.61922000  T       0.00009700       0.00003600      -0.00017900
O        6.12227000       6.56396000      16.61918000  T       0.00019100      -0.00011200      -0.00006700
O        8.98407000       6.44813000      16.49112000  T       0.00022200       0.00018300       0.00270200
O        8.98415000       3.56363000      16.49219000  T       0.00021500      -0.00024900       0.00281500
C       12.15849000       5.01627000      17.28277000  T       0.00094400      -0.00012800       0.01137800
O        7.77812000       5.00776000      19.42734000  T      -0.01410800       0.00014500       0.00642000
O       11.94654000       5.02340000      18.41712000  T       0.00849200      -0.00038500      -0.00789700
H        8.08259000       5.00809000      20.34204000  T      -0.03166400       0.00009500       0.00778300
108
Lattice="12.515153631 0.0 0.0 0.0 12.515153631 0.0 0.0 0.0 25.30973" Properties=species:S:1:pos:R:3:move_mask:L:1:forces:R:3 stress="0.00819331016916559 5.554943122036099e-07 0.00011063074925628076 5.554943122036099e-07 0.007983526805935526 1.0111244783930879e-06 0.00011063074925628076 1.0111244783930879e-06 0.0019339066366184244" free_energy=-439.34067667 energy=-439.34060359 pbc="T T T"
Cu       1.25152000       1.25152000      10.00000000  F      -0.00593900      -0.00745400      -0.07390600
Cu       3.75455000       1.25152000      10.00000000  F       0.01848900      -0.00707700      -0.06510300
Cu       6.25758000       1.25152000      10.00000000  F      -0.01336200       0.00764400      -0.06087800
Cu       8.76061000       1.25152000      10.00000000  F       0.00316700       0.00624600      -0.04834100
Cu      11.26364000       1.25152000      10.00000000  F      -0.00438800       0.01001500      -0.07137800
Cu       1.25152000       3.75455000      10.00000000  F      -0.00358700       0.00860700      -0.06121600
Cu       3.75455000       3.75455000      10.00000000  F       0.00797000      -0.01487500      -0.05677900
Cu       6.25758000       3.75455000      10.00000000  F      -0.01475800      -0.01834000      -0.08045000
Cu       8.76061000       3.75455000      10.00000000  F       0.02728300      -0.01607600      -0.08879200
Cu      11.26364000       3.75455000      10.00000000  F      -0.01385000       0.00041000      -0.05518200
Cu       1.25152000       6.25758000      10.00000000  F      -0.00394000      -0.00714400      -0.06298300
Cu       3.75455000       6.25758000      10.00000000  F       0.00919400       0.01553500      -0.05718600
Cu       6.25758000       6.25758000      10.00000000  F      -0.01471900       0.02026200      -0.08363500
Cu       8.76061000       6.25758000      10.00000000  F       0.02598800       0.01676800      -0.08939000
Cu      11.26364000       6.25758000      10.00000000  F      -0.01345000       0.00106700      -0.05684500
Cu       1.25152000       8.76061000      10.00000000  F      -0.00567900       0.00389200      -0.07274600
Cu       3.75455000       8.76061000      10.00000000  F       0.01774100       0.00461300      -0.06418500
Cu       6.25758000       8.76061000      10.00000000  F      -0.01332200      -0.01183100      -0.05868600
Cu       8.76061000       8.76061000      10.00000000  F       0.00388900      -0.00882400      -0.04749200
Cu      11.26364000       8.76061000      10.00000000  F      -0.00466400      -0.01358600      -0.07015500
Cu       1.25152000      11.26364000      10.00000000  F      -0.00600000       0.00183500      -0.00800500
Cu       3.75455000      11.26364000      10.00000000  F       0.00626400       0.00153700      -0.06985400
Cu       6.25758000      11.26364000      10.00000000  F      -0.00824700       0.00194000      -0.07936500
Cu       8.76061000      11.26364000      10.00000000  F      -0.00880700       0.00159600      -0.07038100
Cu      11.26364000      11.26364000      10.00000000  F       0.01647900       0.00187000      -0.05836300
Cu       0.00000000       0.00000000      11.76991000  F      -0.01958800       0.04705100       0.04578100
Cu       2.50303000       0.00000000      11.76991000  F       0.05138200       0.01688600       0.05209600
Cu       5.00606000       0.00000000      11.76991000  F       0.05112200       0.10606700       0.07010200
Cu       7.50909000       0.00000000      11.76991000  F       0.00546100       0.07791100       0.07107600
Cu      10.01212000       0.00000000      11.76991000  F      -0.05867600       0.07650600       0.07547000
Cu       0.00000000       2.50303000      11.76991000  F      -0.06300000       0.06099900       0.06721300
Cu       2.50303000       2.50303000      11.76991000  F       0.03522900       0.06343000       0.08278900
Cu       5.00606000       2.50303000      11.76991000  F       0.00418800      -0.05289600       0.04536600
Cu       7.50909000       2.50303000      11.76991000  F      -0.03773800      -0.03338200       0.06570700
Cu      10.01212000       2.50303000      11.76991000  F       0.07947600      -0.03263500       0.03241400
Cu       0.00000000       5.00606000      11.76991000  F      -0.08616500       0.00078000       0.06366100
Cu       2.50303000       5.00606000      11.76991000  F       0.06250400       0.00101400       0.08591000
Cu       5.00606000       5.00606000      11.76991000  F      -0.03162300       0.00255300       0.10029400
Cu       7.50909000       5.00606000      11.76991000  F      -0.04575200       0.00238800       0.07791100
Cu      10.01212000       5.00606000      11.76991000  F       0.06843100       0.00019300       0.05524000
Cu       0.00000000       7.50909000      11.76991000  F      -0.06256700      -0.06554700       0.06811800
Cu       2.50303000       7.50909000      11.76991000  F       0.03561900      -0.06603100       0.08202200
Cu       5.00606000       7.50909000      11.76991000  F       0.00603500       0.04914600       0.04705900
Cu       7.50909000       7.50909000      11.76991000  F      -0.03842900       0.02961800       0.06734000
Cu      10.01212000       7.50909000      11.76991000  F       0.08007200       0.03054700       0.03259900
Cu       0.00000000      10.01212000      11.76991000  F      -0.01872500      -0.04513800       0.04347200
Cu       2.50303000      10.01212000      11.76991000  F       0.05251500      -0.01643100       0.05250400
Cu       5.00606000      10.01212000      11.76991000  F       0.05114500      -0.10318100       0.06911400
Cu       7.50909000      10.01212000      11.76991000  F       0.00560700      -0.07451400       0.06926600
Cu      10.01212000      10.01212000      11.76991000  F      -0.05928800      -0.07469200       0.07504500
Cu       1.26170000       1.24610000      13.57010000  T      -0.00060700       0.00003200      -0.00046700
Cu       3.78060000       1.25796000      13.59919000  T       0.00031000      -0.00018900      -0.00151100
Cu       6.27750000       1.28125000      13.61681000  T       0.00183300       0.00033000      -0.00082400
Cu       8.75211000       1.27932000      13.60996000  T       0.00146200       0.00087100       0.00057400
Cu      11.25752000       1.26418000      13.59062000  T      -0.00050800       0.00086200       0.00072000
Cu       1.23296000       3.76606000      13.58624000  T      -0.00130800      -0.00039800      -0.00164200
Cu       3.77087000       3.74590000      13.59659000  T      -0.00086900      -0.00003800      -0.00185000
Cu       6.27315000       3.76237000      13.56822000  T       0.00089000       0.00018900      -0.00086200
Cu       8.74813000       3.76196000      13.54958000  T       0.00050300       0.00047300       0.00036300
Cu      11.24435000       3.77187000      13.61830000  T      -0.00185000       0.00043700       0.00152400
Cu       1.23302000       6.24582000      13.58612000  T      -0.00120900       0.00034200      -0.00165100
Cu       3.77098000       6.26633000      13.59656000  T      -0.00079300       0.00003500      -0.00175400
Cu       6.27348000       6.24991000      13.56850000  T       0.00090400      -0.00020700      -0.00077600
Cu       8.74831000       6.25008000      13.54954000  T       0.00055300      -0.00052500       0.00035100
Cu      11.24446000       6.23933000      13.61759000  T      -0.00178900      -0.00065800       0.00150000
Cu       1.26215000       8.76510000      13.57010000  T      -0.00055500      -0.00008300      -0.00043200
Cu       3.78092000       8.75401000      13.59915000  T       0.00037800       0.00022800      -0.00145600
Cu       6.27791000       8.73181000      13.61661000  T       0.00182000      -0.00028800      -0.00079500
Cu       8.75231000       8.73331000      13.60961000  T       0.00151600      -0.00094700       0.00054800
Cu      11.25806000       8.74800000      13.59024000  T      -0.00046300      -0.00100700       0.00075400
Cu       1.25079000      11.26361000      13.59120000  T       0.00000700      -0.00005700      -0.00046000
Cu       3.74596000      11.26386000      13.57433000  T       0.00053800       0.00002600      -0.00094100
Cu       6.25563000      11.26440000      13.56683000  T       0.00169700       0.00002200      -0.00074700
Cu       8.75805000      11.26393000      13.57176000  T       0.00160500      -0.00003400       0.00001700
Cu      11.27155000      11.26393000      13.56970000  T       0.00031900      -0.00007800       0.00015200
Cu      12.51011000      12.51296000      15.36215000  T       0.00074300      -0.00009100      -0.00001200
Cu       2.50592000       0.00762000      15.36421000  T       0.00076100       0.00013500       0.00038600
Cu       5.00510000      12.48430000      15.35828000  T       0.00091600      -0.00007600       0.00018100
Cu       7.50748000      12.50525000      15.34780000  T       0.00099200       0.00032300       0.00030400
Cu      10.01329000      12.49268000      15.34867000  T       0.00073800       0.00065900       0.00030200
Cu       0.04620000       2.47012000      15.35217000  T      -0.00097500       0.00017600       0.00028800
Cu       2.51023000       2.50709000      15.34868000  T      -0.00047400       0.00012400      -0.00052700
Cu       4.98691000       2.41667000      15.47189000  T      -0.00161600      -0.00130600      -0.00316900
Cu       7.53347000       2.54602000      15.47517000  T       0.00140800       0.00052900       0.00000500
Cu      10.08831000       2.44127000      15.42746000  T      -0.00089800       0.00226200       0.00362900
Cu      -0.00195000       5.00668000      15.46428000  T      -0.00365500      -0.00003000      -0.00391600
Cu       2.47721000       5.00593000      15.34337000  T      -0.00239400       0.00004200      -0.00073700
Pd       5.00196000       5.00607000      15.51015000  T      -0.01516800       0.00226000      -0.00837900
Y        7.54650000       5.00638000      17.42937000  T      -0.00625900      -0.00004000       0.00075900
Cu       9.91684000       5.00561000      15.41251000  T      -0.00419300      -0.00032000       0.00440900
Cu       0.04601000       7.54317000      15.35226000  T      -0.00081100      -0.00034600       0.00020300
Cu       2.51022000       7.50435000      15.34860000  T      -0.00042000       0.00000500      -0.00062600
Cu       4.98706000       7.59537000      15.47195000  T      -0.00166700       0.00138200      -0.00298200
Cu       7.53359000       7.46716000      15.47528000  T       0.00140500      -0.00034800      -0.00010300
Cu      10.08820000       7.56994000      15.42599000  T      -0.00062500      -0.00240600       0.00359500
Cu      12.51125000      10.01525000      15.36225000  T       0.00070700      -0.00014000      -0.00008000
Cu       2.50715000      10.00470000      15.36396000  T       0.00077500      -0.00011900       0.00030800
Cu       5.00641000      10.04214000      15.35760000  T       0.00092200       0.00026600       0.00018700
Cu       7.50860000      10.02259000      15.34789000  T       0.00100600      -0.00023500       0.00026000
Cu      10.01429000      10.03345000      15.34828000  T       0.00072200      -0.00083200       0.00029800
O        6.12211000       3.44854000      16.61924000  T      -0.00075200       0.00034900      -0.00326800
O        6.12227000       6.56396000      16.61919000  T      -0.00066600      -0.00035000      -0.00317800
O        8.98407000       6.44813000      16.49112000  T      -0.00076700       0.00003200       0.00598300
O        8.98416000       3.56363000      16.49219000  T      -0.00081300      -0.00002600       0.00633900
C       12.15858000       5.01627000      17.28281000  T       0.00413800      -0.00025100       0.00579600
O        7.77799000       5.00776000      19.42735000  T      -0.02536600       0.00018600       0.00287300
O       11.94664000       5.02339000      18.41708000  T       0.01321700      -0.00052700       0.00023200
H        8.08138000       5.00809000      20.34230000  T      -0.03430200       0.00009700       0.01402700
108
Lattice="12.515153631 0.0 0.0 0.0 12.515153631 0.0 0.0 0.0 25.30973" Properties=species:S:1:pos:R:3:move_mask:L:1:forces:R:3 stress="0.008203234168675744 5.867018578330263e-07 0.0001070044324541426 5.867018578330263e-07 0.00799451186199708 9.86158441889555e-07 0.0001070044324541426 9.86158441889555e-07 0.00195306182812576" free_energy=-439.340668 energy=-439.34059516 pbc="T T T"
Cu       1.25152000       1.25152000      10.00000000  F      -0.00647400      -0.00757500      -0.07363600
Cu       3.75455000       1.25152000      10.00000000  F       0.01779400      -0.00722400      -0.06495400
Cu       6.25758000       1.25152000      10.00000000  F      -0.01400800       0.00748900      -0.06086100
Cu       8.76061000       1.25152000      10.00000000  F       0.00270600       0.00612300      -0.04832100
Cu      11.26364000       1.25152000      10.00000000  F      -0.00473100       0.00989400      -0.07123500
Cu       1.25152000       3.75455000      10.00000000  F      -0.00412800       0.00854600      -0.06105900
Cu       3.75455000       3.75455000      10.00000000  F       0.00724100      -0.01494600      -0.05673900
Cu       6.25758000       3.75455000      10.00000000  F      -0.01540100      -0.01843300      -0.08054800
Cu       8.76061000       3.75455000      10.00000000  F       0.02686100      -0.01614900      -0.08886700
Cu      11.26364000       3.75455000      10.00000000  F      -0.01420300       0.00033600      -0.05508500
Cu       1.25152000       6.25758000      10.00000000  F      -0.00448200      -0.00706300      -0.06281600
Cu       3.75455000       6.25758000      10.00000000  F       0.00846300       0.01562000      -0.05714000
Cu       6.25758000       6.25758000      10.00000000  F      -0.01535900       0.02037200      -0.08373200
Cu       8.76061000       6.25758000      10.00000000  F       0.02556600       0.01686100      -0.08946600
Cu      11.26364000       6.25758000      10.00000000  F      -0.01380600       0.00115900      -0.05673600
Cu       1.25152000       8.76061000      10.00000000  F      -0.00621700       0.00401200      -0.07246800
Cu       3.75455000       8.76061000      10.00000000  F       0.01704400       0.00475900      -0.06402200
Cu       6.25758000       8.76061000      10.00000000  F      -0.01396700      -0.01167800      -0.05866000
Cu       8.76061000       8.76061000      10.00000000  F       0.00343100      -0.00870300      -0.04745300
Cu      11.26364000       8.76061000      10.00000000  F      -0.00500400      -0.01346900      -0.06998400
Cu       1.25152000      11.26364000      10.00000000  F      -0.00652300       0.00182100      -0.00771000
Cu       3.75455000      11.26364000      10.00000000  F       0.00557500       0.00152900      -0.06960200
Cu       6.25758000      11.26364000      10.00000000  F      -0.00890700       0.00193200      -0.07926600
Cu       8.76061000      11.26364000      10.00000000  F      -0.00927700       0.00158500      -0.07028900
Cu      11.26364000      11.26364000      10.00000000  F       0.01612900       0.00185900      -0.05813000
Cu       0.00000000       0.00000000      11.76991000  F      -0.01999700       0.04692300       0.04614200
Cu       2.50303000       0.00000000      11.76991000  F       0.05057200       0.01675700       0.05230400
Cu       5.00606000       0.00000000      11.76991000  F       0.05016100       0.10591300       0.07003100
Cu       7.50909000       0.00000000      11.76991000  F       0.00476500       0.07776500       0.07100400
Cu      10.01212000       0.00000000      11.76991000  F      -0.05904200       0.07636100       0.07565900
Cu       0.00000000       2.50303000      11.76991000  F      -0.06343400       0.06078300       0.06745900
Cu       2.50303000       2.50303000      11.76991000  F       0.03448600       0.06327700       0.08302600
Cu       5.00606000       2.50303000      11.76991000  F       0.00314900      -0.05314700       0.04534000
Cu       7.50909000       2.50303000      11.76991000  F      -0.03838300      -0.03365000       0.06565000
Cu      10.01212000       2.50303000      11.76991000  F       0.07915600      -0.03281800       0.03262400
Cu       0.00000000       5.00606000      11.76991000  F      -0.08658200       0.00079400       0.06386900
Cu       2.50303000       5.00606000      11.76991000  F       0.06172300       0.00104300       0.08612100
Cu       5.00606000       5.00606000      11.76991000  F      -0.03266700       0.00258000       0.10031300
Cu       7.50909000       5.00606000      11.76991000  F      -0.04636300       0.00241200       0.07790600
Cu      10.01212000       5.00606000      11.76991000  F       0.06812000       0.00020500       0.05541900
Cu       0.00000000       7.50909000      11.76991000  F      -0.06300100      -0.06531100       0.06837100
Cu       2.50303000       7.50909000      11.76991000  F       0.03489200      -0.06587900       0.08229900
Cu       5.00606000       7.50909000      11.76991000  F       0.00498500       0.04939100       0.04707800
Cu       7.50909000       7.50909000      11.76991000  F      -0.03909000       0.02989300       0.06733300
Cu      10.01212000       7.50909000      11.76991000  F       0.07976000       0.03074800       0.03283100
Cu       0.00000000      10.01212000      11.76991000  F      -0.01913300      -0.04501700       0.04383800
Cu       2.50303000      10.01212000      11.76991000  F       0.05171100      -0.01631700       0.05271600
Cu       5.00606000      10.01212000      11.76991000  F       0.05017700      -0.10304200       0.06905400
Cu       7.50909000      10.01212000      11.76991000  F       0.00490900      -0.07438400       0.06920600
Cu      10.01212000      10.01212000      11.76991000  F      -0.05965400      -0.07455000       0.07524600
Cu       1.26169000       1.24611000      13.57012000  T      -0.00076200      -0.00020700      -0.00034900
Cu       3.78057000       1.25794000      13.59919000  T      -0.00028700      -0.00005300      -0.00086600
Cu       6.27741000       1.28121000      13.61679000  T       0.00144400       0.00052200      -0.00016800
Cu       8.75200000       1.27928000      13.60994000  T       0.00171700       0.00078400       0.00077000
Cu      11.25745000       1.26417000      13.59062000  T       0.00007200       0.00049800       0.00064700
Cu       1.23295000       3.76606000      13.58625000  T      -0.00103500      -0.00034500      -0.00094000
Cu       3.77085000       3.74592000      13.59664000  T      -0.00072700      -0.00026000      -0.00129600
Cu       6.27306000       3.76233000      13.56818000  T       0.00097900       0.00027800       0.00002400
Cu       8.74804000       3.76194000      13.54956000  T       0.00095800       0.00044400       0.00077300
Cu      11.24433000       3.77186000      13.61830000  T      -0.00104300       0.00022200       0.00128100
Cu       1.23301000       6.24582000      13.58614000  T      -0.00093600       0.00029300      -0.00091400
Cu       3.77096000       6.26631000      13.59663000  T      -0.00075100       0.00027800      -0.00137400
Cu       6.27339000       6.24994000      13.56847000  T       0.00107400      -0.00025000      -0.00000900
Cu       8.74823000       6.25010000      13.54952000  T       0.00095200      -0.00043500       0.00078600
Cu      11.24444000       6.23934000      13.61759000  T      -0.00102600      -0.00036500       0.00124500
Cu       1.26215000       8.76510000      13.57013000  T      -0.00074900       0.00014200      -0.00032000
Cu       3.78089000       8.75403000      13.59916000  T      -0.00022600       0.00002200      -0.00082500
Cu       6.27782000       8.73186000      13.61660000  T       0.00145800      -0.00057700      -0.00015100
Cu       8.75220000       8.73335000      13.60959000  T       0.00174600      -0.00089500       0.00072600
Cu      11.25800000       8.74802000      13.59025000  T       0.00006200      -0.00062900       0.00066400
Cu       1.25078000      11.26361000      13.59122000  T      -0.00041300      -0.00005500      -0.00039700
Cu       3.74595000      11.26386000      13.57433000  T      -0.00036600      -0.00002200      -0.00053200
Cu       6.25554000      11.26440000      13.56681000  T       0.00128700      -0.00004000      -0.00018300
Cu       8.75792000      11.26393000      13.57175000  T       0.00207000      -0.00006700       0.00027600
Cu      11.27146000      11.26393000      13.56971000  T       0.00079600      -0.00008200       0.00016200
Cu      12.51007000      12.51296000      15.36218000  T       0.00042500      -0.00017200      -0.00038200
Cu       2.50589000       0.00763000      15.36420000  T       0.00011800      -0.00006200       0.00031800
Cu       5.00503000      12.48428000      15.35827000  T       0.00055700      -0.00001900       0.00033800
Cu       7.50737000      12.50522000      15.34781000  T       0.00111800       0.00033000       0.00029000
Cu      10.01319000      12.49267000      15.34871000  T       0.00088200       0.00050300      -0.00016800
Cu       0.04617000       2.47011000      15.35221000  T      -0.00083800       0.00002100      -0.00029800
Cu       2.51018000       2.50708000      15.34869000  T      -0.00050500       0.00003000      -0.00036500
Cu       4.98680000       2.41660000      15.47189000  T      -0.00035900      -0.00017500      -0.00145900
Cu       7.53342000       2.54600000      15.47520000  T       0.00111700       0.00069700       0.00021400
Cu      10.08823000       2.44127000      15.42753000  T      -0.00059700       0.00180000       0.00216300
Cu      -0.00196000       5.00667000      15.46422000  T      -0.00265400       0.00004900      -0.00033500
Cu       2.47725000       5.00593000      15.34339000  T      -0.00193300       0.00004600      -0.00054600
Pd       5.00226000       5.00599000      15.51027000  T      -0.00855000       0.00160700      -0.00412100
Y        7.54541000       5.00640000      17.42980000  T       0.00380100      -0.00012600       0.00128400
Cu       9.91675000       5.00561000      15.41261000  T      -0.00298400      -0.00019700       0.00281300
Cu       0.04598000       7.54318000      15.35231000  T      -0.00065200      -0.00009500      -0.00041800
Cu       2.51017000       7.50436000      15.34863000  T      -0.00051900       0.00004800      -0.00046400
Cu       4.98696000       7.59539000      15.47196000  T      -0.00055200       0.00061000      -0.00154300
Cu       7.53353000       7.46719000      15.47531000  T       0.00115500      -0.00058000       0.00011600
Cu      10.08812000       7.56993000      15.42606000  T      -0.00043100      -0.00191600       0.00210600
Cu      12.51121000      10.01526000      15.36229000  T       0.00036300      -0.00009500      -0.00053900
Cu       2.50712000      10.00471000      15.36397000  T       0.00013900      -0.00007500       0.00005500
Cu       5.00634000      10.04217000      15.35760000  T       0.00058700      -0.00008600       0.00029600
Cu       7.50849000      10.02262000      15.34790000  T       0.00111600      -0.00036800       0.00024600
Cu      10.01420000      10.03347000      15.34832000  T       0.00088400      -0.00070300      -0.00017200
O        6.12203000       3.44840000      16.61947000  T      -0.00065200       0.00035700      -0.00310100
O        6.12219000       6.56409000      16.61941000  T      -0.00050800      -0.00037200      -0.00300500
O        8.98397000       6.44812000      16.49134000  T      -0.00086600      -0.00073900       0.00359400
O        8.98405000       3.56364000      16.49241000  T      -0.00080700       0.00071100       0.00372500
C       12.16014000       5.01618000      17.28322000  T       0.00493800      -0.00017300      -0.00604700
O        7.77097000       5.00780000      19.42862000  T      -0.01648600       0.00053200       0.00184200
O       11.94997000       5.02328000      18.41771000  T       0.00644600       0.00002800       0.00782900
H        8.06478000       5.00814000      20.34681000  T      -0.02958800      -0.00000600       0.00463600
