108
Lattice="12.515153631 0.0 0.0 0.0 12.515153631 0.0 0.0 0.0 25.30973" Properties=species:S:1:pos:R:3:move_mask:L:1:forces:R:3 stress="0.008096423223004504 -5.879501596582029e-06 -0.00023246500739352194 -5.879501596582029e-06 0.007966780836950783 -1.68520746398848e-05 -0.00023246500739352194 -1.68520746398848e-05 0.002906789388597225" free_energy=-444.10790756 energy=-444.10411068 pbc="T T T"
Cu       1.25152000       1.25152000      10.00000000  F      -0.00134500      -0.01855400      -0.07542000
Cu       3.75455000       1.25152000      10.00000000  F       0.01131800       0.00216800      -0.07162300
Cu       6.25758000       1.25152000      10.00000000  F      -0.01726200       0.01260300      -0.06035900
Cu       8.76061000       1.25152000      10.00000000  F       0.01096300       0.01247100      -0.05187400
Cu      11.26364000       1.25152000      10.00000000  F      -0.00453800       0.00439900      -0.07278300
Cu       1.25152000       3.75455000      10.00000000  F      -0.00337600       0.00718300      -0.06709300
Cu       3.75455000       3.75455000      10.00000000  F       0.01655400      -0.01456000      -0.05768800
Cu       6.25758000       3.75455000      10.00000000  F      -0.01942800      -0.01524000      -0.08119000
Cu       8.76061000       3.75455000      10.00000000  F       0.01842800      -0.01688400      -0.08748100
Cu      11.26364000       3.75455000      10.00000000  F      -0.01089400      -0.00334100      -0.05501800
Cu       1.25152000       6.25758000      10.00000000  F      -0.00414800      -0.00570500      -0.06900100
Cu       3.75455000       6.25758000      10.00000000  F       0.01794500       0.01535900      -0.05817600
Cu       6.25758000       6.25758000      10.00000000  F      -0.01937300       0.01729600      -0.08390700
Cu       8.76061000       6.25758000      10.00000000  F       0.01710900       0.01761500      -0.08764100
Cu      11.26364000       6.25758000      10.00000000  F      -0.01037100       0.00488000      -0.05676000
Cu       1.25152000       8.76061000      10.00000000  F      -0.00116000       0.01518700      -0.07398900
Cu       3.75455000       8.76061000      10.00000000  F       0.01051800      -0.00437100      -0.07067000
Cu       6.25758000       8.76061000      10.00000000  F      -0.01747200      -0.01674800      -0.05798800
Cu       8.76061000       8.76061000      10.00000000  F       0.01184100      -0.01483500      -0.05084600
Cu      11.26364000       8.76061000      10.00000000  F      -0.00473000      -0.00794600      -0.07181300
Cu       1.25152000      11.26364000      10.00000000  F      -0.00875600       0.00188300      -0.01826100
Cu       3.75455000      11.26364000      10.00000000  F      -0.00547400       0.00145200      -0.07517400
Cu       6.25758000      11.26364000      10.00000000  F      -0.00666300       0.00211700      -0.07515300
Cu       8.76061000      11.26364000      10.00000000  F      -0.00166300       0.00155400      -0.06228000
Cu      11.26364000      11.26364000      10.00000000  F       0.01952100       0.00190400      -0.07471000
Cu       0.00000000       0.00000000      11.76991000  F      -0.00278200       0.04037900       0.10884700
Cu       2.50303000       0.00000000      11.76991000  F       0.04210000       0.01516900       0.12918500
Cu       5.00606000       0.00000000      11.76991000  F       0.00585500       0.07064500       0.10352400
Cu       7.50909000       0.00000000      11.76991000  F      -0.01486600       0.04854800       0.07738300
Cu      10.01212000       0.00000000      11.76991000  F      -0.03153100       0.07155800       0.09878600
Cu       0.00000000       2.50303000      11.76991000  F      -0.05873000       0.03454500       0.11300700
Cu       2.50303000       2.50303000      11.76991000  F       0.04536900       0.04495100       0.13056100
Cu       5.00606000       2.50303000      11.76991000  F      -0.05477700      -0.04563300       0.08803700
Cu       7.50909000       2.50303000      11.76991000  F      -0.02656100       0.01576600       0.15613000
Cu      10.01212000       2.50303000      11.76991000  F       0.03025400      -0.01956100       0.11690700
Cu       0.00000000       5.00606000      11.76991000  F      -0.07512000       0.00275300       0.07507800
Cu       2.50303000       5.00606000      11.76991000  F       0.05492600       0.00115800       0.14807500
Cu       5.00606000       5.00606000      11.76991000  F      -0.08154200       0.00226300       0.13591100
Cu       7.50909000       5.00606000      11.76991000  F      -0.03260100       0.00219200       0.18771700
Cu      10.01212000       5.00606000      11.76991000  F       0.01402600       0.00180600       0.14480500
Cu       0.00000000       7.50909000      11.76991000  F      -0.05842000      -0.03628200       0.11492400
Cu       2.50303000       7.50909000      11.76991000  F       0.04489400      -0.04740400       0.13111800
Cu       5.00606000       7.50909000      11.76991000  F      -0.05245400       0.04021100       0.08957300
Cu       7.50909000       7.50909000      11.76991000  F      -0.02640800      -0.01805700       0.15668000
Cu      10.01212000       7.50909000      11.76991000  F       0.03330900       0.02162700       0.11422200
Cu       0.00000000      10.01212000      11.76991000  F      -0.00317300      -0.03834300       0.10660000
Cu       2.50303000      10.01212000      11.76991000  F       0.04248900      -0.01371700       0.12842500
Cu       5.00606000      10.01212000      11.76991000  F       0.00697200      -0.07012800       0.10149000
Cu       7.50909000      10.01212000      11.76991000  F      -0.01316500      -0.04819100       0.07637900
Cu      10.01212000      10.01212000      11.76991000  F      -0.03268000      -0.07096400       0.09883000
Cu       1.25863000       1.24246000      13.58788000  T      -0.00619000      -0.01409600      -0.00691400
Cu       3.76634000       1.26180000      13.61700000  T      -0.00826600      -0.01460600      -0.01558200
Cu       6.25128000       1.26835000      13.61038000  T      -0.00138300      -0.00189300       0.00628900
Cu       8.74092000       1.26926000      13.60452000  T      -0.00405500      -0.00406500       0.00134200
Cu      11.25857000       1.25571000      13.59950000  T       0.01532000      -0.01340700      -0.01860100
Cu       1.23444000       3.75706000      13.58972000  T       0.00583700      -0.00091000      -0.00587300
Cu       3.75845000       3.74949000      13.61518000  T      -0.01047500      -0.00745700      -0.00236500
Cu       6.25085000       3.76615000      13.57814000  T      -0.00416400      -0.00557300      -0.05777000
Cu       8.74225000       3.77153000      13.58119000  T       0.00558500      -0.00144200      -0.03881700
Cu      11.24090000       3.76707000      13.61466000  T       0.01004600       0.00090600       0.00924300
Cu       1.23486000       6.25526000      13.58964000  T       0.00516200       0.00047400      -0.00523900
Cu       3.75907000       6.26209000      13.61500000  T      -0.01040600       0.00982100      -0.00337600
Cu       6.25214000       6.24508000      13.57852000  T      -0.00430800       0.00341400      -0.05572100
Cu       8.74348000       6.24258000      13.58058000  T       0.00613900      -0.00138800      -0.03914700
Cu      11.24145000       6.24714000      13.61464000  T       0.00953600      -0.00378900       0.00745800
Cu       1.25856000       8.77000000      13.58793000  T      -0.00610000       0.01029000      -0.00685000
Cu       3.76659000       8.75028000      13.61636000  T      -0.00744300       0.01440100      -0.01422800
Cu       6.25231000       8.74270000      13.61045000  T      -0.00199300       0.00402200       0.00936700
Cu       8.74183000       8.74303000      13.60544000  T      -0.00446500       0.00498700       0.00279500
Cu      11.25831000       8.75690000      13.60036000  T       0.01499500       0.01166100      -0.01801100
Cu       1.25462000      11.26385000      13.61211000  T      -0.00663400       0.00164100      -0.00781000
Cu       3.74721000      11.26366000      13.59084000  T      -0.01032000       0.00110200      -0.00946000
Cu       6.25487000      11.26320000      13.57521000  T      -0.00558800       0.00214400      -0.00767200
Cu       8.76480000      11.26373000      13.57599000  T      -0.00697200       0.00145500      -0.00792900
Cu      11.27779000      11.26380000      13.58230000  T       0.03106800       0.00119500      -0.00459500
Cu       0.00086000       0.00018000      15.40221000  T      -0.00075600       0.00636400      -0.09083000
Cu       2.51405000       0.00626000      15.40348000  T      -0.00612100       0.00510800      -0.08306500
Cu       5.01102000      12.48661000      15.38406000  T       0.01377200       0.00611100      -0.04910700
Cu       7.51005000      12.49002000      15.36059000  T       0.00097900       0.00105000      -0.05680000
Cu      10.01926000      12.48615000      15.36789000  T      -0.01394700      -0.00044600      -0.05351300
Cu       0.02384000       2.48641000      15.37238000  T       0.00753900       0.01567600      -0.05362900
Cu       2.48455000       2.50542000      15.38209000  T      -0.00293300       0.01075300      -0.04010700
Cu       4.94568000       2.42317000      15.50727000  T      -0.04180200      -0.06264100      -0.08109900
Cu       7.43429000       2.47542000      15.44692000  T      -0.04082300      -0.09790600      -0.13764800
Cu      10.07259000       2.42114000      15.40680000  T       0.05672400      -0.05535400      -0.07362100
Cu      12.51277000       5.00569000      15.41849000  T       0.02235400       0.00168300      -0.06600600
Cu       2.42938000       5.00657000      15.38266000  T      -0.00366800       0.00118800      -0.05579700
Pd       4.95177000       5.00557000      15.55136000  T       0.01284700      -0.00161800      -0.09295000
Y        7.57242000       5.00567000      17.27857000  T       0.08582700      -0.00252100       0.13273300
Cu      10.04351000       5.01108000      15.49044000  T       0.15661500       0.00550000      -0.03327700
Cu       0.02491000       7.52534000      15.37255000  T       0.00808900      -0.01451100      -0.05297100
Cu       2.48561000       7.50760000      15.38165000  T      -0.00231500      -0.01401300      -0.03997600
Cu       4.94687000       7.58746000      15.50533000  T      -0.04093900       0.06388200      -0.07886400
Cu       7.43663000       7.53495000      15.44794000  T      -0.04034700       0.10142400      -0.13657600
Cu      10.07362000       7.59283000      15.41183000  T       0.05504100       0.05308300      -0.07722100
Cu       0.00059000      10.01185000      15.40239000  T      -0.00071300      -0.00625900      -0.09125300
Cu       2.51390000      10.00681000      15.40307000  T      -0.00630000      -0.00437500      -0.08262800
Cu       5.01084000      10.03912000      15.38360000  T       0.01446000      -0.00811000      -0.04840200
Cu       7.50986000      10.03658000      15.36072000  T       0.00058600      -0.00816900      -0.05703500
Cu      10.01897000      10.04311000      15.36841000  T      -0.01380800      -0.00183400      -0.05333800
O        6.08280000       3.44046000      16.66993000  T      -0.07136900       0.00968800       0.14161400
O        6.08250000       6.57058000      16.66881000  T      -0.06902100      -0.00872200       0.14233900
O        8.83010000       6.46458000      16.28487000  T       0.05951500       0.05962600       0.03907000
O        8.82748000       3.55493000      16.27057000  T       0.05055800      -0.06333400       0.02596800
C        9.95160000       4.96411000      18.37302000  T       0.38148900      -0.04667900       0.54406700
O       10.34611000       4.86446000      19.69726000  T      -0.49342700       0.06755500      -0.62570000
O       10.91556000       4.99129000      17.55179000  T      -0.13338200      -0.01108800       0.24657600
H       11.32913000       4.83045000      19.68634000  T       0.29741800      -0.00517100       0.06321300
108
Lattice="12.515153631 0.0 0.0 0.0 12.515153631 0.0 0.0 0.0 25.30973" Properties=species:S:1:pos:R:3:move_mask:L:1:forces:R:3 stress="0.008119373252060377 -5.6235997224208164e-06 -0.00025170133851949413 -5.6235997224208164e-06 0.0079540044677701 -2.0846640480450085e-06 -0.00025170133851949413 -2.0846640480450085e-06 0.0026422804733514183" free_energy=-444.12743139 energy=-444.12360672 pbc="T T T"
Cu       1.25152000       1.25152000      10.00000000  F      -0.00101300      -0.01867200      -0.07572100
Cu       3.75455000       1.25152000      10.00000000  F       0.01183700       0.00201700      -0.07197200
Cu       6.25758000       1.25152000      10.00000000  F      -0.01687900       0.01250400      -0.06049900
Cu       8.76061000       1.25152000      10.00000000  F       0.01100500       0.01253700      -0.05175500
Cu      11.26364000       1.25152000      10.00000000  F      -0.00452900       0.00438300      -0.07300600
Cu       1.25152000       3.75455000      10.00000000  F      -0.00307700       0.00725200      -0.06704700
Cu       3.75455000       3.75455000      10.00000000  F       0.01685700      -0.01443400      -0.05776500
Cu       6.25758000       3.75455000      10.00000000  F      -0.01903000      -0.01523200      -0.08138300
Cu       8.76061000       3.75455000      10.00000000  F       0.01853400      -0.01692100      -0.08790400
Cu      11.26364000       3.75455000      10.00000000  F      -0.01073800      -0.00330200      -0.05491600
Cu       1.25152000       6.25758000      10.00000000  F      -0.00385000      -0.00580000      -0.06902600
Cu       3.75455000       6.25758000      10.00000000  F       0.01826800       0.01522800      -0.05830300
Cu       6.25758000       6.25758000      10.00000000  F      -0.01899400       0.01727800      -0.08415000
Cu       8.76061000       6.25758000      10.00000000  F       0.01720500       0.01762200      -0.08812600
Cu      11.26364000       6.25758000      10.00000000  F      -0.01020500       0.00480500      -0.05672400
Cu       1.25152000       8.76061000      10.00000000  F      -0.00081500       0.01531000      -0.07439400
Cu       3.75455000       8.76061000      10.00000000  F       0.01103800      -0.00423400      -0.07109200
Cu       6.25758000       8.76061000      10.00000000  F      -0.01709400      -0.01667100      -0.05818700
Cu       8.76061000       8.76061000      10.00000000  F       0.01187000      -0.01489700      -0.05083600
Cu      11.26364000       8.76061000      10.00000000  F      -0.00471300      -0.00793400      -0.07217000
Cu       1.25152000      11.26364000      10.00000000  F      -0.00846300       0.00187400      -0.01957300
Cu       3.75455000      11.26364000      10.00000000  F      -0.00513900       0.00145100      -0.07567200
Cu       6.25758000      11.26364000      10.00000000  F      -0.00650100       0.00212300      -0.07536700
Cu       8.76061000      11.26364000      10.00000000  F      -0.00142000       0.00154900      -0.06239500
Cu      11.26364000      11.26364000      10.00000000  F       0.01972900       0.00191800      -0.07538200
Cu       0.00000000       0.00000000      11.76991000  F      -0.00220600       0.04013200       0.10571000
Cu       2.50303000       0.00000000      11.76991000  F       0.04214600       0.01474100       0.12695800
Cu       5.00606000       0.00000000      11.76991000  F       0.00652600       0.07036000       0.10186400
Cu       7.50909000       0.00000000      11.76991000  F      -0.01481400       0.04853400       0.07623300
Cu      10.01212000       0.00000000      11.76991000  F      -0.03162500       0.07111400       0.09824800
Cu       0.00000000       2.50303000      11.76991000  F      -0.05829200       0.03519000       0.11197900
Cu       2.50303000       2.50303000      11.76991000  F       0.04531200       0.04487300       0.12913700
Cu       5.00606000       2.50303000      11.76991000  F      -0.05559300      -0.04698200       0.08558500
Cu       7.50909000       2.50303000      11.76991000  F      -0.02598800       0.01398300       0.15318900
Cu      10.01212000       2.50303000      11.76991000  F       0.03134000      -0.01991900       0.11626800
Cu       0.00000000       5.00606000      11.76991000  F      -0.07496200       0.00269700       0.07413600
Cu       2.50303000       5.00606000      11.76991000  F       0.05515700       0.00116300       0.14672300
Cu       5.00606000       5.00606000      11.76991000  F      -0.08381200       0.00229800       0.13232200
Cu       7.50909000       5.00606000      11.76991000  F      -0.03156900       0.00220400       0.18296300
Cu      10.01212000       5.00606000      11.76991000  F       0.01616600       0.00167300       0.14292800
Cu       0.00000000       7.50909000      11.76991000  F      -0.05802700      -0.03697500       0.11387300
Cu       2.50303000       7.50909000      11.76991000  F       0.04486200      -0.04730800       0.12966800
Cu       5.00606000       7.50909000      11.76991000  F      -0.05307000       0.04164100       0.08728300
Cu       7.50909000       7.50909000      11.76991000  F      -0.02593000      -0.01624900       0.15404800
Cu      10.01212000       7.50909000      11.76991000  F       0.03431200       0.02203300       0.11362800
Cu       0.00000000      10.01212000      11.76991000  F      -0.00258700      -0.03814800       0.10367200
Cu       2.50303000      10.01212000      11.76991000  F       0.04251900      -0.01333400       0.12640300
Cu       5.00606000      10.01212000      11.76991000  F       0.00772000      -0.06988300       0.10002200
Cu       7.50909000      10.01212000      11.76991000  F      -0.01315500      -0.04820900       0.07540600
Cu      10.01212000      10.01212000      11.76991000  F      -0.03280500      -0.07054300       0.09845000
Cu       1.25849000       1.24214000      13.58768000  T      -0.00419500      -0.00971300      -0.01154900
Cu       3.76614000       1.26144000      13.61658000  T      -0.00796900      -0.01309200      -0.02047600
Cu       6.25123000       1.26828000      13.61045000  T      -0.00432500      -0.00454800      -0.00525500
Cu       8.74084000       1.26915000      13.60450000  T      -0.00145200      -0.00447800      -0.00707500
Cu      11.25894000       1.25538000      13.59900000  T       0.01352700      -0.01211900      -0.02379400
Cu       1.23459000       3.75703000      13.58953000  T       0.00608300      -0.00189600      -0.01175300
Cu       3.75821000       3.74931000      13.61508000  T      -0.00831700      -0.00694400      -0.00751900
Cu       6.25075000       3.76601000      13.57678000  T      -0.00351700      -0.00496100      -0.04946700
Cu       8.74240000       3.77150000      13.58030000  T       0.00671600      -0.00087200      -0.02925100
Cu      11.24115000       3.76708000      13.61484000  T       0.00954200      -0.00016700       0.00107200
Cu       1.23498000       6.25529000      13.58947000  T       0.00539500       0.00134600      -0.01124400
Cu       3.75883000       6.26233000      13.61488000  T      -0.00808800       0.00898900      -0.00828900
Cu       6.25204000       6.24516000      13.57720000  T      -0.00360600       0.00305700      -0.04752600
Cu       8.74363000       6.24255000      13.57968000  T       0.00701300      -0.00163200      -0.02967100
Cu      11.24168000       6.24706000      13.61477000  T       0.00924600      -0.00230500      -0.00071800
Cu       1.25842000       8.77023000      13.58773000  T      -0.00400900       0.00669300      -0.01140300
Cu       3.76641000       8.75063000      13.61597000  T      -0.00740200       0.01303600      -0.01925700
Cu       6.25224000       8.74281000      13.61059000  T      -0.00482200       0.00614700      -0.00285900
Cu       8.74175000       8.74316000      13.60545000  T      -0.00179100       0.00503800      -0.00604900
Cu      11.25867000       8.75718000      13.59987000  T       0.01317200       0.01060300      -0.02336800
Cu       1.25448000      11.26388000      13.61187000  T      -0.00371400       0.00107600      -0.01375800
Cu       3.74697000      11.26369000      13.59058000  T      -0.00708500       0.00082400      -0.01236400
Cu       6.25474000      11.26324000      13.57499000  T      -0.00539000       0.00179400      -0.01200500
Cu       8.76465000      11.26376000      13.57576000  T      -0.00424600       0.00108500      -0.01264700
Cu      11.27851000      11.26382000      13.58215000  T       0.02296100       0.00077900      -0.00951400
Cu       0.00083000       0.00033000      15.40004000  T      -0.00170000       0.00638500      -0.08060600
Cu       2.51391000       0.00638000      15.40149000  T      -0.00432300       0.00461800      -0.07434700
Cu       5.01135000      12.48672000      15.38288000  T       0.01181500       0.00098700      -0.04460200
Cu       7.51008000      12.49000000      15.35924000  T       0.00113300      -0.00498000      -0.05048800
Cu      10.01894000      12.48611000      15.36660000  T      -0.01146200      -0.00454900      -0.04935100
Cu       0.02404000       2.48678000      15.37111000  T       0.00926400       0.01420500      -0.04790300
Cu       2.48446000       2.50567000      15.38113000  T      -0.00501400       0.00854800      -0.03689800
Cu       4.94481000       2.42182000      15.50547000  T      -0.01821300      -0.03400200      -0.05338200
Cu       7.43338000       2.47331000      15.44383000  T      -0.02921600      -0.05557900      -0.09612700
Cu      10.07385000       2.41993000      15.40511000  T       0.03877000      -0.03610900      -0.05700200
Cu      12.51335000       5.00573000      15.41694000  T       0.02690400       0.00125500      -0.05619300
Cu       2.42931000       5.00660000      15.38133000  T       0.00106200       0.00090000      -0.04987400
Pd       4.95221000       5.00553000      15.54933000  T       0.03054100      -0.00094300      -0.06108800
Y        7.57451000       5.00562000      17.28158000  T       0.07947200      -0.00182600       0.08778700
Cu      10.04713000       5.01120000      15.48989000  T       0.12503300       0.00396400       0.00487900
Cu       0.02512000       7.52499000      15.37129000  T       0.00963400      -0.01326000      -0.04729700
Cu       2.48554000       7.50728000      15.38069000  T      -0.00434200      -0.01128300      -0.03664100
Cu       4.94603000       7.58883000      15.50359000  T      -0.01737900       0.03494200      -0.05131500
Cu       7.43573000       7.53714000      15.44487000  T      -0.02694100       0.05782400      -0.09453600
Cu      10.07484000       7.59399000      15.41007000  T       0.03687100       0.03404000      -0.05962500
Cu       0.00057000      10.01169000      15.40021000  T      -0.00153100      -0.00607500      -0.08144700
Cu       2.51375000      10.00671000      15.40109000  T      -0.00463100      -0.00402100      -0.07431400
Cu       5.01118000      10.03896000      15.38244000  T       0.01237500      -0.00256600      -0.04377300
Cu       7.50987000      10.03643000      15.35936000  T       0.00093100      -0.00096600      -0.05071100
Cu      10.01865000      10.04310000      15.36712000  T      -0.01128700       0.00241800      -0.04925600
O        6.08106000       3.44062000      16.67317000  T      -0.07053300       0.00018900       0.10615100
O        6.08081000       6.57045000      16.67206000  T      -0.06812300       0.00001600       0.10631700
O        8.83148000       6.46608000      16.28567000  T       0.04448200       0.06272100       0.02080300
O        8.82865000       3.55334000      16.27107000  T       0.03758500      -0.06464100       0.00899700
C        9.95678000       4.96331000      18.38285000  T       0.01513500      -0.00576900       0.06872000
O       10.34003000       4.86560000      19.68651000  T       0.01158200       0.01180400      -0.05273900
O       10.91447000       4.99106000      17.55625000  T       0.02993100      -0.00794600       0.10590200
H       11.33219000       4.83047000      19.68804000  T      -0.02705900       0.00711800       0.06236500
108
Lattice="12.515153631 0.0 0.0 0.0 12.515153631 0.0 0.0 0.0 25.30973" Properties=species:S:1:pos:R:3:move_mask:L:1:forces:R:3 stress="0.008108737720509872 -5.960641215218511e-06 -0.00023077355842040758 -5.960641215218511e-06 0.007948699185013099 -1.9411093381496933e-06 -0.00023077355842040758 -1.9411093381496933e-06 0.0025266377922670536" free_energy=-444.1335249 energy=-444.12971967 pbc="T T T"
Cu       1.25152000       1.25152000      10.00000000  F      -0.00089100      -0.01870100      -0.07521900
Cu       3.75455000       1.25152000      10.00000000  F       0.01173800       0.00208700      -0.07184000
Cu       6.25758000       1.25152000      10.00000000  F      -0.01709900       0.01260600      -0.06033300
Cu       8.76061000       1.25152000      10.00000000  F       0.01108000       0.01261400      -0.05156400
Cu      11.26364000       1.25152000      10.00000000  F      -0.00435800       0.00437800      -0.07266200
Cu       1.25152000       3.75455000      10.00000000  F      -0.00296300       0.00691600      -0.06717900
Cu       3.75455000       3.75455000      10.00000000  F       0.01687400      -0.01459500      -0.05782800
Cu       6.25758000       3.75455000      10.00000000  F      -0.01922400      -0.01519800      -0.08120200
Cu       8.76061000       3.75455000      10.00000000  F       0.01858400      -0.01689900      -0.08818700
Cu      11.26364000       3.75455000      10.00000000  F      -0.01073300      -0.00337700      -0.05489900
Cu       1.25152000       6.25758000      10.00000000  F      -0.00376700      -0.00558300      -0.06929300
Cu       3.75455000       6.25758000      10.00000000  F       0.01830400       0.01525500      -0.05849900
Cu       6.25758000       6.25758000      10.00000000  F      -0.01918000       0.01713700      -0.08411600
Cu       8.76061000       6.25758000      10.00000000  F       0.01726600       0.01748300      -0.08848200
Cu      11.26364000       6.25758000      10.00000000  F      -0.01020500       0.00478800      -0.05678200
Cu       1.25152000       8.76061000      10.00000000  F      -0.00074000       0.01542600      -0.07405500
Cu       3.75455000       8.76061000      10.00000000  F       0.01094100      -0.00423600      -0.07115900
Cu       6.25758000       8.76061000      10.00000000  F      -0.01729500      -0.01671400      -0.05819900
Cu       8.76061000       8.76061000      10.00000000  F       0.01196000      -0.01489100      -0.05073400
Cu      11.26364000       8.76061000      10.00000000  F      -0.00454000      -0.00785300      -0.07199000
Cu       1.25152000      11.26364000      10.00000000  F      -0.00845000       0.00198600      -0.01915600
Cu       3.75455000      11.26364000      10.00000000  F      -0.00534700       0.00160300      -0.07507200
Cu       6.25758000      11.26364000      10.00000000  F      -0.00681700       0.00225900      -0.07528800
Cu       8.76061000      11.26364000      10.00000000  F      -0.00116100       0.00166300      -0.06221500
Cu      11.26364000      11.26364000      10.00000000  F       0.01991400       0.00201500      -0.07483200
Cu       0.00000000       0.00000000      11.76991000  F      -0.00120600       0.03989100       0.09878500
Cu       2.50303000       0.00000000      11.76991000  F       0.04162500       0.01444000       0.12175700
Cu       5.00606000       0.00000000      11.76991000  F       0.00627100       0.07027300       0.09756800
Cu       7.50909000       0.00000000      11.76991000  F      -0.01516500       0.04893200       0.07291300
Cu      10.01212000       0.00000000      11.76991000  F      -0.03154700       0.07064500       0.09525300
Cu       0.00000000       2.50303000      11.76991000  F      -0.05780800       0.03572300       0.10877700
Cu       2.50303000       2.50303000      11.76991000  F       0.04497800       0.04432500       0.12545000
Cu       5.00606000       2.50303000      11.76991000  F      -0.05737400      -0.04879700       0.08082400
Cu       7.50909000       2.50303000      11.76991000  F      -0.02558000       0.01176800       0.14848500
Cu      10.01212000       2.50303000      11.76991000  F       0.03259700      -0.02019600       0.11415100
Cu       0.00000000       5.00606000      11.76991000  F      -0.07509400       0.00244100       0.07195100
Cu       2.50303000       5.00606000      11.76991000  F       0.05562000       0.00102200       0.14411900
Cu       5.00606000       5.00606000      11.76991000  F      -0.08769600       0.00218500       0.12662600
Cu       7.50909000       5.00606000      11.76991000  F      -0.03001900       0.00201300       0.17600600
Cu      10.01212000       5.00606000      11.76991000  F       0.01868000       0.00127100       0.13993100
Cu       0.00000000       7.50909000      11.76991000  F      -0.05758300      -0.03764500       0.11059600
Cu       2.50303000       7.50909000      11.76991000  F       0.04453300      -0.04680300       0.12592700
Cu       5.00606000       7.50909000      11.76991000  F      -0.05455000       0.04347500       0.08279000
Cu       7.50909000       7.50909000      11.76991000  F      -0.02567000      -0.01409500       0.14981100
Cu      10.01212000       7.50909000      11.76991000  F       0.03546400       0.02230900       0.11149900
Cu       0.00000000      10.01212000      11.76991000  F      -0.00158000      -0.03766800       0.09711900
Cu       2.50303000      10.01212000      11.76991000  F       0.04196500      -0.01275000       0.12152500
Cu       5.00606000      10.01212000      11.76991000  F       0.00756900      -0.06945200       0.09604100
Cu       7.50909000      10.01212000      11.76991000  F      -0.01355600      -0.04823100       0.07236500
Cu      10.01212000      10.01212000      11.76991000  F      -0.03276500      -0.06974600       0.09568300
Cu       1.25831000       1.24170000      13.58701000  T      -0.00151300      -0.00328000      -0.01804600
Cu       3.76574000       1.26082000      13.61547000  T      -0.00604400      -0.00817700      -0.02398000
Cu       6.25096000       1.26804000      13.61005000  T      -0.00725300      -0.00527500      -0.01715500
Cu       8.74079000       1.26894000      13.60403000  T       0.00054500      -0.00320900      -0.01614200
Cu      11.25961000       1.25479000      13.59771000  T       0.00927100      -0.00829900      -0.02814300
Cu       1.23491000       3.75692000      13.58884000  T       0.00630900      -0.00266000      -0.01923600
Cu       3.75782000       3.74897000      13.61465000  T      -0.00294800      -0.00516300      -0.01169400
Cu       6.25057000       3.76577000      13.57436000  T      -0.00236900      -0.00396700      -0.03462000
Cu       8.74275000       3.77147000      13.57892000  T       0.00773400       0.00061900      -0.01511900
Cu      11.24163000       3.76707000      13.61479000  T       0.00700500      -0.00066400      -0.00864200
Cu       1.23527000       6.25536000      13.58880000  T       0.00575300       0.00179800      -0.01896700
Cu       3.75846000       6.26277000      13.61441000  T      -0.00249300       0.00643600      -0.01208400
Cu       6.25186000       6.24531000      13.57488000  T      -0.00238700       0.00238900      -0.03305500
Cu       8.74400000       6.24245000      13.57828000  T       0.00767800      -0.00276200      -0.01564200
Cu      11.24215000       6.24695000      13.61463000  T       0.00694000      -0.00126300      -0.01015600
Cu       1.25824000       8.77053000      13.58706000  T      -0.00131600       0.00163000      -0.01791800
Cu       3.76603000       8.75126000      13.61492000  T      -0.00587000       0.00846900      -0.02289700
Cu       6.25195000       8.74313000      13.61030000  T      -0.00743900       0.00595500      -0.01568600
Cu       8.74167000       8.74340000      13.60503000  T       0.00033100       0.00324500      -0.01583300
Cu      11.25932000       8.75770000      13.59860000  T       0.00884500       0.00712200      -0.02804500
Cu       1.25433000      11.26393000      13.61106000  T      -0.00014300       0.00051800      -0.02216200
Cu       3.74664000      11.26373000      13.58989000  T      -0.00292900       0.00069500      -0.01671500
Cu       6.25445000      11.26333000      13.57431000  T      -0.00490400       0.00137300      -0.01792000
Cu       8.76446000      11.26381000      13.57504000  T      -0.00123800       0.00077100      -0.01913800
Cu      11.27959000      11.26386000      13.58158000  T       0.01132000       0.00043700      -0.01681000
Cu       0.00074000       0.00067000      15.39601000  T      -0.00294700       0.00659100      -0.06385800
Cu       2.51371000       0.00662000      15.39777000  T      -0.00232100       0.00408500      -0.06001500
Cu       5.01192000      12.48674000      15.38064000  T       0.00795700      -0.00203400      -0.03686500
Cu       7.51013000      12.48970000      15.35671000  T       0.00058900      -0.00810900      -0.04081900
Cu      10.01838000      12.48584000      15.36410000  T      -0.00784100      -0.00733300      -0.04264600
Cu       0.02454000       2.48751000      15.36870000  T       0.00968900       0.01162300      -0.03938700
Cu       2.48419000       2.50609000      15.37927000  T      -0.00486500       0.00545200      -0.03140000
Cu       4.94412000       2.42040000      15.50301000  T       0.00467900      -0.00287100      -0.02298300
Cu       7.43196000       2.47096000      15.43937000  T      -0.01800400      -0.00606300      -0.04630500
Cu      10.07567000       2.41826000      15.40233000  T       0.02086100      -0.01673800      -0.03991500
Cu      12.51482000       5.00579000      15.41410000  T       0.03326800       0.00073200      -0.04782400
Cu       2.42947000       5.00664000      15.37883000  T       0.01180300       0.00036500      -0.04008100
Pd       4.95397000       5.00547000      15.54641000  T       0.04828500      -0.00070000      -0.03679000
Y        7.57844000       5.00553000      17.28538000  T       0.04615900      -0.00107600       0.01228000
Cu      10.05319000       5.01139000      15.49044000  T       0.08105400       0.00225100       0.02983400
Cu       0.02563000       7.52431000      15.36891000  T       0.00963200      -0.01127300      -0.03893400
Cu       2.48531000       7.50672000      15.37884000  T      -0.00420800      -0.00751300      -0.03108100
Cu       4.94538000       7.59029000      15.50124000  T       0.00541300       0.00327300      -0.02131300
Cu       7.43446000       7.53958000      15.44051000  T      -0.01370600       0.00562900      -0.04319500
Cu      10.07654000       7.59553000      15.40717000  T       0.01836100       0.01469800      -0.04118500
Cu       0.00048000      10.01138000      15.39613000  T      -0.00273700      -0.00555700      -0.06514400
Cu       2.51354000      10.00650000      15.39736000  T      -0.00239300      -0.00330200      -0.06048900
Cu       5.01178000      10.03887000      15.38024000  T       0.00836600       0.00143100      -0.03603700
Cu       7.50991000      10.03645000      15.35682000  T       0.00059300       0.00455400      -0.04110500
Cu      10.01810000      10.04326000      15.36463000  T      -0.00762800       0.00578700      -0.04263400
O        6.07758000       3.44058000      16.67810000  T      -0.04781700      -0.00166900       0.05167900
O        6.07745000       6.57049000      16.67700000  T      -0.04533000       0.00149200       0.05210600
O        8.83347000       6.46921000      16.28658000  T       0.01601000       0.04491600       0.00578900
O        8.83032000       3.55015000      16.27139000  T       0.01226200      -0.04475100      -0.00367800
C        9.95720000       4.96311000      18.38512000  T       0.02501000      -0.00354700       0.03651600
O       10.34014000       4.86605000      19.68641000  T      -0.03237500       0.00530500       0.05817700
O       10.91635000       4.99069000      17.56073000  T       0.03610400      -0.00505200       0.03936900
H       11.33150000       4.83084000      19.69107000  T       0.00719300       0.00716900       0.04856700
108
Lattice="12.515153631 0.0 0.0 0.0 12.515153631 0.0 0.0 0.0 25.30973" Properties=species:S:1:pos:R:3:move_mask:L:1:forces:R:3 stress="0.008074222175043737 -5.5549431220361e-06 -0.00020759883503600307 -5.5549431220361e-06 0.00791188676418864 -1.8724527377649775e-06 -0.00020759883503600307 -1.8724527377649775e-06 0.0023780586675254027" free_energy=-444.15104268 energy=-444.14727217 pbc="T T T"
Cu       1.25152000       1.25152000      10.00000000  F      -0.00104500      -0.01865800      -0.07509600
Cu       3.75455000       1.25152000      10.00000000  F       0.01165800       0.00200400      -0.07257800
Cu       6.25758000       1.25152000      10.00000000  F      -0.01681200       0.01224500      -0.06090600
Cu       8.76061000       1.25152000      10.00000000  F       0.01168800       0.01239400      -0.05149800
Cu      11.26364000       1.25152000      10.00000000  F      -0.00421200       0.00431200      -0.07244800
Cu       1.25152000       3.75455000      10.00000000  F      -0.00319900       0.00670700      -0.06765100
Cu       3.75455000       3.75455000      10.00000000  F       0.01655100      -0.01477000      -0.05873900
Cu       6.25758000       3.75455000      10.00000000  F      -0.01898300      -0.01528300      -0.08154800
Cu       8.76061000       3.75455000      10.00000000  F       0.01946100      -0.01691500      -0.08898400
Cu      11.26364000       3.75455000      10.00000000  F      -0.01058500      -0.00330000      -0.05500200
Cu       1.25152000       6.25758000      10.00000000  F      -0.00402300      -0.00522200      -0.06967400
Cu       3.75455000       6.25758000      10.00000000  F       0.01796600       0.01555900      -0.05928700
Cu       6.25758000       6.25758000      10.00000000  F      -0.01894800       0.01732300      -0.08434600
Cu       8.76061000       6.25758000      10.00000000  F       0.01813500       0.01757900      -0.08914800
Cu      11.26364000       6.25758000      10.00000000  F      -0.01000900       0.00482800      -0.05677400
Cu       1.25152000       8.76061000      10.00000000  F      -0.00090800       0.01527300      -0.07372500
Cu       3.75455000       8.76061000      10.00000000  F       0.01081200      -0.00427500      -0.07166600
Cu       6.25758000       8.76061000      10.00000000  F      -0.01702400      -0.01646600      -0.05860900
Cu       8.76061000       8.76061000      10.00000000  F       0.01257500      -0.01475200      -0.05051900
Cu      11.26364000       8.76061000      10.00000000  F      -0.00433400      -0.00788100      -0.07160800
Cu       1.25152000      11.26364000      10.00000000  F      -0.00877700       0.00181300      -0.01908700
Cu       3.75455000      11.26364000      10.00000000  F      -0.00535400       0.00144600      -0.07477000
Cu       6.25758000      11.26364000      10.00000000  F      -0.00662700       0.00213400      -0.07556900
Cu       8.76061000      11.26364000      10.00000000  F      -0.00048200       0.00150600      -0.06199200
Cu      11.26364000      11.26364000      10.00000000  F       0.01997700       0.00184500      -0.07429300
Cu       0.00000000       0.00000000      11.76991000  F       0.00025200       0.03898300       0.08291700
Cu       2.50303000       0.00000000      11.76991000  F       0.04101100       0.01347100       0.10874600
Cu       5.00606000       0.00000000      11.76991000  F       0.00586600       0.06912600       0.08568300
Cu       7.50909000       0.00000000      11.76991000  F      -0.01501400       0.04926900       0.06360000
Cu      10.01212000       0.00000000      11.76991000  F      -0.03157100       0.06961200       0.08542200
Cu       0.00000000       2.50303000      11.76991000  F      -0.05774700       0.03714100       0.09879700
Cu       2.50303000       2.50303000      11.76991000  F       0.04482700       0.04388300       0.11459000
Cu       5.00606000       2.50303000      11.76991000  F      -0.05984800      -0.05128900       0.06917600
Cu       7.50909000       2.50303000      11.76991000  F      -0.02328500       0.00920500       0.13916600
Cu      10.01212000       2.50303000      11.76991000  F       0.03420300      -0.01933200       0.10767100
Cu       0.00000000       5.00606000      11.76991000  F      -0.07617000       0.00237000       0.06419100
Cu       2.50303000       5.00606000      11.76991000  F       0.05711000       0.00125600       0.13599900
Cu       5.00606000       5.00606000      11.76991000  F      -0.09352600       0.00244300       0.11484800
Cu       7.50909000       5.00606000      11.76991000  F      -0.02499300       0.00205000       0.16460800
Cu      10.01212000       5.00606000      11.76991000  F       0.02214300       0.00094600       0.13344300
Cu       0.00000000       7.50909000      11.76991000  F      -0.05743000      -0.03909900       0.10044500
Cu       2.50303000       7.50909000      11.76991000  F       0.04437500      -0.04625000       0.11502700
Cu       5.00606000       7.50909000      11.76991000  F      -0.05662500       0.04615900       0.07167700
Cu       7.50909000       7.50909000      11.76991000  F      -0.02375200      -0.01160200       0.14118900
Cu      10.01212000       7.50909000      11.76991000  F       0.03698700       0.02153200       0.10485400
Cu       0.00000000      10.01212000      11.76991000  F      -0.00004900      -0.03730400       0.08166000
Cu       2.50303000      10.01212000      11.76991000  F       0.04133700      -0.01229000       0.10896800
Cu       5.00606000      10.01212000      11.76991000  F       0.00724600      -0.06864500       0.08466300
Cu       7.50909000      10.01212000      11.76991000  F      -0.01356000      -0.04882100       0.06356000
Cu      10.01212000      10.01212000      11.76991000  F      -0.03279400      -0.06901900       0.08610800
Cu       1.25812000       1.24128000      13.58483000  T       0.00140800       0.00499900      -0.02475700
Cu       3.76505000       1.25985000      13.61264000  T      -0.00013500       0.00170100      -0.02144500
Cu       6.25014000       1.26744000      13.60811000  T      -0.00581600      -0.00250300      -0.02352000
Cu       8.74080000       1.26857000      13.60217000  T       0.00085600       0.00093000      -0.02178100
Cu      11.26072000       1.25380000      13.59435000  T       0.00073200       0.00001300      -0.02727800
Cu       1.23570000       3.75663000      13.58653000  T       0.00711700      -0.00191100      -0.02721700
Cu       3.75749000       3.74836000      13.61328000  T       0.00730900      -0.00122200      -0.01302000
Cu       6.25031000       3.76528000      13.57006000  T       0.00239100      -0.00291200      -0.01355400
Cu       8.74368000       3.77156000      13.57703000  T       0.00891500       0.00345300       0.00434600
Cu      11.24248000       3.76703000      13.61381000  T       0.00208200       0.00130100      -0.01703100
Cu       1.23600000       6.25557000      13.58652000  T       0.00679700       0.00140700      -0.02711200
Cu       3.75818000       6.26355000      13.61300000  T       0.00783500       0.00193600      -0.01298000
Cu       6.25159000       6.24563000      13.57078000  T       0.00255600       0.00242800      -0.01252400
Cu       8.74493000       6.24211000      13.57633000  T       0.00873600      -0.00436900       0.00351600
Cu      11.24300000       6.24677000      13.61347000  T       0.00221600      -0.00173100      -0.01780300
Cu       1.25809000       8.77072000      13.58490000  T       0.00169800      -0.00551000      -0.02458300
Cu       3.76537000       8.75225000      13.61222000  T      -0.00015700      -0.00128100      -0.02055700
Cu       6.25110000       8.74381000      13.60854000  T      -0.00567000       0.00134200      -0.02311300
Cu       8.74166000       8.74377000      13.60320000  T       0.00074300      -0.00187900      -0.02266800
Cu      11.26039000       8.75854000      13.59524000  T       0.00054200      -0.00073900      -0.02817200
Cu       1.25430000      11.26399000      13.60840000  T       0.00314900      -0.00062700      -0.03062400
Cu       3.74630000      11.26380000      13.58787000  T       0.00369600       0.00009900      -0.02089700
Cu       6.25387000      11.26349000      13.57216000  T      -0.00199300       0.00026300      -0.02354400
Cu       8.76426000      11.26389000      13.57273000  T       0.00109000      -0.00021400      -0.02616500
Cu      11.28101000      11.26390000      13.57954000  T      -0.00434500      -0.00037100      -0.02540600
Cu       0.00039000       0.00146000      15.38819000  T      -0.00420700       0.00499500      -0.03761500
Cu       2.51343000       0.00711000      15.39042000  T      -0.00056000       0.00174700      -0.03688900
Cu       5.01289000      12.48657000      15.37613000  T       0.00124700      -0.00086200      -0.02429200
Cu       7.51020000      12.48882000      15.35169000  T       0.00018400      -0.00424000      -0.02674600
Cu      10.01741000      12.48501000      15.35889000  T      -0.00181800      -0.00665600      -0.03201900
Cu       0.02569000       2.48892000      15.36388000  T       0.00621500       0.00598400      -0.02679700
Cu       2.48368000       2.50676000      15.37543000  T      -0.00000000      -0.00039900      -0.02249400
Cu       4.94433000       2.41967000      15.49987000  T       0.01603100       0.01836500       0.00212100
Cu       7.42971000       2.46971000      15.43330000  T      -0.00412700       0.03521200       0.00306100
Cu      10.07829000       2.41611000      15.39737000  T      -0.00015800       0.00465100      -0.02001500
Cu      12.51887000       5.00589000      15.40823000  T       0.03877100       0.00027100      -0.03623200
Cu       2.43098000       5.00669000      15.37390000  T       0.03165700      -0.00032500      -0.02563900
Pd       4.95934000       5.00541000      15.54186000  T       0.04686700       0.00083900      -0.00990400
Y        7.58447000       5.00538000      17.28773000  T       0.00913300      -0.00067500      -0.05162800
Cu      10.06334000       5.01169000      15.49385000  T       0.02752900       0.00020500       0.04931400
Cu       0.02677000       7.52295000      15.36413000  T       0.00506800      -0.00626300      -0.02698200
Cu       2.48487000       7.50581000      15.37503000  T       0.00022400      -0.00020600      -0.02240300
Cu       4.94571000       7.59107000      15.49831000  T       0.01741900      -0.01878000       0.00305800
Cu       7.43265000       7.54078000      15.43478000  T      -0.00066500      -0.03893600       0.00640200
Cu      10.07889000       7.59746000      15.40202000  T      -0.00108300      -0.00493800      -0.02053100
Cu       0.00016000      10.01069000      15.38813000  T      -0.00407600      -0.00382000      -0.04122500
Cu       2.51325000      10.00610000      15.38995000  T      -0.00047800      -0.00108800      -0.03794900
Cu       5.01280000      10.03895000      15.37581000  T       0.00164200       0.00135900      -0.02442400
Cu       7.50998000      10.03688000      15.35177000  T       0.00051000       0.00351200      -0.02736100
Cu      10.01716000      10.04389000      15.35941000  T      -0.00159200       0.00542800      -0.03253800
O        6.07146000       3.44040000      16.68509000  T      -0.01558700       0.00079900       0.00403200
O        6.07161000       6.57067000      16.68400000  T      -0.01348600      -0.00029600       0.00345500
O        8.83587000       6.47492000      16.28746000  T      -0.00152000       0.01786100      -0.00516800
O        8.83218000       3.54449000      16.27108000  T      -0.00405500      -0.01453300      -0.01252400
C        9.95937000       4.96272000      18.38916000  T       0.01972800      -0.00353900       0.03797800
O       10.33876000       4.86673000      19.69190000  T      -0.00839600       0.00479300       0.04542200
O       10.92058000       4.98998000      17.56725000  T       0.02328000      -0.00601600       0.03771000
H       11.33064000       4.83174000      19.69747000  T      -0.01193900       0.00770800       0.05521600
108
Lattice="12.515153631 0.0 0.0 0.0 12.515153631 0.0 0.0 0.0 25.30973" Properties=species:S:1:pos:R:3:move_mask:L:1:forces:R:3 stress="0.008007263265141262 -4.225501678222966e-06 -0.00019699451103112739 -4.225501678222966e-06 0.007852074382235301 1.5541357723449315e-06 -0.00019699451103112739 1.5541357723449315e-06 0.0022836496004872923" free_energy=-444.14946385 energy=-444.14571464 pbc="T T T"
Cu       1.25152000       1.25152000      10.00000000  F      -0.00065200      -0.01855500      -0.07459000
Cu       3.75455000       1.25152000      10.00000000  F       0.01193400       0.00215600      -0.07236200
Cu       6.25758000       1.25152000      10.00000000  F      -0.01693100       0.01213600      -0.06092500
Cu       8.76061000       1.25152000      10.00000000  F       0.01143300       0.01225200      -0.05145000
Cu      11.26364000       1.25152000      10.00000000  F      -0.00425800       0.00422400      -0.07229600
Cu       1.25152000       3.75455000      10.00000000  F      -0.00270200       0.00666000      -0.06760600
Cu       3.75455000       3.75455000      10.00000000  F       0.01672200      -0.01479900      -0.05854200
Cu       6.25758000       3.75455000      10.00000000  F      -0.01925400      -0.01519500      -0.08098200
Cu       8.76061000       3.75455000      10.00000000  F       0.01927200      -0.01683400      -0.08934000
Cu      11.26364000       3.75455000      10.00000000  F      -0.01063000      -0.00318100      -0.05521600
Cu       1.25152000       6.25758000      10.00000000  F      -0.00354400      -0.00506600      -0.06943400
Cu       3.75455000       6.25758000      10.00000000  F       0.01815200       0.01570500      -0.05886200
Cu       6.25758000       6.25758000      10.00000000  F      -0.01917000       0.01741800      -0.08351000
Cu       8.76061000       6.25758000      10.00000000  F       0.01791300       0.01770300      -0.08923500
Cu      11.26364000       6.25758000      10.00000000  F      -0.01006600       0.00484900      -0.05679700
Cu       1.25152000       8.76061000      10.00000000  F      -0.00051500       0.01508300      -0.07295300
Cu       3.75455000       8.76061000      10.00000000  F       0.01110400      -0.00451100      -0.07105200
Cu       6.25758000       8.76061000      10.00000000  F      -0.01709600      -0.01646000      -0.05819500
Cu       8.76061000       8.76061000      10.00000000  F       0.01230400      -0.01472100      -0.05007400
Cu      11.26364000       8.76061000      10.00000000  F      -0.00442400      -0.00788000      -0.07110200
Cu       1.25152000      11.26364000      10.00000000  F      -0.00864400       0.00166400      -0.01860400
Cu       3.75455000      11.26364000      10.00000000  F      -0.00500000       0.00124700      -0.07383300
Cu       6.25758000      11.26364000      10.00000000  F      -0.00666900       0.00191200      -0.07530300
Cu       8.76061000      11.26364000      10.00000000  F      -0.00067500       0.00125800      -0.06173000
Cu      11.26364000      11.26364000      10.00000000  F       0.01982400       0.00164500      -0.07372400
Cu       0.00000000       0.00000000      11.76991000  F       0.00152400       0.03850200       0.07015200
Cu       2.50303000       0.00000000      11.76991000  F       0.04196400       0.01325300       0.09781300
Cu       5.00606000       0.00000000      11.76991000  F       0.00507500       0.06870300       0.07505800
Cu       7.50909000       0.00000000      11.76991000  F      -0.01574100       0.04996700       0.05451400
Cu      10.01212000       0.00000000      11.76991000  F      -0.03220700       0.06946700       0.07515800
Cu       0.00000000       2.50303000      11.76991000  F      -0.05758400       0.03828500       0.08925400
Cu       2.50303000       2.50303000      11.76991000  F       0.04684300       0.04414500       0.10469200
Cu       5.00606000       2.50303000      11.76991000  F      -0.06104300      -0.05153000       0.05976800
Cu       7.50909000       2.50303000      11.76991000  F      -0.02225700       0.00961900       0.13256800
Cu      10.01212000       2.50303000      11.76991000  F       0.03369300      -0.01738700       0.10116000
Cu       0.00000000       5.00606000      11.76991000  F      -0.07660600       0.00243800       0.05628400
Cu       2.50303000       5.00606000      11.76991000  F       0.06067500       0.00155000       0.12883100
Cu       5.00606000       5.00606000      11.76991000  F      -0.09604400       0.00287700       0.10703300
Cu       7.50909000       5.00606000      11.76991000  F      -0.02186000       0.00233900       0.15895100
Cu      10.01212000       5.00606000      11.76991000  F       0.02204700       0.00095700       0.12825900
Cu       0.00000000       7.50909000      11.76991000  F      -0.05719000      -0.04021600       0.09079400
Cu       2.50303000       7.50909000      11.76991000  F       0.04649200      -0.04642100       0.10525200
Cu       5.00606000       7.50909000      11.76991000  F      -0.05749100       0.04657200       0.06283800
Cu       7.50909000       7.50909000      11.76991000  F      -0.02304200      -0.01203100       0.13503900
Cu      10.01212000       7.50909000      11.76991000  F       0.03633400       0.01964100       0.09823800
Cu       0.00000000      10.01212000      11.76991000  F       0.00126000      -0.03746100       0.06906200
Cu       2.50303000      10.01212000      11.76991000  F       0.04232500      -0.01266600       0.09829800
Cu       5.00606000      10.01212000      11.76991000  F       0.00653200      -0.06887200       0.07444300
Cu       7.50909000      10.01212000      11.76991000  F      -0.01442200      -0.05021500       0.05496000
Cu      10.01212000      10.01212000      11.76991000  F      -0.03345400      -0.06945400       0.07593000
Cu       1.25813000       1.24137000      13.58255000  T       0.00293400       0.00716400      -0.02424300
Cu       3.76476000       1.25954000      13.61026000  T       0.00442000       0.00780000      -0.01496900
Cu       6.24948000       1.26707000      13.60603000  T      -0.00209600       0.00253900      -0.01753800
Cu       8.74082000       1.26848000      13.60020000  T      -0.00222500       0.00488600      -0.01831200
Cu      11.26124000       1.25338000      13.59143000  T      -0.00374200       0.00488700      -0.02125000
Cu       1.23646000       3.75641000      13.58406000  T       0.00999800      -0.00031600      -0.02641400
Cu       3.75777000       3.74803000      13.61200000  T       0.01403400       0.00169400      -0.01035200
Cu       6.25032000       3.76491000      13.56744000  T       0.00549900      -0.00173500      -0.00394800
Cu       8.74454000       3.77179000      13.57642000  T       0.00725100       0.00548700       0.01141700
Cu      11.24296000       3.76710000      13.61249000  T      -0.00049900       0.00454100      -0.01516700
Cu       1.23671000       6.25572000      13.58408000  T       0.00974400       0.00039800      -0.02640900
Cu       3.75850000       6.26399000      13.61170000  T       0.01442500      -0.00091900      -0.00996700
Cu       6.25162000       6.24589000      13.56830000  T       0.00621000       0.00235500      -0.00329600
Cu       8.74578000       6.24173000      13.57564000  T       0.00706200      -0.00516000       0.01088500
Cu      11.24348000       6.24658000      13.61203000  T      -0.00048600      -0.00373200      -0.01512300
Cu       1.25812000       8.77050000      13.58264000  T       0.00314200      -0.00799700      -0.02390400
Cu       3.76509000       8.75259000      13.60996000  T       0.00465100      -0.00767500      -0.01430000
Cu       6.25044000       8.74414000      13.60657000  T      -0.00171900      -0.00475000      -0.01730700
Cu       8.74166000       8.74380000      13.60121000  T      -0.00247900      -0.00641400      -0.01925600
Cu      11.26088000       8.75885000      13.59227000  T      -0.00394900      -0.00569600      -0.02249900
Cu       1.25445000      11.26398000      13.60559000  T       0.00336500      -0.00104000      -0.02954100
Cu       3.74635000      11.26384000      13.58587000  T       0.00650200      -0.00044000      -0.02016400
Cu       6.25351000      11.26357000      13.56996000  T      -0.00024500      -0.00079100      -0.02230300
Cu       8.76421000      11.26391000      13.57032000  T      -0.00046000      -0.00112100      -0.02571000
Cu      11.28140000      11.26390000      13.57728000  T      -0.00887800      -0.00078200      -0.02671400
Cu       0.00002000       0.00208000      15.38273000  T      -0.00294700       0.00328000      -0.02454200
Cu       2.51328000       0.00742000      15.38520000  T      -0.00028400      -0.00007100      -0.02451800
Cu       5.01339000      12.48647000      15.37284000  T      -0.00251100       0.00283600      -0.01763100
Cu       7.51022000      12.48824000      15.34804000  T      -0.00115000       0.00330400      -0.02009600
Cu      10.01686000      12.48431000      15.35488000  T       0.00063500      -0.00285300      -0.02530200
Cu       0.02652000       2.48987000      15.36031000  T       0.00300600       0.00278100      -0.02024600
Cu       2.48349000       2.50704000      15.37253000  T       0.00503800      -0.00279500      -0.01765100
Cu       4.94521000       2.42026000      15.49853000  T       0.00904700       0.01450800       0.00261000
Cu       7.42845000       2.47096000      15.43071000  T      -0.00350000       0.03451700       0.01072300
Cu      10.07949000       2.41536000      15.39408000  T      -0.00330000       0.00774000      -0.01401800
Cu      12.52275000       5.00594000      15.40367000  T       0.03900200       0.00024100      -0.03099800
Cu       2.43339000       5.00669000      15.37034000  T       0.04293300      -0.00027900      -0.01893900
Pd       4.96423000       5.00542000      15.53923000  T       0.02122300       0.00101500      -0.00132000
Y        7.58773000       5.00528000      17.28619000  T      -0.00040800      -0.00081500      -0.04162000
Cu      10.06938000       5.01184000      15.49799000  T       0.01595900       0.00003600       0.05000200
Cu       0.02753000       7.52201000      15.36058000  T       0.00147000      -0.00326400      -0.02064900
Cu       2.48473000       7.50538000      15.37215000  T       0.00530400       0.00289200      -0.01806700
Cu       4.94672000       7.59048000      15.49711000  T       0.01110300      -0.01522500       0.00288300
Cu       7.43175000       7.53933000      15.43251000  T      -0.00110700      -0.03895800       0.01311300
Cu      10.07991000       7.59809000      15.39862000  T      -0.00420200      -0.00787700      -0.01448000
Cu      -0.00019000      10.01019000      15.38241000  T      -0.00290900      -0.00162000      -0.02732700
Cu       2.51310000      10.00586000      15.38465000  T       0.00005100       0.00054900      -0.02536600
Cu       5.01335000      10.03903000      15.37254000  T      -0.00198500      -0.00259100      -0.01831300
Cu       7.51003000      10.03722000      15.34807000  T      -0.00064800      -0.00343400      -0.02088700
Cu      10.01664000      10.04444000      15.35538000  T       0.00056400       0.00132900      -0.02599200
O        6.06795000       3.44041000      16.68840000  T       0.00549200       0.00435200      -0.01233100
O        6.06834000       6.57069000      16.68729000  T       0.00683200      -0.00352300      -0.01405700
O        8.83688000       6.47831000      16.28763000  T       0.00003700      -0.00182500      -0.00360300
O        8.83281000       3.54131000      16.27035000  T      -0.00231400       0.00769500      -0.00885000
C        9.96125000       4.96237000      18.39288000  T      -0.00031200      -0.00216800       0.02399800
O       10.33786000       4.86729000      19.69661000  T      -0.00197300       0.00580500       0.02913600
O       10.92361000       4.98934000      17.57230000  T       0.01109200      -0.00659600       0.04366200
H       11.32956000       4.83256000      19.70334000  T      -0.00594800       0.00705700       0.06042400
108
Lattice="12.515153631 0.0 0.0 0.0 12.515153631 0.0 0.0 0.0 25.30973" Properties=species:S:1:pos:R:3:move_mask:L:1:forces:R:3 stress="0.007813901312421398 -5.249109174867821e-06 -0.000161355493922334 -5.249109174867821e-06 0.007666302104612511 -3.757388493781722e-06 -0.000161355493922334 -3.757388493781722e-06 0.0019634539408203556" free_energy=-444.15091355 energy=-444.1471491 pbc="T T T"
Cu       1.25152000       1.25152000      10.00000000  F      -0.00086100      -0.01802900      -0.07562100
Cu       3.75455000       1.25152000      10.00000000  F       0.01185200       0.00254500      -0.07352900
Cu       6.25758000       1.25152000      10.00000000  F      -0.01704200       0.01223200      -0.06187200
Cu       8.76061000       1.25152000      10.00000000  F       0.01116800       0.01259400      -0.05192900
Cu      11.26364000       1.25152000      10.00000000  F      -0.00466700       0.00464100      -0.07294000
Cu       1.25152000       3.75455000      10.00000000  F      -0.00293300       0.00663600      -0.06826200
Cu       3.75455000       3.75455000      10.00000000  F       0.01637000      -0.01493400      -0.05927000
Cu       6.25758000       3.75455000      10.00000000  F      -0.01926000      -0.01513100      -0.08081200
Cu       8.76061000       3.75455000      10.00000000  F       0.01910700      -0.01675000      -0.08982200
Cu      11.26364000       3.75455000      10.00000000  F      -0.01104000      -0.00302500      -0.05568500
Cu       1.25152000       6.25758000      10.00000000  F      -0.00380800      -0.00525800      -0.07028000
Cu       3.75455000       6.25758000      10.00000000  F       0.01783100       0.01561300      -0.05980200
Cu       6.25758000       6.25758000      10.00000000  F      -0.01920100       0.01711100      -0.08355700
Cu       8.76061000       6.25758000      10.00000000  F       0.01776700       0.01735500      -0.08992000
Cu      11.26364000       6.25758000      10.00000000  F      -0.01047300       0.00446800      -0.05744300
Cu       1.25152000       8.76061000      10.00000000  F      -0.00079200       0.01458400      -0.07429900
Cu       3.75455000       8.76061000      10.00000000  F       0.01102300      -0.00493200      -0.07257000
Cu       6.25758000       8.76061000      10.00000000  F      -0.01719200      -0.01655400      -0.05955200
Cu       8.76061000       8.76061000      10.00000000  F       0.01204200      -0.01502000      -0.05094400
Cu      11.26364000       8.76061000      10.00000000  F      -0.00480000      -0.00827600      -0.07218500
Cu       1.25152000      11.26364000      10.00000000  F      -0.00913600       0.00178500      -0.01999000
Cu       3.75455000      11.26364000      10.00000000  F      -0.00488000       0.00145100      -0.07476200
Cu       6.25758000      11.26364000      10.00000000  F      -0.00680100       0.00208800      -0.07665500
Cu       8.76061000      11.26364000      10.00000000  F      -0.00104400       0.00140100      -0.06295400
Cu      11.26364000      11.26364000      10.00000000  F       0.01947600       0.00176900      -0.07517600
Cu       0.00000000       0.00000000      11.76991000  F       0.00176900       0.03998700       0.05221000
Cu       2.50303000       0.00000000      11.76991000  F       0.04387400       0.01466200       0.08170800
Cu       5.00606000       0.00000000      11.76991000  F       0.00443800       0.07051800       0.05925000
Cu       7.50909000       0.00000000      11.76991000  F      -0.01674400       0.05313600       0.04036300
Cu      10.01212000       0.00000000      11.76991000  F      -0.03402200       0.07213700       0.05896400
Cu       0.00000000       2.50303000      11.76991000  F      -0.05928100       0.04082000       0.07433400
Cu       2.50303000       2.50303000      11.76991000  F       0.05086300       0.04563300       0.08882600
Cu       5.00606000       2.50303000      11.76991000  F      -0.06062800      -0.05008400       0.04567200
Cu       7.50909000       2.50303000      11.76991000  F      -0.01998400       0.01343700       0.12349200
Cu      10.01212000       2.50303000      11.76991000  F       0.03128800      -0.01233700       0.09140300
Cu       0.00000000       5.00606000      11.76991000  F      -0.07874600       0.00202900       0.04328800
Cu       2.50303000       5.00606000      11.76991000  F       0.06645900       0.00132600       0.11587100
Cu       5.00606000       5.00606000      11.76991000  F      -0.09566200       0.00270500       0.09599300
Cu       7.50909000       5.00606000      11.76991000  F      -0.01610300       0.00182100       0.15348000
Cu      10.01212000       5.00606000      11.76991000  F       0.01924300       0.00031400       0.12114500
Cu       0.00000000       7.50909000      11.76991000  F      -0.05869100      -0.04314100       0.07546700
Cu       2.50303000       7.50909000      11.76991000  F       0.05060500      -0.04809100       0.08941000
Cu       5.00606000       7.50909000      11.76991000  F      -0.05687800       0.04493600       0.04883600
Cu       7.50909000       7.50909000      11.76991000  F      -0.02109700      -0.01627100       0.12565300
Cu      10.01212000       7.50909000      11.76991000  F       0.03390100       0.01420000       0.08776600
Cu       0.00000000      10.01212000      11.76991000  F       0.00157500      -0.03872200       0.05115100
Cu       2.50303000      10.01212000      11.76991000  F       0.04434300      -0.01382900       0.08244700
Cu       5.00606000      10.01212000      11.76991000  F       0.00612600      -0.07045400       0.05909000
Cu       7.50909000      10.01212000      11.76991000  F      -0.01564000      -0.05302700       0.04086400
Cu      10.01212000      10.01212000      11.76991000  F      -0.03541100      -0.07167600       0.05952500
Cu       1.25835000       1.24198000      13.57873000  T       0.00161900       0.00622700      -0.01403400
Cu       3.76492000       1.25993000      13.60711000  T       0.00730900       0.01061500      -0.00425000
Cu       6.24884000       1.26709000      13.60309000  T       0.00380300       0.00851100      -0.00317600
Cu       8.74056000       1.26890000      13.59722000  T      -0.00474700       0.00951400      -0.00620400
Cu      11.26136000       1.25348000      13.58736000  T      -0.00742900       0.00949500      -0.00685300
Cu       1.23800000       3.75623000      13.57993000  T       0.01070800       0.00170800      -0.01439200
Cu       3.75921000       3.74790000      13.61009000  T       0.01732300       0.00332600      -0.00583600
Cu       6.25085000       3.76449000      13.56478000  T       0.01002100       0.00097200       0.00433400
Cu       8.74583000       3.77246000      13.57671000  T       0.00382000       0.00621800       0.01297900
Cu      11.24334000       3.76761000      13.61032000  T      -0.00204500       0.00713500      -0.00546300
Cu       1.23820000       6.25584000      13.57996000  T       0.01081300      -0.00189200      -0.01446500
Cu       3.76001000       6.26427000      13.60979000  T       0.01722300      -0.00372600      -0.00582500
Cu       6.25222000       6.24626000      13.56580000  T       0.01084800      -0.00083700       0.00398600
Cu       8.74705000       6.24093000      13.57582000  T       0.00399500      -0.00602800       0.01258500
Cu      11.24386000       6.24603000      13.60976000  T      -0.00232100      -0.00662000      -0.00465600
Cu       1.25838000       8.76970000      13.57885000  T       0.00176800      -0.00692300      -0.01390300
Cu       3.76528000       8.75224000      13.60693000  T       0.00760000      -0.01045700      -0.00442300
Cu       6.24984000       8.74392000      13.60373000  T       0.00454000      -0.01057600      -0.00321500
Cu       8.74135000       8.74322000      13.59812000  T      -0.00512300      -0.01080100      -0.00708000
Cu      11.26096000       8.75859000      13.58805000  T      -0.00727500      -0.00968300      -0.00814400
Cu       1.25480000      11.26390000      13.60094000  T       0.00030300      -0.00029300      -0.01649700
Cu       3.74692000      11.26386000      13.58256000  T       0.00626700       0.00027200      -0.01247200
Cu       6.25318000      11.26359000      13.56639000  T       0.00230500      -0.00061300      -0.01052900
Cu       8.76400000      11.26386000      13.56630000  T      -0.00367700      -0.00069700      -0.01372000
Cu      11.28113000      11.26386000      13.57327000  T      -0.00854200       0.00007800      -0.01749800
Cu      -0.00050000       0.00287000      15.37579000  T      -0.00143900       0.00044900      -0.01376600
Cu       2.51309000       0.00767000      15.37853000  T      -0.00185100      -0.00188100      -0.01204100
Cu       5.01362000      12.48670000      15.36844000  T      -0.00477800       0.00554500      -0.01011900
Cu       7.51012000      12.48818000      15.34308000  T      -0.00168000       0.01087000      -0.01308200
Cu      10.01639000      12.48360000      15.34925000  T       0.00133500       0.00375100      -0.01724400
Cu       0.02743000       2.49094000      15.35542000  T      -0.00216700       0.00017600      -0.01411800
Cu       2.48377000       2.50708000      15.36846000  T       0.00630000      -0.00351400      -0.01208800
Cu       4.94636000       2.42152000      15.49721000  T      -0.00227500       0.00287500      -0.00137400
Cu       7.42695000       2.47419000      15.42874000  T      -0.00012000       0.01656300       0.00664100
Cu      10.08036000       2.41522000      15.38995000  T      -0.00655400       0.00897600      -0.00650900
Cu      12.52926000       5.00601000      15.39704000  T       0.02962700      -0.00011200      -0.02344400
Cu       2.43899000       5.00668000      15.36556000  T       0.03960900      -0.00001900      -0.01262600
Pd       4.97070000       5.00548000      15.53616000  T       0.02150200       0.00013000      -0.00907400
Y        7.59108000       5.00512000      17.28252000  T       0.00178000      -0.00071900      -0.00580700
Cu      10.07662000       5.01197000      15.50535000  T       0.01946400      -0.00061000       0.03331400
Cu       0.02827000       7.52091000      15.35571000  T      -0.00317000      -0.00060500      -0.01418700
Cu       2.48507000       7.50522000      15.36809000  T       0.00627500       0.00410800      -0.01186700
Cu       4.94812000       7.58919000      15.49591000  T      -0.00137100      -0.00257700      -0.00200100
Cu       7.43073000       7.53563000      15.43095000  T       0.00082200      -0.01857200       0.00608800
Cu      10.08060000       7.59813000      15.39435000  T      -0.00602900      -0.00870800      -0.00655400
Cu      -0.00069000      10.00965000      15.37509000  T      -0.00130400       0.00126800      -0.01423100
Cu       2.51295000      10.00573000      15.37789000  T      -0.00118800       0.00266700      -0.01131100
Cu       5.01365000      10.03881000      15.36812000  T      -0.00457000      -0.00485100      -0.01061900
Cu       7.50999000      10.03705000      15.34302000  T      -0.00108000      -0.01002100      -0.01336300
Cu      10.01619000      10.04490000      15.34966000  T       0.00147300      -0.00401600      -0.01813600
O        6.06545000       3.44083000      16.69054000  T       0.02346900       0.00582800      -0.02286800
O        6.06620000       6.57027000      16.68936000  T       0.02521000      -0.00751100      -0.02215600
O        8.83820000       6.48091000      16.28773000  T       0.01243600      -0.01963000      -0.00019800
O        8.83361000       3.53926000      16.26909000  T       0.01038200       0.02254000      -0.00777200
C        9.96282000       4.96184000      18.39842000  T      -0.00377800      -0.00309300       0.02851200
O       10.33642000       4.86829000      19.70331000  T      -0.01384800       0.00591900       0.03197500
O       10.92712000       4.98823000      17.58025000  T      -0.00088700      -0.00632200       0.02836400
H       11.32818000       4.83390000      19.71361000  T      -0.00900500       0.00777800       0.05403600
108
Lattice="12.515153631 0.0 0.0 0.0 12.515153631 0.0 0.0 0.0 25.30973" Properties=species:S:1:pos:R:3:move_mask:L:1:forces:R:3 stress="0.007772364069188646 -5.330248793504304e-06 -0.00013168960104701087 -5.330248793504304e-06 0.007629826725280849 -2.5652602507380192e-06 -0.00013168960104701087 -2.5652602507380192e-06 0.0019002461779025358" free_energy=-444.15300472 energy=-444.14923375 pbc="T T T"
Cu       1.25152000       1.25152000      10.00000000  F      -0.00095100      -0.01736600      -0.07466100
Cu       3.75455000       1.25152000      10.00000000  F       0.01123200       0.00310100      -0.07323100
Cu       6.25758000       1.25152000      10.00000000  F      -0.01737800       0.01259300      -0.06192400
Cu       8.76061000       1.25152000      10.00000000  F       0.01146100       0.01311900      -0.05166900
Cu      11.26364000       1.25152000      10.00000000  F      -0.00412100       0.00523200      -0.07219500
Cu       1.25152000       3.75455000      10.00000000  F      -0.00301700       0.00704400      -0.06695700
Cu       3.75455000       3.75455000      10.00000000  F       0.01556200      -0.01464000      -0.05851400
Cu       6.25758000       3.75455000      10.00000000  F      -0.01960700      -0.01473000      -0.08001900
Cu       8.76061000       3.75455000      10.00000000  F       0.01956000      -0.01629100      -0.08949500
Cu      11.26364000       3.75455000      10.00000000  F      -0.01054400      -0.00252500      -0.05464900
Cu       1.25152000       6.25758000      10.00000000  F      -0.00389900      -0.00548600      -0.06888100
Cu       3.75455000       6.25758000      10.00000000  F       0.01702600       0.01550700      -0.05888300
Cu       6.25758000       6.25758000      10.00000000  F      -0.01954800       0.01690200      -0.08260300
Cu       8.76061000       6.25758000      10.00000000  F       0.01820600       0.01706800      -0.08943600
Cu      11.26364000       6.25758000      10.00000000  F      -0.00996100       0.00413000      -0.05629000
Cu       1.25152000       8.76061000      10.00000000  F      -0.00088900       0.01386000      -0.07307300
Cu       3.75455000       8.76061000      10.00000000  F       0.01039400      -0.00557700      -0.07195300
Cu       6.25758000       8.76061000      10.00000000  F      -0.01752600      -0.01697900      -0.05935300
Cu       8.76061000       8.76061000      10.00000000  F       0.01231500      -0.01559300      -0.05049100
Cu      11.26364000       8.76061000      10.00000000  F      -0.00422800      -0.00891500      -0.07123800
Cu       1.25152000      11.26364000      10.00000000  F      -0.00939700       0.00164600      -0.01918600
Cu       3.75455000      11.26364000      10.00000000  F      -0.00539300       0.00129700      -0.07386400
Cu       6.25758000      11.26364000      10.00000000  F      -0.00710200       0.00192600      -0.07688600
Cu       8.76061000      11.26364000      10.00000000  F      -0.00088400       0.00123600      -0.06312300
Cu      11.26364000      11.26364000      10.00000000  F       0.02011700       0.00160900      -0.07469400
Cu       0.00000000       0.00000000      11.76991000  F       0.00201400       0.04181000       0.04104300
Cu       2.50303000       0.00000000      11.76991000  F       0.04552000       0.01617600       0.07169000
Cu       5.00606000       0.00000000      11.76991000  F       0.00374900       0.07270700       0.04961200
Cu       7.50909000       0.00000000      11.76991000  F      -0.01760800       0.05599700       0.03082800
Cu      10.01212000       0.00000000      11.76991000  F      -0.03484000       0.07510100       0.04818600
Cu       0.00000000       2.50303000      11.76991000  F      -0.06027300       0.04353000       0.06480600
Cu       2.50303000       2.50303000      11.76991000  F       0.05449600       0.04739700       0.07803100
Cu       5.00606000       2.50303000      11.76991000  F      -0.05979300      -0.04805100       0.03614900
Cu       7.50909000       2.50303000      11.76991000  F      -0.01794000       0.01798900       0.11779500
Cu      10.01212000       2.50303000      11.76991000  F       0.02996400      -0.00721900       0.08527100
Cu       0.00000000       5.00606000      11.76991000  F      -0.07946000       0.00221000       0.03464500
Cu       2.50303000       5.00606000      11.76991000  F       0.07120800       0.00155700       0.10637600
Cu       5.00606000       5.00606000      11.76991000  F      -0.09396000       0.00303800       0.08894100
Cu       7.50909000       5.00606000      11.76991000  F      -0.01104800       0.00189000       0.15149900
Cu      10.01212000       5.00606000      11.76991000  F       0.01728000       0.00039400       0.11692700
Cu       0.00000000       7.50909000      11.76991000  F      -0.05949900      -0.04592900       0.06568600
Cu       2.50303000       7.50909000      11.76991000  F       0.05432800      -0.04974800       0.07867600
Cu       5.00606000       7.50909000      11.76991000  F      -0.05602600       0.04296500       0.03943800
Cu       7.50909000       7.50909000      11.76991000  F      -0.01924200      -0.02093000       0.11950900
Cu      10.01212000       7.50909000      11.76991000  F       0.03264500       0.00897900       0.08112400
Cu       0.00000000      10.01212000      11.76991000  F       0.00197600      -0.04102900       0.03994000
Cu       2.50303000      10.01212000      11.76991000  F       0.04603500      -0.01587000       0.07260400
Cu       5.00606000      10.01212000      11.76991000  F       0.00551700      -0.07323500       0.04973700
Cu       7.50909000      10.01212000      11.76991000  F      -0.01668700      -0.05647200       0.03138700
Cu      10.01212000      10.01212000      11.76991000  F      -0.03625500      -0.07503800       0.04853200
Cu       1.25857000       1.24267000      13.57587000  T       0.00013800       0.00355600      -0.00626600
Cu       3.76547000       1.26078000      13.60519000  T       0.00525800       0.00807900      -0.00059200
Cu       6.24876000       1.26762000      13.60137000  T       0.00494900       0.01012600       0.00410000
Cu       8.74011000       1.26971000      13.59529000  T      -0.00452400       0.01124100       0.00105500
Cu      11.26095000       1.25412000      13.58481000  T      -0.00590500       0.00996800      -0.00037700
Cu       1.23949000       3.75624000      13.57688000  T       0.01129000       0.00235000      -0.00526900
Cu       3.76106000       3.74803000      13.60871000  T       0.01537700       0.00316100      -0.00508000
Cu       6.25177000       3.76432000      13.56362000  T       0.01235800       0.00287700       0.00268300
Cu       8.74673000       3.77320000      13.57766000  T       0.00311600       0.00717900       0.00965500
Cu      11.24342000       3.76831000      13.60886000  T       0.00035900       0.00796400       0.00133800
Cu       1.23967000       6.25580000      13.57692000  T       0.01162700      -0.00200400      -0.00553500
Cu       3.76188000       6.26419000      13.60842000  T       0.01515200      -0.00329300      -0.00492400
Cu       6.25323000       6.24640000      13.56470000  T       0.01311800      -0.00271000       0.00203100
Cu       8.74796000       6.24014000      13.57668000  T       0.00355300      -0.00656100       0.00954700
Cu      11.24391000       6.24532000      13.60830000  T      -0.00006700      -0.00743900       0.00233700
Cu       1.25862000       8.76887000      13.57602000  T       0.00021900      -0.00445800      -0.00604800
Cu       3.76586000       8.75142000      13.60507000  T       0.00555300      -0.00793400      -0.00094400
Cu       6.24982000       8.74315000      13.60207000  T       0.00557800      -0.01143900       0.00374300
Cu       8.74086000       8.74225000      13.59609000  T      -0.00466300      -0.01216000       0.00038500
Cu      11.26055000       8.75787000      13.58534000  T      -0.00558100      -0.00991700      -0.00103600
Cu       1.25500000      11.26385000      13.59749000  T      -0.00161000      -0.00017600      -0.00690500
Cu       3.74761000      11.26389000      13.58006000  T       0.00281900       0.00002700      -0.00671500
Cu       6.25316000      11.26357000      13.56389000  T       0.00173300      -0.00092300      -0.00159800
Cu       8.76364000      11.26379000      13.56335000  T      -0.00462000      -0.00089300      -0.00433500
Cu      11.28047000      11.26384000      13.57009000  T      -0.00356200       0.00005900      -0.00948000
Cu      -0.00087000       0.00330000      15.37126000  T       0.00016300      -0.00141500      -0.01127400
Cu       2.51287000       0.00768000      15.37426000  T      -0.00371500      -0.00267600      -0.00745400
Cu       5.01344000      12.48717000      15.36548000  T      -0.00562200       0.00328300      -0.00614100
Cu       7.50996000      12.48883000      15.33964000  T      -0.00117500       0.01014400      -0.00841200
Cu      10.01621000      12.48348000      15.34520000  T       0.00108700       0.00589200      -0.01250700
Cu       0.02776000       2.49150000      15.35197000  T      -0.00300200       0.00026300      -0.01150600
Cu       2.48430000       2.50689000      15.36557000  T       0.00247400      -0.00190000      -0.00910400
Cu       4.94680000       2.42232000      15.49641000  T      -0.00793700      -0.00407200      -0.00368800
Cu       7.42617000       2.47683000      15.42807000  T       0.00446200       0.00148400      -0.00016100
Cu      10.08042000       2.41567000      15.38738000  T      -0.00297700       0.00500900      -0.00361600
Cu      12.53455000       5.00604000      15.39208000  T       0.02756100       0.00034400      -0.02128800
Cu       2.44440000       5.00667000      15.36227000  T       0.03119600       0.00080700      -0.01131600
Pd       4.97540000       5.00550000      15.53395000  T       0.00045000       0.00035600      -0.00687400
Y        7.59297000       5.00500000      17.28035000  T      -0.00170800      -0.00016300       0.02165200
Cu      10.08176000       5.01200000      15.51126000  T       0.03574800      -0.00034200       0.01993300
Cu       0.02845000       7.52030000      15.35226000  T      -0.00348800      -0.00017700      -0.01202800
Cu       2.48563000       7.50539000      15.36521000  T       0.00241900       0.00306300      -0.00907100
Cu       4.94874000       7.58841000      15.49513000  T      -0.00685500       0.00414100      -0.00414500
Cu       7.43026000       7.53263000      15.43045000  T       0.00537700      -0.00355100      -0.00096500
Cu      10.08061000       7.59765000      15.39169000  T      -0.00322800      -0.00599600      -0.00373700
Cu      -0.00103000      10.00946000      15.37034000  T       0.00027400       0.00184300      -0.00995200
Cu       2.51279000      10.00584000      15.37362000  T      -0.00278600       0.00277400      -0.00675800
Cu       5.01353000      10.03840000      15.36512000  T      -0.00544400      -0.00316600      -0.00687700
Cu       7.50990000      10.03634000      15.33952000  T      -0.00083700      -0.01012400      -0.00840000
Cu      10.01604000      10.04489000      15.34551000  T       0.00152700      -0.00612900      -0.01369500
O        6.06562000       3.44138000      16.69031000  T       0.02831400       0.00199600      -0.01708500
O        6.06666000       6.56962000      16.68914000  T       0.02869900      -0.00288400      -0.01763000
O        8.83969000       6.48107000      16.28780000  T       0.02008000      -0.01952000       0.00256700
O        8.83470000       3.53955000      16.26797000  T       0.01723000       0.02307600      -0.00436300
C        9.96344000       4.96137000      18.40307000  T      -0.00467700      -0.00347200       0.02477300
O       10.33488000       4.86919000      19.70881000  T      -0.00990800       0.00634500       0.03453000
O       10.92884000       4.98724000      17.58628000  T      -0.00889300      -0.00651400       0.03143300
H       11.32677000       4.83510000      19.72240000  T      -0.02000300       0.00820900       0.04623100
108
Lattice="12.515153631 0.0 0.0 0.0 12.515153631 0.0 0.0 0.0 25.30973" Properties=species:S:1:pos:R:3:move_mask:L:1:forces:R:3 stress="0.007720029015168114 -5.729705377560831e-06 -0.00013089068787889782 -5.729705377560831e-06 0.007578184478773292 -4.930792209447774e-06 -0.00013089068787889782 -4.930792209447774e-06 0.0018359274263603086" free_energy=-444.15396502 energy=-444.15018539 pbc="T T T"
Cu       1.25152000       1.25152000      10.00000000  F      -0.00084000      -0.01790500      -0.07529000
Cu       3.75455000       1.25152000      10.00000000  F       0.01202400       0.00270700      -0.07340600
Cu       6.25758000       1.25152000      10.00000000  F      -0.01696400       0.01221000      -0.06161600
Cu       8.76061000       1.25152000      10.00000000  F       0.01120700       0.01264700      -0.05149000
Cu      11.26364000       1.25152000      10.00000000  F      -0.00471200       0.00473400      -0.07258200
Cu       1.25152000       3.75455000      10.00000000  F      -0.00281500       0.00672900      -0.06810700
Cu       3.75455000       3.75455000      10.00000000  F       0.01639300      -0.01500000      -0.05921300
Cu       6.25758000       3.75455000      10.00000000  F      -0.01922500      -0.01501600      -0.08023600
Cu       8.76061000       3.75455000      10.00000000  F       0.01919500      -0.01666800      -0.08981200
Cu      11.26364000       3.75455000      10.00000000  F      -0.01111400      -0.00290500      -0.05550700
Cu       1.25152000       6.25758000      10.00000000  F      -0.00371400      -0.00530400      -0.07012700
Cu       3.75455000       6.25758000      10.00000000  F       0.01786300       0.01573000      -0.05968800
Cu       6.25758000       6.25758000      10.00000000  F      -0.01917600       0.01703600      -0.08295400
Cu       8.76061000       6.25758000      10.00000000  F       0.01785400       0.01728800      -0.08986500
Cu      11.26364000       6.25758000      10.00000000  F      -0.01052700       0.00437700      -0.05722300
Cu       1.25152000       8.76061000      10.00000000  F      -0.00079300       0.01443800      -0.07386400
Cu       3.75455000       8.76061000      10.00000000  F       0.01118000      -0.00515900      -0.07233600
Cu       6.25758000       8.76061000      10.00000000  F      -0.01711500      -0.01656400      -0.05926700
Cu       8.76061000       8.76061000      10.00000000  F       0.01206900      -0.01508000      -0.05050000
Cu      11.26364000       8.76061000      10.00000000  F      -0.00481300      -0.00839300      -0.07179400
Cu       1.25152000      11.26364000      10.00000000  F      -0.00931000       0.00173100      -0.01970100
Cu       3.75455000      11.26364000      10.00000000  F      -0.00470200       0.00141000      -0.07393400
Cu       6.25758000      11.26364000      10.00000000  F      -0.00658700       0.00204000      -0.07626300
Cu       8.76061000      11.26364000      10.00000000  F      -0.00117200       0.00134200      -0.06274800
Cu      11.26364000      11.26364000      10.00000000  F       0.01959300       0.00170100      -0.07494300
Cu       0.00000000       0.00000000      11.76991000  F       0.00104600       0.04200300       0.04325600
Cu       2.50303000       0.00000000      11.76991000  F       0.04634500       0.01610400       0.07381100
Cu       5.00606000       0.00000000      11.76991000  F       0.00578800       0.07280200       0.05256400
Cu       7.50909000       0.00000000      11.76991000  F      -0.01769900       0.05608800       0.03340100
Cu      10.01212000       0.00000000      11.76991000  F      -0.03639400       0.07521300       0.05075600
Cu       0.00000000       2.50303000      11.76991000  F      -0.06067300       0.04293600       0.06713300
Cu       2.50303000       2.50303000      11.76991000  F       0.05561900       0.04641200       0.07970900
Cu       5.00606000       2.50303000      11.76991000  F      -0.05729900      -0.04863400       0.03827400
Cu       7.50909000       2.50303000      11.76991000  F      -0.01789600       0.01758300       0.11915900
Cu      10.01212000       2.50303000      11.76991000  F       0.02891200      -0.00764100       0.08690600
Cu       0.00000000       5.00606000      11.76991000  F      -0.07925000       0.00210500       0.03650300
Cu       2.50303000       5.00606000      11.76991000  F       0.07240300       0.00133800       0.10732000
Cu       5.00606000       5.00606000      11.76991000  F      -0.09097800       0.00279600       0.09018800
Cu       7.50909000       5.00606000      11.76991000  F      -0.01053700       0.00162900       0.15222100
Cu      10.01212000       5.00606000      11.76991000  F       0.01611600       0.00024700       0.11816200
Cu       0.00000000       7.50909000      11.76991000  F      -0.05995300      -0.04547700       0.06802900
Cu       2.50303000       7.50909000      11.76991000  F       0.05546800      -0.04887600       0.08025900
Cu       5.00606000       7.50909000      11.76991000  F      -0.05363600       0.04336500       0.04137500
Cu       7.50909000       7.50909000      11.76991000  F      -0.01910100      -0.02065800       0.12060200
Cu      10.01212000       7.50909000      11.76991000  F       0.03172700       0.00928100       0.08268900
Cu       0.00000000      10.01212000      11.76991000  F       0.00102400      -0.04089600       0.04215100
Cu       2.50303000      10.01212000      11.76991000  F       0.04682400      -0.01548100       0.07473000
Cu       5.00606000      10.01212000      11.76991000  F       0.00755600      -0.07300500       0.05256700
Cu       7.50909000      10.01212000      11.76991000  F      -0.01674900      -0.05623700       0.03370400
Cu      10.01212000      10.01212000      11.76991000  F      -0.03776100      -0.07482600       0.05104500
Cu       1.25856000       1.24273000      13.57610000  T       0.00020700       0.00172900      -0.00569100
Cu       3.76578000       1.26110000      13.60558000  T       0.00265600       0.00319000      -0.00311400
Cu       6.24911000       1.26814000      13.60201000  T       0.00133700       0.00461200      -0.00098300
Cu       8.73987000       1.27024000      13.59577000  T      -0.00191300       0.00596900      -0.00248800
Cu      11.26058000       1.25460000      13.58533000  T      -0.00330600       0.00466400      -0.00385800
Cu       1.23996000       3.75635000      13.57720000  T       0.00854800      -0.00012500      -0.00595500
Cu       3.76180000       3.74817000      13.60869000  T       0.01101200       0.00059800      -0.00458700
Cu       6.25243000       3.76453000      13.56412000  T       0.00865000       0.00077600      -0.00034500
Cu       8.74669000       3.77349000      13.57815000  T       0.00360600       0.00449400       0.00625100
Cu      11.24336000       3.76863000      13.60924000  T       0.00127400       0.00331400      -0.00172800
Cu       1.24016000       6.25569000      13.57722000  T       0.00855700       0.00014700      -0.00606600
Cu       3.76260000       6.26401000      13.60840000  T       0.01091600      -0.00069800      -0.00461300
Cu       6.25393000       6.24619000      13.56514000  T       0.00911400      -0.00119300      -0.00055100
Cu       8.74795000       6.23988000      13.57718000  T       0.00387400      -0.00443500       0.00589400
Cu      11.24384000       6.24502000      13.60875000  T       0.00117800      -0.00335900      -0.00142700
Cu       1.25861000       8.76880000      13.57625000  T       0.00029100      -0.00186300      -0.00553500
Cu       3.76618000       8.75111000      13.60542000  T       0.00287100      -0.00303100      -0.00324000
Cu       6.25020000       8.74260000      13.60267000  T       0.00176000      -0.00536800      -0.00100300
Cu       8.74062000       8.74169000      13.59654000  T      -0.00185900      -0.00645800      -0.00281900
Cu      11.26020000       8.75742000      13.58586000  T      -0.00316000      -0.00452100      -0.00411600
Cu       1.25488000      11.26385000      13.59779000  T      -0.00006900      -0.00029000      -0.00709200
Cu       3.74774000      11.26390000      13.58018000  T       0.00176200       0.00017500      -0.00549800
Cu       6.25333000      11.26353000      13.56436000  T       0.00031200      -0.00032400      -0.00267000
Cu       8.76335000      11.26376000      13.56374000  T      -0.00251600      -0.00030500      -0.00451900
Cu      11.28028000      11.26386000      13.57016000  T      -0.00308900       0.00013100      -0.00749600
Cu      -0.00081000       0.00311000      15.37148000  T      -0.00089900      -0.00014700      -0.01051400
Cu       2.51273000       0.00750000      15.37467000  T      -0.00177200      -0.00103500      -0.00814900
Cu       5.01316000      12.48730000      15.36565000  T      -0.00283800       0.00056100      -0.00582400
Cu       7.50988000      12.48937000      15.33975000  T      -0.00104900       0.00344300      -0.00672900
Cu      10.01625000      12.48389000      15.34518000  T      -0.00038100       0.00176300      -0.01061800
Cu       0.02746000       2.49138000      15.35197000  T      -0.00093900       0.00075200      -0.00871700
Cu       2.48445000       2.50679000      15.36560000  T       0.00105600      -0.00093900      -0.00708200
Cu       4.94636000       2.42199000      15.49643000  T       0.00015900       0.00152000       0.00040000
Cu       7.42672000       2.47655000      15.42839000  T       0.00548800       0.00659400       0.00333500
Cu      10.08007000       2.41597000      15.38776000  T      -0.00152300       0.00288000      -0.00258900
Cu      12.53533000       5.00605000      15.39176000  T       0.02561200       0.00012700      -0.01590600
Cu       2.44554000       5.00672000      15.36225000  T       0.02510600       0.00055000      -0.00860700
Pd       4.97577000       5.00550000      15.53371000  T       0.01492300       0.00007600      -0.00475400
Y        7.59322000       5.00498000      17.28174000  T       0.00907200      -0.00031200      -0.00282700
Cu      10.08296000       5.01196000      15.51154000  T       0.02756600      -0.00036000       0.02085000
Cu       0.02815000       7.52043000      15.35223000  T      -0.00132200      -0.00076400      -0.00888400
Cu       2.48576000       7.50558000      15.36525000  T       0.00118500       0.00169600      -0.00699500
Cu       4.94831000       7.58875000      15.49511000  T       0.00076800      -0.00146200       0.00010800
Cu       7.43081000       7.53285000      15.43068000  T       0.00626700      -0.00799600       0.00296900
Cu      10.08027000       7.59730000      15.39209000  T      -0.00150800      -0.00332800      -0.00262400
Cu      -0.00097000      10.00964000      15.37069000  T      -0.00062500       0.00071500      -0.01000700
Cu       2.51270000      10.00602000      15.37408000  T      -0.00118900       0.00138100      -0.00781300
Cu       5.01324000      10.03828000      15.36526000  T      -0.00259600      -0.00044900      -0.00621500
Cu       7.50984000      10.03583000      15.33965000  T      -0.00072500      -0.00346800      -0.00657500
Cu      10.01610000      10.04451000      15.34543000  T      -0.00006200      -0.00203300      -0.01134200
O        6.06754000       3.44134000      16.68873000  T       0.02149100      -0.00066700      -0.01727900
O        6.06853000       6.56959000      16.68755000  T       0.02171600      -0.00061700      -0.01722700
O        8.84049000       6.47975000      16.28783000  T       0.01052800      -0.01375200       0.00177800
O        8.83543000       3.54093000      16.26782000  T       0.00896800       0.01578400      -0.00429100
C        9.96284000       4.96122000      18.40399000  T      -0.00258200      -0.00269300       0.01704700
O       10.33425000       4.86941000      19.70968000  T      -0.01895600       0.00575100       0.02934000
O       10.92776000       4.98705000      17.58660000  T      -0.00851300      -0.00569800       0.03130100
H       11.32587000       4.83550000      19.72416000  T      -0.00914100       0.00799700       0.04364200
108
Lattice="12.515153631 0.0 0.0 0.0 12.515153631 0.0 0.0 0.0 25.30973" Properties=species:S:1:pos:R:3:move_mask:L:1:forces:R:3 stress="0.007754294900269213 -5.8982261239596796e-06 -0.00012062964687594573 -5.8982261239596796e-06 0.007617381156083838 -4.050739422698235e-06 -0.00012062964687594573 -4.050739422698235e-06 0.0018797677864605125" free_energy=-444.15501811 energy=-444.15122505 pbc="T T T"
Cu       1.25152000       1.25152000      10.00000000  F      -0.00050100      -0.01795600      -0.07552300
Cu       3.75455000       1.25152000      10.00000000  F       0.01206800       0.00264900      -0.07330600
Cu       6.25758000       1.25152000      10.00000000  F      -0.01728500       0.01210100      -0.06146300
Cu       8.76061000       1.25152000      10.00000000  F       0.01091700       0.01260600      -0.05168300
Cu      11.26364000       1.25152000      10.00000000  F      -0.00460800       0.00471100      -0.07299900
Cu       1.25152000       3.75455000      10.00000000  F      -0.00247300       0.00656500      -0.06817000
Cu       3.75455000       3.75455000      10.00000000  F       0.01638800      -0.01521600      -0.05910700
Cu       6.25758000       3.75455000      10.00000000  F      -0.01952600      -0.01518800      -0.08009000
Cu       8.76061000       3.75455000      10.00000000  F       0.01892600      -0.01682400      -0.09012800
Cu      11.26364000       3.75455000      10.00000000  F      -0.01102600      -0.00306700      -0.05587400
Cu       1.25152000       6.25758000      10.00000000  F      -0.00338400      -0.00541600      -0.07032300
Cu       3.75455000       6.25758000      10.00000000  F       0.01787500       0.01568400      -0.05969700
Cu       6.25758000       6.25758000      10.00000000  F      -0.01946000       0.01697900      -0.08286500
Cu       8.76061000       6.25758000      10.00000000  F       0.01758200       0.01721900      -0.09022000
Cu      11.26364000       6.25758000      10.00000000  F      -0.01045500       0.00429800      -0.05767800
Cu       1.25152000       8.76061000      10.00000000  F      -0.00047000       0.01455600      -0.07429000
Cu       3.75455000       8.76061000      10.00000000  F       0.01125600      -0.00503900      -0.07241300
Cu       6.25758000       8.76061000      10.00000000  F      -0.01741600      -0.01640300      -0.05927700
Cu       8.76061000       8.76061000      10.00000000  F       0.01177800      -0.01498000      -0.05080600
Cu      11.26364000       8.76061000      10.00000000  F      -0.00474200      -0.00830800      -0.07238000
Cu       1.25152000      11.26364000      10.00000000  F      -0.00900000       0.00186900      -0.02008900
Cu       3.75455000      11.26364000      10.00000000  F      -0.00464200       0.00154400      -0.07387300
Cu       6.25758000      11.26364000      10.00000000  F      -0.00687700       0.00214900      -0.07620300
Cu       8.76061000      11.26364000      10.00000000  F      -0.00153400       0.00144200      -0.06307500
Cu      11.26364000      11.26364000      10.00000000  F       0.01971100       0.00181000      -0.07559400
Cu       0.00000000       0.00000000      11.76991000  F       0.00129800       0.04265200       0.04146700
Cu       2.50303000       0.00000000      11.76991000  F       0.04721300       0.01657100       0.07209300
Cu       5.00606000       0.00000000      11.76991000  F       0.00603300       0.07332400       0.05110900
Cu       7.50909000       0.00000000      11.76991000  F      -0.01846400       0.05677900       0.03194900
Cu      10.01212000       0.00000000      11.76991000  F      -0.03718500       0.07603600       0.04909400
Cu       0.00000000       2.50303000      11.76991000  F      -0.06044900       0.04356600       0.06579900
Cu       2.50303000       2.50303000      11.76991000  F       0.05695400       0.04648400       0.07767300
Cu       5.00606000       2.50303000      11.76991000  F      -0.05662800      -0.04845000       0.03645500
Cu       7.50909000       2.50303000      11.76991000  F      -0.01774800       0.01846500       0.11795300
Cu      10.01212000       2.50303000      11.76991000  F       0.02832800      -0.00641400       0.08599000
Cu       0.00000000       5.00606000      11.76991000  F      -0.07876700       0.00195300       0.03545000
Cu       2.50303000       5.00606000      11.76991000  F       0.07400200       0.00116100       0.10536900
Cu       5.00606000       5.00606000      11.76991000  F      -0.08986600       0.00269100       0.08866500
Cu       7.50909000       5.00606000      11.76991000  F      -0.00938400       0.00149800       0.15156600
Cu      10.01212000       5.00606000      11.76991000  F       0.01549100       0.00011900       0.11767800
Cu       0.00000000       7.50909000      11.76991000  F      -0.05976900      -0.04624500       0.06675300
Cu       2.50303000       7.50909000      11.76991000  F       0.05686100      -0.04905900       0.07831100
Cu       5.00606000       7.50909000      11.76991000  F      -0.05289300       0.04302900       0.03968800
Cu       7.50909000       7.50909000      11.76991000  F      -0.01895200      -0.02166500       0.11937600
Cu      10.01212000       7.50909000      11.76991000  F       0.03114100       0.00792000       0.08177000
Cu       0.00000000      10.01212000      11.76991000  F       0.00128800      -0.04134200       0.04039900
Cu       2.50303000      10.01212000      11.76991000  F       0.04771300      -0.01573400       0.07309000
Cu       5.00606000      10.01212000      11.76991000  F       0.00785200      -0.07340000       0.05118500
Cu       7.50909000      10.01212000      11.76991000  F      -0.01752400      -0.05687900       0.03229900
Cu      10.01212000      10.01212000      11.76991000  F      -0.03858200      -0.07550000       0.04938600
Cu       1.25859000       1.24285000      13.57560000  T       0.00035100       0.00114400      -0.00436300
Cu       3.76598000       1.26133000      13.60529000  T       0.00227300       0.00233100      -0.00270000
Cu       6.24921000       1.26843000      13.60186000  T       0.00093800       0.00449000      -0.00003400
Cu       8.73974000       1.27062000      13.59553000  T      -0.00213500       0.00591100      -0.00165300
Cu      11.26039000       1.25490000      13.58498000  T      -0.00291200       0.00448600      -0.00302700
Cu       1.24051000       3.75636000      13.57669000  T       0.00899500      -0.00024300      -0.00457400
Cu       3.76250000       3.74821000      13.60834000  T       0.01069100       0.00003300      -0.00474900
Cu       6.25297000       3.76457000      13.56401000  T       0.00841000       0.00116800      -0.00069700
Cu       8.74693000       3.77377000      13.57853000  T       0.00349400       0.00448400       0.00515500
Cu      11.24344000       3.76886000      13.60908000  T       0.00209500       0.00307500      -0.00074300
Cu       1.24071000       6.25568000      13.57671000  T       0.00895900       0.00021200      -0.00466400
Cu       3.76330000       6.26396000      13.60805000  T       0.01055200      -0.00018600      -0.00464600
Cu       6.25450000       6.24613000      13.56503000  T       0.00890600      -0.00170400      -0.00083600
Cu       8.74821000       6.23959000      13.57754000  T       0.00385300      -0.00442000       0.00489000
Cu      11.24390000       6.24478000      13.60861000  T       0.00190300      -0.00325800      -0.00039400
Cu       1.25865000       8.76865000      13.57577000  T       0.00042900      -0.00122300      -0.00410600
Cu       3.76639000       8.75090000      13.60513000  T       0.00256500      -0.00212300      -0.00272000
Cu       6.25033000       8.74226000      13.60253000  T       0.00134900      -0.00504900       0.00008900
Cu       8.74049000       8.74128000      13.59628000  T      -0.00201800      -0.00630200      -0.00171300
Cu      11.26001000       8.75712000      13.58548000  T      -0.00279200      -0.00418400      -0.00305900
Cu       1.25488000      11.26384000      13.59720000  T       0.00008200      -0.00011900      -0.00549400
Cu       3.74788000      11.26391000      13.57971000  T       0.00122300       0.00024500      -0.00448900
Cu       6.25337000      11.26351000      13.56406000  T      -0.00030700      -0.00032000      -0.00123500
Cu       8.76319000      11.26374000      13.56330000  T      -0.00316200      -0.00025300      -0.00294400
Cu      11.28010000      11.26387000      13.56955000  T      -0.00219400       0.00019600      -0.00590400
Cu      -0.00085000       0.00311000      15.37059000  T      -0.00057500      -0.00034400      -0.00932400
Cu       2.51262000       0.00743000      15.37393000  T      -0.00187900      -0.00098000      -0.00683700
Cu       5.01299000      12.48737000      15.36511000  T      -0.00311700       0.00008000      -0.00527100
Cu       7.50983000      12.48965000      15.33911000  T      -0.00138300       0.00294900      -0.00549600
Cu      10.01625000      12.48401000      15.34432000  T      -0.00064900       0.00200400      -0.00905200
Cu       0.02742000       2.49144000      15.35124000  T      -0.00113400       0.00083100      -0.00771200
Cu       2.48455000       2.50670000      15.36499000  T       0.00060500      -0.00059000      -0.00663600
Cu       4.94632000       2.42204000      15.49630000  T       0.00016100       0.00068300      -0.00012100
Cu       7.42697000       2.47698000      15.42842000  T       0.00655400       0.00353300       0.00169300
Cu      10.07999000       2.41615000      15.38741000  T      -0.00005400       0.00155000      -0.00215500
Cu      12.53697000       5.00606000      15.39054000  T       0.02571000       0.00016100      -0.01534600
Cu       2.44719000       5.00675000      15.36153000  T       0.02268900       0.00053600      -0.00856700
Pd       4.97652000       5.00550000      15.53331000  T       0.01452100       0.00005900      -0.00379400
Y        7.59384000       5.00496000      17.28164000  T       0.00488300      -0.00041100       0.00372800
Cu      10.08479000       5.01194000      15.51291000  T       0.03097400      -0.00029900       0.01823400
Cu       0.02808000       7.52037000      15.35149000  T      -0.00147900      -0.00082100      -0.00787800
Cu       2.48588000       7.50570000      15.36465000  T       0.00077700       0.00141300      -0.00632100
Cu       4.94833000       7.58870000      15.49498000  T       0.00096200      -0.00078900      -0.00032700
Cu       7.43113000       7.53231000      15.43071000  T       0.00751400      -0.00534800       0.00148100
Cu      10.08018000       7.59708000      15.39174000  T      -0.00039600      -0.00238700      -0.00204300
Cu      -0.00100000      10.00968000      15.36983000  T      -0.00023800       0.00062200      -0.00826200
Cu       2.51262000      10.00612000      15.37337000  T      -0.00118300       0.00137900      -0.00634300
Cu       5.01309000      10.03821000      15.36470000  T      -0.00278000      -0.00011700      -0.00553000
Cu       7.50981000      10.03555000      15.33902000  T      -0.00106200      -0.00320900      -0.00532400
Cu      10.01612000      10.04437000      15.34453000  T      -0.00035300      -0.00235700      -0.00974300
O        6.06851000       3.44137000      16.68800000  T       0.01844700      -0.00101200      -0.01449100
O        6.06952000       6.56951000      16.68681000  T       0.01835400       0.00060800      -0.01498400
O        8.84119000       6.47930000      16.28782000  T       0.01109500      -0.01040600       0.00153900
O        8.83602000       3.54153000      16.26744000  T       0.00957700       0.01328500      -0.00436600
C        9.96263000       4.96105000      18.40539000  T      -0.00225900      -0.00290400       0.02251000
O       10.33351000       4.86976000      19.71148000  T      -0.01953700       0.00611400       0.02825000
O       10.92773000       4.98670000      17.58843000  T      -0.00528400      -0.00568800       0.03029500
H       11.32514000       4.83602000      19.72714000  T      -0.01207500       0.00811700       0.03936000
108
Lattice="12.515153631 0.0 0.0 0.0 12.515153631 0.0 0.0 0.0 25.30973" Properties=species:S:1:pos:R:3:move_mask:L:1:forces:R:3 stress="0.007647115705559545 -6.9280751297304165e-06 -8.729998814372912e-05 -6.9280751297304165e-06 0.007518646723221492 -4.394022424621814e-06 -8.729998814372912e-05 -4.394022424621814e-06 0.0017587823735643916" free_energy=-444.15631114 energy=-444.15250319 pbc="T T T"
Cu       1.25152000       1.25152000      10.00000000  F      -0.00066300      -0.01784600      -0.07571600
Cu       3.75455000       1.25152000      10.00000000  F       0.01234500       0.00286000      -0.07395600
Cu       6.25758000       1.25152000      10.00000000  F      -0.01707100       0.01218300      -0.06170900
Cu       8.76061000       1.25152000      10.00000000  F       0.01098600       0.01269000      -0.05145300
Cu      11.26364000       1.25152000      10.00000000  F      -0.00475400       0.00476400      -0.07286900
Cu       1.25152000       3.75455000      10.00000000  F      -0.00250200       0.00675500      -0.06822100
Cu       3.75455000       3.75455000      10.00000000  F       0.01654000      -0.01516300      -0.05961600
Cu       6.25758000       3.75455000      10.00000000  F      -0.01933600      -0.01503300      -0.08013700
Cu       8.76061000       3.75455000      10.00000000  F       0.01902500      -0.01666900      -0.09026000
Cu      11.26364000       3.75455000      10.00000000  F      -0.01121700      -0.00290300      -0.05570700
Cu       1.25152000       6.25758000      10.00000000  F      -0.00345100      -0.00545900      -0.07029600
Cu       3.75455000       6.25758000      10.00000000  F       0.01803100       0.01578800      -0.06009900
Cu       6.25758000       6.25758000      10.00000000  F      -0.01928400       0.01695800      -0.08278600
Cu       8.76061000       6.25758000      10.00000000  F       0.01767700       0.01719200      -0.09021600
Cu      11.26364000       6.25758000      10.00000000  F      -0.01061800       0.00427200      -0.05739100
Cu       1.25152000       8.76061000      10.00000000  F      -0.00065200       0.01441100      -0.07430900
Cu       3.75455000       8.76061000      10.00000000  F       0.01151200      -0.00531700      -0.07285800
Cu       6.25758000       8.76061000      10.00000000  F      -0.01720200      -0.01652600      -0.05934400
Cu       8.76061000       8.76061000      10.00000000  F       0.01184100      -0.01507500      -0.05043700
Cu      11.26364000       8.76061000      10.00000000  F      -0.00485700      -0.00839600      -0.07209200
Cu       1.25152000      11.26364000      10.00000000  F      -0.00929000       0.00176600      -0.02036100
Cu       3.75455000      11.26364000      10.00000000  F      -0.00441700       0.00144400      -0.07391400
Cu       6.25758000      11.26364000      10.00000000  F      -0.00652000       0.00205600      -0.07627300
Cu       8.76061000      11.26364000      10.00000000  F      -0.00158500       0.00131700      -0.06301200
Cu      11.26364000      11.26364000      10.00000000  F       0.01971500       0.00168700      -0.07559500
Cu       0.00000000       0.00000000      11.76991000  F       0.00026000       0.04414600       0.03589800
Cu       2.50303000       0.00000000      11.76991000  F       0.04845200       0.01763900       0.06695300
Cu       5.00606000       0.00000000      11.76991000  F       0.00799500       0.07474700       0.04751800
Cu       7.50909000       0.00000000      11.76991000  F      -0.01878400       0.05882000       0.02861500
Cu      10.01212000       0.00000000      11.76991000  F      -0.03935200       0.07809900       0.04458700
Cu       0.00000000       2.50303000      11.76991000  F      -0.06128000       0.04537600       0.06176400
Cu       2.50303000       2.50303000      11.76991000  F       0.06028200       0.04669800       0.07152400
Cu       5.00606000       2.50303000      11.76991000  F      -0.05304400      -0.04762600       0.03142500
Cu       7.50909000       2.50303000      11.76991000  F      -0.01522300       0.02128600       0.11483900
Cu      10.01212000       2.50303000      11.76991000  F       0.02693700      -0.00254200       0.08339200
Cu       0.00000000       5.00606000      11.76991000  F      -0.07826000       0.00211500       0.03218400
Cu       2.50303000       5.00606000      11.76991000  F       0.07838200       0.00124500       0.09933300
Cu       5.00606000       5.00606000      11.76991000  F      -0.08502200       0.00282100       0.08429800
Cu       7.50909000       5.00606000      11.76991000  F      -0.00344600       0.00137500       0.14974100
Cu      10.01212000       5.00606000      11.76991000  F       0.01420600       0.00013900       0.11610800
Cu       0.00000000       7.50909000      11.76991000  F      -0.06055000      -0.04806500       0.06270700
Cu       2.50303000       7.50909000      11.76991000  F       0.06022300      -0.04917800       0.07220900
Cu       5.00606000       7.50909000      11.76991000  F      -0.04938400       0.04210200       0.03471400
Cu       7.50909000       7.50909000      11.76991000  F      -0.01645600      -0.02457800       0.11577900
Cu      10.01212000       7.50909000      11.76991000  F       0.03010300       0.00403300       0.07882900
Cu       0.00000000      10.01212000      11.76991000  F       0.00035900      -0.04308300       0.03483500
Cu       2.50303000      10.01212000      11.76991000  F       0.04894600      -0.01707200       0.06809700
Cu       5.00606000      10.01212000      11.76991000  F       0.00984000      -0.07510000       0.04764400
Cu       7.50909000      10.01212000      11.76991000  F      -0.01790000      -0.05925000       0.02877700
Cu      10.01212000      10.01212000      11.76991000  F      -0.04064600      -0.07773800       0.04471000
Cu       1.25870000       1.24324000      13.57397000  T      -0.00092200      -0.00119200      -0.00064300
Cu       3.76662000       1.26204000      13.60430000  T      -0.00075900      -0.00199500      -0.00211900
Cu       6.24953000       1.26944000      13.60143000  T      -0.00077900       0.00110500       0.00059000
Cu       8.73927000       1.27195000      13.59475000  T      -0.00006500       0.00201800      -0.00087800
Cu      11.25974000       1.25592000      13.58376000  T      -0.00021000       0.00026700      -0.00294500
Cu       1.24253000       3.75634000      13.57500000  T       0.00692300      -0.00131400      -0.00227900
Cu       3.76501000       3.74829000      13.60706000  T       0.00641200      -0.00184900      -0.00283700
Cu       6.25488000       3.76473000      13.56355000  T       0.00562800       0.00092900      -0.00182600
Cu       8.74785000       3.77477000      13.57976000  T       0.00472900       0.00260500       0.00088700
Cu      11.24381000       3.76967000      13.60856000  T       0.00467800       0.00045300      -0.00037300
Cu       1.24272000       6.25567000      13.57499000  T       0.00668200       0.00192200      -0.00212500
Cu       3.76579000       6.26385000      13.60679000  T       0.00641800       0.00232500      -0.00292200
Cu       6.25654000       6.24587000      13.56455000  T       0.00582200      -0.00153200      -0.00188300
Cu       8.74919000       6.23859000      13.57872000  T       0.00513000      -0.00250700       0.00030800
Cu      11.24423000       6.24395000      13.60817000  T       0.00462700      -0.00046400      -0.00042100
Cu       1.25878000       8.76819000      13.57419000  T      -0.00088400       0.00126000      -0.00041400
Cu       3.76709000       8.75022000      13.60414000  T      -0.00066300       0.00209900      -0.00203100
Cu       6.25075000       8.74107000      13.60211000  T      -0.00054200      -0.00117600       0.00069600
Cu       8.74002000       8.73983000      13.59544000  T       0.00040100      -0.00201500      -0.00070000
Cu      11.25939000       8.75612000      13.58420000  T       0.00008000      -0.00002200      -0.00260100
Cu       1.25490000      11.26381000      13.59522000  T      -0.00014000      -0.00026800      -0.00160700
Cu       3.74834000      11.26396000      13.57813000  T      -0.00141800      -0.00005200      -0.00123300
Cu       6.25345000      11.26344000      13.56310000  T      -0.00133400      -0.00013500       0.00119200
Cu       8.76260000      11.26367000      13.56189000  T      -0.00176900      -0.00013700       0.00061700
Cu      11.27953000      11.26391000      13.56751000  T       0.00034600      -0.00010700      -0.00082900
Cu      -0.00101000       0.00312000      15.36749000  T      -0.00110900       0.00035400      -0.00577900
Cu       2.51219000       0.00718000      15.37140000  T      -0.00114600       0.00046000      -0.00354100
Cu       5.01237000      12.48759000      15.36323000  T      -0.00121300      -0.00165600      -0.00220800
Cu       7.50964000      12.49056000      15.33697000  T      -0.00110500      -0.00203000      -0.00089200
Cu      10.01619000      12.48443000      15.34133000  T      -0.00205400      -0.00050300      -0.00445200
Cu       0.02727000       2.49169000      15.34870000  T       0.00007700       0.00172900      -0.00350000
Cu       2.48488000       2.50645000      15.36288000  T      -0.00105600       0.00150200      -0.00284900
Cu       4.94626000       2.42216000      15.49583000  T       0.00451800       0.00119600       0.00070600
Cu       7.42802000       2.47829000      15.42843000  T       0.00821800      -0.00195400      -0.00205000
Cu      10.07989000       2.41665000      15.38620000  T       0.00423900      -0.00236000      -0.00030100
Cu      12.54297000       5.00609000      15.38624000  T       0.02215400       0.00010400      -0.00983600
Cu       2.45294000       5.00685000      15.35897000  T       0.01185800       0.00025300      -0.00555800
Pd       4.97935000       5.00550000      15.53201000  T       0.01574000      -0.00057600      -0.00333800
Y        7.59571000       5.00487000      17.28179000  T       0.00074200      -0.00032700       0.00698800
Cu      10.09179000       5.01190000      15.51779000  T       0.03167400       0.00052700       0.01466600
Cu       0.02782000       7.52011000      15.34892000  T       0.00016700      -0.00172700      -0.00391200
Cu       2.48623000       7.50610000      15.36259000  T      -0.00079200      -0.00087100      -0.00277400
Cu       4.94845000       7.58857000      15.49448000  T       0.00493200      -0.00142400       0.00064700
Cu       7.43243000       7.53058000      15.43072000  T       0.00914400       0.00075300      -0.00220100
Cu      10.08002000       7.59642000      15.39053000  T       0.00386600       0.00136300      -0.00047600
Cu      -0.00110000      10.00982000      15.36686000  T      -0.00060600      -0.00087100      -0.00484400
Cu       2.51233000      10.00647000      15.37093000  T      -0.00071200      -0.00022400      -0.00337900
Cu       5.01253000      10.03802000      15.36276000  T      -0.00096000       0.00126900      -0.00221700
Cu       7.50969000      10.03461000      15.33689000  T      -0.00093800       0.00120400      -0.00082700
Cu      10.01612000      10.04387000      15.34139000  T      -0.00189400      -0.00003000      -0.00460400
O        6.07186000       3.44138000      16.68548000  T       0.01078200      -0.00386600      -0.00526300
O        6.07298000       6.56934000      16.68422000  T       0.01052300       0.00363100      -0.00589900
O        8.84379000       6.47776000      16.28789000  T       0.01168300      -0.00536800       0.00379700
O        8.83823000       3.54366000      16.26611000  T       0.00936500       0.00825100      -0.00270600
C        9.96195000       4.96037000      18.41089000  T      -0.00127600      -0.00229600       0.02137500
O       10.33050000       4.87107000      19.71804000  T      -0.01773900       0.00644800       0.02947300
O       10.92774000       4.98542000      17.59509000  T      -0.00500600      -0.00578200       0.03470000
H       11.32223000       4.83795000      19.73760000  T      -0.02135900       0.00843900       0.02958000
108
Lattice="12.515153631 0.0 0.0 0.0 12.515153631 0.0 0.0 0.0 25.30973" Properties=species:S:1:pos:R:3:move_mask:L:1:forces:R:3 stress="0.007655385705151341 -7.127803421758681e-06 -8.576457689876186e-05 -7.127803421758681e-06 0.0075289015227153165 -5.28655822962312e-06 -8.576457689876186e-05 -5.28655822962312e-06 0.0017609481772310727" free_energy=-444.15609756 energy=-444.15228428 pbc="T T T"
Cu       1.25152000       1.25152000      10.00000000  F      -0.00088100      -0.01806200      -0.07591400
Cu       3.75455000       1.25152000      10.00000000  F       0.01218300       0.00263600      -0.07433200
Cu       6.25758000       1.25152000      10.00000000  F      -0.01675200       0.01199900      -0.06212700
Cu       8.76061000       1.25152000      10.00000000  F       0.01151500       0.01253600      -0.05169100
Cu      11.26364000       1.25152000      10.00000000  F      -0.00457900       0.00458100      -0.07298800
Cu       1.25152000       3.75455000      10.00000000  F      -0.00274500       0.00665200      -0.06851900
Cu       3.75455000       3.75455000      10.00000000  F       0.01640300      -0.01526900      -0.06009500
Cu       6.25758000       3.75455000      10.00000000  F      -0.01897100      -0.01509800      -0.08061100
Cu       8.76061000       3.75455000      10.00000000  F       0.01953200      -0.01672400      -0.09058700
Cu      11.26364000       3.75455000      10.00000000  F      -0.01107900      -0.00297700      -0.05591800
Cu       1.25152000       6.25758000      10.00000000  F      -0.00369200      -0.00529800      -0.07062000
Cu       3.75455000       6.25758000      10.00000000  F       0.01790500       0.01596100      -0.06058800
Cu       6.25758000       6.25758000      10.00000000  F      -0.01892100       0.01708300      -0.08325900
Cu       8.76061000       6.25758000      10.00000000  F       0.01818100       0.01730000      -0.09054900
Cu      11.26364000       6.25758000      10.00000000  F      -0.01048200       0.00440200      -0.05761600
Cu       1.25152000       8.76061000      10.00000000  F      -0.00086600       0.01459800      -0.07451700
Cu       3.75455000       8.76061000      10.00000000  F       0.01136100      -0.00513000      -0.07324900
Cu       6.25758000       8.76061000      10.00000000  F      -0.01688800      -0.01637800      -0.05978500
Cu       8.76061000       8.76061000      10.00000000  F       0.01236100      -0.01494700      -0.05068900
Cu      11.26364000       8.76061000      10.00000000  F      -0.00468400      -0.00824500      -0.07224100
Cu       1.25152000      11.26364000      10.00000000  F      -0.00949400       0.00173500      -0.02047600
Cu       3.75455000      11.26364000      10.00000000  F      -0.00458800       0.00141700      -0.07425800
Cu       6.25758000      11.26364000      10.00000000  F      -0.00622400       0.00202300      -0.07665700
Cu       8.76061000      11.26364000      10.00000000  F      -0.00106100       0.00128900      -0.06325800
Cu      11.26364000      11.26364000      10.00000000  F       0.01991200       0.00166000      -0.07567100
Cu       0.00000000       0.00000000      11.76991000  F       0.00023200       0.04402800       0.03543400
Cu       2.50303000       0.00000000      11.76991000  F       0.04824000       0.01749200       0.06639200
Cu       5.00606000       0.00000000      11.76991000  F       0.00811100       0.07461500       0.04702100
Cu       7.50909000       0.00000000      11.76991000  F      -0.01834400       0.05874400       0.02827600
Cu      10.01212000       0.00000000      11.76991000  F      -0.03902100       0.07799600       0.04421500
Cu       0.00000000       2.50303000      11.76991000  F      -0.06130200       0.04522100       0.06122400
Cu       2.50303000       2.50303000      11.76991000  F       0.06015300       0.04644200       0.07086900
Cu       5.00606000       2.50303000      11.76991000  F      -0.05282700      -0.04780200       0.03083900
Cu       7.50909000       2.50303000      11.76991000  F      -0.01471800       0.02116800       0.11434900
Cu      10.01212000       2.50303000      11.76991000  F       0.02729600      -0.00261900       0.08294600
Cu       0.00000000       5.00606000      11.76991000  F      -0.07822200       0.00212700       0.03160900
Cu       2.50303000       5.00606000      11.76991000  F       0.07828200       0.00126200       0.09863200
Cu       5.00606000       5.00606000      11.76991000  F      -0.08473800       0.00283600       0.08363500
Cu       7.50909000       5.00606000      11.76991000  F      -0.00283800       0.00136900       0.14919800
Cu      10.01212000       5.00606000      11.76991000  F       0.01456400       0.00013200       0.11563200
Cu       0.00000000       7.50909000      11.76991000  F      -0.06056900      -0.04790000       0.06218300
Cu       2.50303000       7.50909000      11.76991000  F       0.06011000      -0.04890700       0.07157200
Cu       5.00606000       7.50909000      11.76991000  F      -0.04916200       0.04229100       0.03413200
Cu       7.50909000       7.50909000      11.76991000  F      -0.01596400      -0.02444400       0.11529300
Cu      10.01212000       7.50909000      11.76991000  F       0.03046300       0.00412300       0.07837800
Cu       0.00000000      10.01212000      11.76991000  F       0.00033000      -0.04299100       0.03438300
Cu       2.50303000      10.01212000      11.76991000  F       0.04874800      -0.01696000       0.06755700
Cu       5.00606000      10.01212000      11.76991000  F       0.00997200      -0.07501400       0.04716200
Cu       7.50909000      10.01212000      11.76991000  F      -0.01746500      -0.05920900       0.02842800
Cu      10.01212000      10.01212000      11.76991000  F      -0.04032600      -0.07765500       0.04434000
Cu       1.25870000       1.24325000      13.57391000  T      -0.00122400      -0.00175900       0.00039600
Cu       3.76663000       1.26205000      13.60424000  T      -0.00136800      -0.00281600      -0.00143400
Cu       6.24954000       1.26947000      13.60141000  T      -0.00074700       0.00004000       0.00085700
Cu       8.73926000       1.27201000      13.59471000  T       0.00073900       0.00069700      -0.00031800
Cu      11.25973000       1.25596000      13.58369000  T       0.00039700      -0.00089500      -0.00216500
Cu       1.24263000       3.75633000      13.57492000  T       0.00513300      -0.00150200      -0.00137300
Cu       3.76513000       3.74828000      13.60699000  T       0.00439600      -0.00207800      -0.00192200
Cu       6.25498000       3.76474000      13.56351000  T       0.00463900       0.00075400      -0.00150700
Cu       8.74791000       3.77482000      13.57980000  T       0.00456000       0.00165900      -0.00010200
Cu      11.24386000       3.76970000      13.60853000  T       0.00451000      -0.00033500      -0.00023200
Cu       1.24283000       6.25569000      13.57491000  T       0.00490800       0.00210700      -0.00122000
Cu       3.76590000       6.26386000      13.60672000  T       0.00442300       0.00260900      -0.00204300
Cu       6.25664000       6.24586000      13.56451000  T       0.00474000      -0.00126100      -0.00152100
Cu       8.74926000       6.23854000      13.57875000  T       0.00490400      -0.00149500      -0.00064500
Cu      11.24428000       6.24392000      13.60815000  T       0.00448800       0.00035700      -0.00036100
Cu       1.25878000       8.76818000      13.57413000  T      -0.00118100       0.00189300       0.00054200
Cu       3.76711000       8.75022000      13.60408000  T      -0.00131300       0.00289600      -0.00134400
Cu       6.25076000       8.74103000      13.60209000  T      -0.00056400      -0.00000700       0.00094600
Cu       8.74001000       8.73977000      13.59540000  T       0.00115100      -0.00063900      -0.00009800
Cu      11.25938000       8.75609000      13.58413000  T       0.00064100       0.00109100      -0.00178300
Cu       1.25490000      11.26381000      13.59514000  T      -0.00039900      -0.00024000      -0.00021600
Cu       3.74835000      11.26397000      13.57807000  T      -0.00190900      -0.00009200      -0.00011400
Cu       6.25345000      11.26344000      13.56306000  T      -0.00114300      -0.00009300       0.00183100
Cu       8.76257000      11.26366000      13.56184000  T      -0.00087300      -0.00006700       0.00156500
Cu      11.27952000      11.26390000      13.56743000  T       0.00088400      -0.00011500       0.00057900
Cu      -0.00102000       0.00312000      15.36735000  T      -0.00120700       0.00015200      -0.00483200
Cu       2.51217000       0.00717000      15.37129000  T      -0.00118000       0.00037700      -0.00267000
Cu       5.01235000      12.48758000      15.36315000  T      -0.00077200      -0.00180800      -0.00146600
Cu       7.50963000      12.49057000      15.33689000  T      -0.00057100      -0.00251800      -0.00013200
Cu      10.01618000      12.48444000      15.34120000  T      -0.00178100      -0.00084400      -0.00342800
Cu       0.02727000       2.49171000      15.34859000  T      -0.00010600       0.00143400      -0.00240000
Cu       2.48488000       2.50645000      15.36278000  T      -0.00118800       0.00138100      -0.00190500
Cu       4.94629000       2.42217000      15.49581000  T       0.00475800       0.00077800       0.00059900
Cu       7.42810000       2.47832000      15.42840000  T       0.00869100      -0.00271200      -0.00216600
Cu      10.07991000       2.41665000      15.38615000  T       0.00460600      -0.00290300       0.00032500
Cu      12.54329000       5.00609000      15.38604000  T       0.01812000       0.00010900      -0.00767000
Cu       2.45318000       5.00685000      15.35885000  T       0.00770000       0.00025400      -0.00433100
Pd       4.97941000       5.00550000      15.53201000  T       0.02780300      -0.00070900      -0.00834000
Y        7.59575000       5.00486000      17.28181000  T       0.00978200      -0.00062100       0.00834500
Cu      10.09220000       5.01190000      15.51801000  T       0.02682400       0.00057900       0.01155700
Cu       0.02782000       7.52010000      15.34881000  T       0.00004100      -0.00143200      -0.00276000
Cu       2.48624000       7.50611000      15.36249000  T      -0.00092100      -0.00079700      -0.00182000
Cu       4.94849000       7.58856000      15.49446000  T       0.00491700      -0.00089700       0.00048200
Cu       7.43253000       7.53053000      15.43069000  T       0.00952100       0.00189800      -0.00237200
Cu      10.08004000       7.59640000      15.39048000  T       0.00439800       0.00210900       0.00023100
Cu      -0.00111000      10.00981000      15.36673000  T      -0.00071300      -0.00079700      -0.00388900
Cu       2.51232000      10.00647000      15.37083000  T      -0.00081300      -0.00026000      -0.00251900
Cu       5.01252000      10.03802000      15.36267000  T      -0.00055800       0.00133500      -0.00141100
Cu       7.50968000      10.03459000      15.33681000  T      -0.00043700       0.00166600      -0.00006300
Cu      10.01611000      10.04386000      15.34126000  T      -0.00164500       0.00030200      -0.00346200
O        6.07206000       3.44134000      16.68535000  T       0.00778500      -0.00337900      -0.00307900
O        6.07317000       6.56937000      16.68408000  T       0.00749300       0.00306000      -0.00350900
O        8.84398000       6.47766000      16.28789000  T       0.00790900      -0.00312400       0.00359700
O        8.83838000       3.54380000      16.26603000  T       0.00612100       0.00510800      -0.00190500
C        9.96196000       4.96034000      18.41116000  T      -0.00780200      -0.00227700       0.02687400
O       10.33031000       4.87116000      19.71841000  T      -0.01786300       0.00567800       0.02531600
O       10.92770000       4.98534000      17.59556000  T       0.00154400      -0.00458500       0.02327100
H       11.32199000       4.83807000      19.73817000  T      -0.01869800       0.00864300       0.02973200
108
Lattice="12.515153631 0.0 0.0 0.0 12.515153631 0.0 0.0 0.0 25.30973" Properties=species:S:1:pos:R:3:move_mask:L:1:forces:R:3 stress="0.007702284404723228 -7.45236189630461e-06 -8.107096203609764e-05 -7.45236189630461e-06 0.007577610259933709 -4.649924298783027e-06 -8.107096203609764e-05 -4.649924298783027e-06 0.0018153554122813977" free_energy=-444.15774641 energy=-444.15391402 pbc="T T T"
Cu       1.25152000       1.25152000      10.00000000  F      -0.00093800      -0.01803400      -0.07603200
Cu       3.75455000       1.25152000      10.00000000  F       0.01221000       0.00279300      -0.07440100
Cu       6.25758000       1.25152000      10.00000000  F      -0.01676600       0.01213400      -0.06193900
Cu       8.76061000       1.25152000      10.00000000  F       0.01139600       0.01255700      -0.05144200
Cu      11.26364000       1.25152000      10.00000000  F      -0.00477300       0.00458000      -0.07295100
Cu       1.25152000       3.75455000      10.00000000  F      -0.00270500       0.00672000      -0.06843200
Cu       3.75455000       3.75455000      10.00000000  F       0.01646100      -0.01522100      -0.05996700
Cu       6.25758000       3.75455000      10.00000000  F      -0.01902900      -0.01495200      -0.08026100
Cu       8.76061000       3.75455000      10.00000000  F       0.01932400      -0.01661600      -0.09051000
Cu      11.26364000       3.75455000      10.00000000  F      -0.01128600      -0.00286300      -0.05592600
Cu       1.25152000       6.25758000      10.00000000  F      -0.00366800      -0.00534100      -0.07050400
Cu       3.75455000       6.25758000      10.00000000  F       0.01796600       0.01594800      -0.06041100
Cu       6.25758000       6.25758000      10.00000000  F      -0.01898500       0.01698500      -0.08287200
Cu       8.76061000       6.25758000      10.00000000  F       0.01796800       0.01722400      -0.09041800
Cu      11.26364000       6.25758000      10.00000000  F      -0.01068000       0.00431800      -0.05757900
Cu       1.25152000       8.76061000      10.00000000  F      -0.00092600       0.01455800      -0.07458500
Cu       3.75455000       8.76061000      10.00000000  F       0.01139000      -0.00530600      -0.07323600
Cu       6.25758000       8.76061000      10.00000000  F      -0.01690300      -0.01652800      -0.05955000
Cu       8.76061000       8.76061000      10.00000000  F       0.01223900      -0.01496500      -0.05039200
Cu      11.26364000       8.76061000      10.00000000  F      -0.00487800      -0.00825100      -0.07216800
Cu       1.25152000      11.26364000      10.00000000  F      -0.00963800       0.00170900      -0.02054900
Cu       3.75455000      11.26364000      10.00000000  F      -0.00459500       0.00138500      -0.07425800
Cu       6.25758000      11.26364000      10.00000000  F      -0.00618600       0.00198800      -0.07649500
Cu       8.76061000      11.26364000      10.00000000  F      -0.00116400       0.00124100      -0.06312000
Cu      11.26364000      11.26364000      10.00000000  F       0.01975800       0.00162100      -0.07566300
Cu       0.00000000       0.00000000      11.76991000  F      -0.00004600       0.04433400       0.03298800
Cu       2.50303000       0.00000000      11.76991000  F       0.04858400       0.01780500       0.06412100
Cu       5.00606000       0.00000000      11.76991000  F       0.00879900       0.07503300       0.04548600
Cu       7.50909000       0.00000000      11.76991000  F      -0.01851400       0.05932200       0.02690000
Cu      10.01212000       0.00000000      11.76991000  F      -0.03983400       0.07843000       0.04227700
Cu       0.00000000       2.50303000      11.76991000  F      -0.06133500       0.04582900       0.05932900
Cu       2.50303000       2.50303000      11.76991000  F       0.06139000       0.04635200       0.06834000
Cu       5.00606000       2.50303000      11.76991000  F      -0.05155000      -0.04740300       0.02905500
Cu       7.50909000       2.50303000      11.76991000  F      -0.01404300       0.02211800       0.11308200
Cu      10.01212000       2.50303000      11.76991000  F       0.02683000      -0.00131800       0.08152700
Cu       0.00000000       5.00606000      11.76991000  F      -0.07768500       0.00218400       0.02994800
Cu       2.50303000       5.00606000      11.76991000  F       0.08016700       0.00131500       0.09646000
Cu       5.00606000       5.00606000      11.76991000  F      -0.08311900       0.00291000       0.08203200
Cu       7.50909000       5.00606000      11.76991000  F      -0.00099900       0.00134600       0.14817700
Cu      10.01212000       5.00606000      11.76991000  F       0.01432200       0.00012800       0.11440400
Cu       0.00000000       7.50909000      11.76991000  F      -0.06060700      -0.04848500       0.06027600
Cu       2.50303000       7.50909000      11.76991000  F       0.06137400      -0.04877700       0.06906400
Cu       5.00606000       7.50909000      11.76991000  F      -0.04786400       0.04186800       0.03239900
Cu       7.50909000       7.50909000      11.76991000  F      -0.01531700      -0.02538500       0.11391500
Cu      10.01212000       7.50909000      11.76991000  F       0.03012900       0.00287800       0.07683900
Cu       0.00000000      10.01212000      11.76991000  F       0.00008400      -0.04341800       0.03191500
Cu       2.50303000      10.01212000      11.76991000  F       0.04910400      -0.01738700       0.06531400
Cu       5.00606000      10.01212000      11.76991000  F       0.01068400      -0.07558000       0.04563000
Cu       7.50909000      10.01212000      11.76991000  F      -0.01763900      -0.05998400       0.02702800
Cu      10.01212000      10.01212000      11.76991000  F      -0.04111900      -0.07821300       0.04235100
Cu       1.25872000       1.24331000      13.57337000  T      -0.00121800      -0.00176300       0.00031300
Cu       3.76680000       1.26215000      13.60382000  T      -0.00139800      -0.00248500      -0.00079800
Cu       6.24966000       1.26972000      13.60119000  T      -0.00112900      -0.00005800       0.00123700
Cu       8.73922000       1.27238000      13.59437000  T       0.00037300      -0.00003800      -0.00035800
Cu      11.25962000       1.25621000      13.58319000  T       0.00030600      -0.00157800      -0.00232300
Cu       1.24336000       3.75628000      13.57432000  T       0.00519000      -0.00168800      -0.00185200
Cu       3.76596000       3.74823000      13.60647000  T       0.00407600      -0.00188700      -0.00047900
Cu       6.25568000       3.76480000      13.56323000  T       0.00278300       0.00120600      -0.00001100
Cu       8.74840000       3.77515000      13.58005000  T       0.00373400       0.00104700      -0.00071500
Cu      11.24415000       3.76993000      13.60829000  T       0.00452100      -0.00044900      -0.00056500
Cu       1.24354000       6.25575000      13.57431000  T       0.00507400       0.00236000      -0.00171600
Cu       3.76673000       6.26393000      13.60620000  T       0.00424200       0.00251500      -0.00050600
Cu       6.25739000       6.24577000      13.56422000  T       0.00286000      -0.00165700       0.00005900
Cu       8.74977000       6.23821000      13.57896000  T       0.00408000      -0.00081000      -0.00132400
Cu      11.24456000       6.24369000      13.60792000  T       0.00453600       0.00047800      -0.00075200
Cu       1.25882000       8.76810000      13.57361000  T      -0.00115300       0.00193600       0.00044800
Cu       3.76730000       8.75013000      13.60366000  T      -0.00136800       0.00255700      -0.00063400
Cu       6.25091000       8.74073000      13.60188000  T      -0.00097900       0.00009900       0.00136700
Cu       8.73998000       8.73936000      13.59504000  T       0.00081000       0.00013900      -0.00004000
Cu      11.25928000       8.75584000      13.58362000  T       0.00050500       0.00169700      -0.00207000
Cu       1.25494000      11.26378000      13.59449000  T      -0.00063700      -0.00017400      -0.00025600
Cu       3.74847000      11.26397000      13.57752000  T      -0.00208900      -0.00009500       0.00009700
Cu       6.25350000      11.26341000      13.56273000  T      -0.00160700      -0.00007000       0.00151300
Cu       8.76243000      11.26363000      13.56138000  T      -0.00103600      -0.00003900       0.00130500
Cu      11.27944000      11.26390000      13.56679000  T       0.00073700      -0.00015100       0.00046500
Cu      -0.00106000       0.00313000      15.36622000  T      -0.00145100       0.00043800      -0.00210900
Cu       2.51205000       0.00710000      15.37037000  T      -0.00066300       0.00085900      -0.00040900
Cu       5.01221000      12.48757000      15.36245000  T      -0.00042200      -0.00134600       0.00012600
Cu       7.50963000      12.49071000      15.33615000  T      -0.00100700      -0.00290400       0.00158000
Cu      10.01617000      12.48451000      15.34015000  T      -0.00231900      -0.00134100      -0.00101100
Cu       0.02728000       2.49182000      15.34767000  T       0.00053700       0.00153500      -0.00001600
Cu       2.48493000       2.50641000      15.36201000  T       0.00017700       0.00212900      -0.00022400
Cu       4.94646000       2.42220000      15.49560000  T       0.00513900       0.00081100      -0.00038300
Cu       7.42871000       2.47859000      15.42821000  T       0.00812400      -0.00317600      -0.00310700
Cu      10.08010000       2.41671000      15.38568000  T       0.00568300      -0.00421000       0.00074300
Cu      12.54555000       5.00610000      15.38446000  T       0.01553400       0.00004800      -0.00531300
Cu       2.45497000       5.00688000      15.35787000  T       0.00561100       0.00015700      -0.00279200
Pd       4.97991000       5.00548000      15.53186000  T       0.03204600      -0.00031300      -0.01036600
Y        7.59656000       5.00483000      17.28181000  T       0.01053700      -0.00049000       0.00868600
Cu      10.09505000       5.01191000      15.51961000  T       0.02434700       0.00070700       0.00997600
Cu       0.02780000       7.51998000      15.34787000  T       0.00064200      -0.00157900      -0.00031400
Cu       2.48630000       7.50619000      15.36173000  T       0.00043300      -0.00165900      -0.00015400
Cu       4.94872000       7.58852000      15.49423000  T       0.00530800      -0.00106900      -0.00050400
Cu       7.43324000       7.53012000      15.43050000  T       0.00943100       0.00200500      -0.00289900
Cu      10.08020000       7.59627000      15.38999000  T       0.00540700       0.00332100       0.00069200
Cu      -0.00112000      10.00981000      15.36566000  T      -0.00095600      -0.00114700      -0.00130100
Cu       2.51224000      10.00656000      15.36994000  T      -0.00036300      -0.00078400      -0.00044800
Cu       5.01240000      10.03803000      15.36195000  T      -0.00019600       0.00074800       0.00005700
Cu       7.50971000      10.03439000      15.33608000  T      -0.00093000       0.00188400       0.00171000
Cu      10.01613000      10.04373000      15.34016000  T      -0.00229100       0.00069400      -0.00091700
O        6.07349000       3.44115000      16.68434000  T       0.00949100      -0.00263000      -0.00593600
O        6.07462000       6.56950000      16.68303000  T       0.00945700       0.00237400      -0.00679700
O        8.84525000       6.47701000      16.28781000  T       0.01002600      -0.00504600       0.00385300
O        8.83946000       3.54473000      16.26530000  T       0.00745700       0.00864800      -0.00417000
C        9.96170000       4.96003000      18.41350000  T      -0.00301400      -0.00209500       0.02218900
O       10.32882000       4.87186000      19.72105000  T      -0.03066700       0.00696700       0.04020000
O       10.92794000       4.98469000      17.59843000  T      -0.00290100      -0.00675700       0.03776000
H       11.32043000       4.83902000      19.74305000  T      -0.01680800       0.00854600       0.02399400
108
Lattice="12.515153631 0.0 0.0 0.0 12.515153631 0.0 0.0 0.0 25.30973" Properties=species:S:1:pos:R:3:move_mask:L:1:forces:R:3 stress="0.007653145003375149 -7.583433587948158e-06 -7.630244906392282e-05 -7.583433587948158e-06 0.0075290138698795835 -5.661048777176115e-06 -7.630244906392282e-05 -5.661048777176115e-06 0.001748658645762209" free_energy=-444.15750585 energy=-444.15368354 pbc="T T T"
Cu       1.25152000       1.25152000      10.00000000  F      -0.00049000      -0.01803500      -0.07596000
Cu       3.75455000       1.25152000      10.00000000  F       0.01251400       0.00274800      -0.07426400
Cu       6.25758000       1.25152000      10.00000000  F      -0.01667800       0.01208700      -0.06195400
Cu       8.76061000       1.25152000      10.00000000  F       0.01153300       0.01260300      -0.05158900
Cu      11.26364000       1.25152000      10.00000000  F      -0.00441700       0.00460600      -0.07304800
Cu       1.25152000       3.75455000      10.00000000  F      -0.00230800       0.00667800      -0.06849300
Cu       3.75455000       3.75455000      10.00000000  F       0.01674300      -0.01526600      -0.05999700
Cu       6.25758000       3.75455000      10.00000000  F      -0.01890100      -0.01503500      -0.08034500
Cu       8.76061000       3.75455000      10.00000000  F       0.01951700      -0.01665800      -0.09063700
Cu      11.26364000       3.75455000      10.00000000  F      -0.01095900      -0.00291500      -0.05601900
Cu       1.25152000       6.25758000      10.00000000  F      -0.00326900      -0.00531300      -0.07057900
Cu       3.75455000       6.25758000      10.00000000  F       0.01824800       0.01597700      -0.06046800
Cu       6.25758000       6.25758000      10.00000000  F      -0.01885800       0.01702900      -0.08296600
Cu       8.76061000       6.25758000      10.00000000  F       0.01816400       0.01723500      -0.09055500
Cu      11.26364000       6.25758000      10.00000000  F      -0.01035000       0.00435100      -0.05768900
Cu       1.25152000       8.76061000      10.00000000  F      -0.00048400       0.01457300      -0.07453200
Cu       3.75455000       8.76061000      10.00000000  F       0.01168800      -0.00524900      -0.07314600
Cu       6.25758000       8.76061000      10.00000000  F      -0.01682100      -0.01646700      -0.05960600
Cu       8.76061000       8.76061000      10.00000000  F       0.01238100      -0.01499300      -0.05058500
Cu      11.26364000       8.76061000      10.00000000  F      -0.00451000      -0.00826500      -0.07231000
Cu       1.25152000      11.26364000      10.00000000  F      -0.00916300       0.00173100      -0.02052300
Cu       3.75455000      11.26364000      10.00000000  F      -0.00429900       0.00141500      -0.07407600
Cu       6.25758000      11.26364000      10.00000000  F      -0.00611500       0.00202300      -0.07649000
Cu       8.76061000      11.26364000      10.00000000  F      -0.00105200       0.00127600      -0.06326200
Cu      11.26364000      11.26364000      10.00000000  F       0.02012400       0.00164400      -0.07579100
Cu       0.00000000       0.00000000      11.76991000  F       0.00049800       0.04422100       0.03321900
Cu       2.50303000       0.00000000      11.76991000  F       0.04888900       0.01770200       0.06433100
Cu       5.00606000       0.00000000      11.76991000  F       0.00883300       0.07482300       0.04571100
Cu       7.50909000       0.00000000      11.76991000  F      -0.01851200       0.05925000       0.02732000
Cu      10.01212000       0.00000000      11.76991000  F      -0.03952900       0.07831500       0.04264200
Cu       0.00000000       2.50303000      11.76991000  F      -0.06087000       0.04563300       0.05956200
Cu       2.50303000       2.50303000      11.76991000  F       0.06160400       0.04614700       0.06861200
Cu       5.00606000       2.50303000      11.76991000  F      -0.05150900      -0.04769000       0.02931100
Cu       7.50909000       2.50303000      11.76991000  F      -0.01401100       0.02186600       0.11338500
Cu      10.01212000       2.50303000      11.76991000  F       0.02717900      -0.00151100       0.08182300
Cu       0.00000000       5.00606000      11.76991000  F      -0.07732500       0.00217300       0.03027500
Cu       2.50303000       5.00606000      11.76991000  F       0.08032700       0.00130500       0.09665000
Cu       5.00606000       5.00606000      11.76991000  F      -0.08311600       0.00287700       0.08222200
Cu       7.50909000       5.00606000      11.76991000  F      -0.00092500       0.00131600       0.14828700
Cu      10.01212000       5.00606000      11.76991000  F       0.01472100       0.00009600       0.11473000
Cu       0.00000000       7.50909000      11.76991000  F      -0.06014000      -0.04828100       0.06050700
Cu       2.50303000       7.50909000      11.76991000  F       0.06157300      -0.04856800       0.06932000
Cu       5.00606000       7.50909000      11.76991000  F      -0.04782300       0.04216000       0.03263000
Cu       7.50909000       7.50909000      11.76991000  F      -0.01527600      -0.02512700       0.11423700
Cu      10.01212000       7.50909000      11.76991000  F       0.03048300       0.00308000       0.07713600
Cu       0.00000000      10.01212000      11.76991000  F       0.00061700      -0.04326300       0.03214300
Cu       2.50303000      10.01212000      11.76991000  F       0.04940500      -0.01723400       0.06552000
Cu       5.00606000      10.01212000      11.76991000  F       0.01072200      -0.07530800       0.04585100
Cu       7.50909000      10.01212000      11.76991000  F      -0.01762700      -0.05983300       0.02743700
Cu      10.01212000      10.01212000      11.76991000  F      -0.04081200      -0.07804100       0.04272000
Cu       1.25870000       1.24328000      13.57344000  T      -0.00047700      -0.00133800       0.00027400
Cu       3.76676000       1.26210000      13.60386000  T      -0.00067100      -0.00201300      -0.00061000
Cu       6.24963000       1.26969000      13.60124000  T      -0.00054600      -0.00028100       0.00073600
Cu       8.73923000       1.27235000      13.59441000  T       0.00055600      -0.00012500      -0.00024900
Cu      11.25963000       1.25617000      13.58321000  T       0.00059100      -0.00125800      -0.00167000
Cu       1.24337000       3.75626000      13.57436000  T       0.00413400      -0.00130600      -0.00150000
Cu       3.76595000       3.74821000      13.60652000  T       0.00353700      -0.00140400      -0.00052100
Cu       6.25567000       3.76481000      13.56326000  T       0.00315000       0.00035500      -0.00066000
Cu       8.74841000       3.77514000      13.58003000  T       0.00335200       0.00080800      -0.00011700
Cu      11.24419000       3.76990000      13.60832000  T       0.00369600      -0.00043700      -0.00039800
Cu       1.24356000       6.25578000      13.57435000  T       0.00406400       0.00183200      -0.00142300
Cu       3.76672000       6.26396000      13.60625000  T       0.00364200       0.00189000      -0.00053800
Cu       6.25738000       6.24575000      13.56425000  T       0.00322800      -0.00069400      -0.00058000
Cu       8.74979000       6.23823000      13.57894000  T       0.00361500      -0.00058400      -0.00053900
Cu      11.24460000       6.24372000      13.60795000  T       0.00369200       0.00052500      -0.00054400
Cu       1.25879000       8.76813000      13.57368000  T      -0.00043000       0.00146500       0.00034900
Cu       3.76725000       8.75019000      13.60370000  T      -0.00065400       0.00205300      -0.00051000
Cu       6.25088000       8.74076000      13.60193000  T      -0.00039100       0.00022800       0.00085100
Cu       8.74000000       8.73940000      13.59509000  T       0.00086800       0.00017700      -0.00000800
Cu      11.25930000       8.75589000      13.58365000  T       0.00075000       0.00131300      -0.00146900
Cu       1.25493000      11.26378000      13.59456000  T       0.00001800      -0.00015100      -0.00011600
Cu       3.74842000      11.26397000      13.57759000  T      -0.00113700      -0.00008200       0.00003700
Cu       6.25346000      11.26341000      13.56280000  T      -0.00086400      -0.00007500       0.00102700
Cu       8.76243000      11.26364000      13.56146000  T      -0.00061000      -0.00004300       0.00085500
Cu      11.27946000      11.26390000      13.56687000  T       0.00071200      -0.00013700       0.00039900
Cu      -0.00108000       0.00314000      15.36628000  T      -0.00079700       0.00029900      -0.00219500
Cu       2.51204000       0.00712000      15.37045000  T      -0.00025300       0.00044800      -0.00084100
Cu       5.01221000      12.48755000      15.36252000  T      -0.00019200      -0.00093800      -0.00022300
Cu       7.50961000      12.49066000      15.33625000  T      -0.00054000      -0.00185400       0.00077300
Cu      10.01613000      12.48449000      15.34023000  T      -0.00144800      -0.00086100      -0.00121500
Cu       0.02728000       2.49184000      15.34775000  T       0.00066300       0.00115800      -0.00051700
Cu       2.48492000       2.50644000      15.36208000  T       0.00059800       0.00120100      -0.00054700
Cu       4.94652000       2.42221000      15.49563000  T       0.00413200       0.00033700      -0.00009400
Cu       7.42879000       2.47852000      15.42820000  T       0.00745300      -0.00172000      -0.00165800
Cu      10.08016000       2.41665000      15.38574000  T       0.00381500      -0.00233100       0.00091400
Cu      12.54560000       5.00610000      15.38452000  T       0.01341500       0.00004800      -0.00479300
Cu       2.45492000       5.00688000      15.35791000  T       0.00726800       0.00016400      -0.00259900
Pd       4.98034000       5.00547000      15.53174000  T       0.02276600      -0.00032200      -0.00809500
Y        7.59668000       5.00483000      17.28198000  T       0.01283300      -0.00052200       0.00807700
Cu      10.09519000       5.01192000      15.51965000  T       0.02199500       0.00058400       0.01098900
Cu       0.02781000       7.51996000      15.34795000  T       0.00071300      -0.00125300      -0.00074100
Cu       2.48630000       7.50616000      15.36180000  T       0.00079000      -0.00081100      -0.00049800
Cu       4.94878000       7.58851000      15.49426000  T       0.00427700      -0.00054500      -0.00020600
Cu       7.43333000       7.53018000      15.43048000  T       0.00836300       0.00062600      -0.00135700
Cu      10.08026000       7.59633000      15.39006000  T       0.00364100       0.00164300       0.00084900
Cu      -0.00113000      10.00980000      15.36573000  T      -0.00042200      -0.00080900      -0.00154700
Cu       2.51224000      10.00654000      15.37001000  T       0.00000500      -0.00036600      -0.00086600
Cu       5.01240000      10.03804000      15.36203000  T      -0.00002000       0.00050800      -0.00030300
Cu       7.50968000      10.03444000      15.33618000  T      -0.00046200       0.00109400       0.00086900
Cu      10.01609000      10.04375000      15.34025000  T      -0.00138000       0.00037500      -0.00118300
O        6.07345000       3.44113000      16.68440000  T       0.00577000      -0.00229200      -0.00028100
O        6.07458000       6.56952000      16.68308000  T       0.00575300       0.00202700      -0.00081400
O        8.84525000       6.47704000      16.28789000  T       0.00644800      -0.00027900       0.00323400
O        8.83944000       3.54471000      16.26534000  T       0.00482300       0.00232700      -0.00171700
C        9.96162000       4.96003000      18.41365000  T      -0.00636100      -0.00177700       0.02285900
O       10.32859000       4.87188000      19.72137000  T      -0.01602300       0.00455200       0.02645600
O       10.92787000       4.98467000      17.59866000  T      -0.00171700      -0.00417900       0.02637400
H       11.32027000       4.83906000      19.74290000  T      -0.01934400       0.00886200       0.02712400
108
Lattice="12.515153631 0.0 0.0 0.0 12.515153631 0.0 0.0 0.0 25.30973" Properties=species:S:1:pos:R:3:move_mask:L:1:forces:R:3 stress="0.007666639146105309 -7.5335015149410936e-06 -7.31442454462259e-05 -7.5335015149410936e-06 0.007545079514369606 -6.0292978156032275e-06 -7.31442454462259e-05 -6.0292978156032275e-06 0.0017682757089448598" free_energy=-444.1588505 energy=-444.15502958 pbc="T T T"
Cu       1.25152000       1.25152000      10.00000000  F      -0.00066600      -0.01798600      -0.07557900
Cu       3.75455000       1.25152000      10.00000000  F       0.01226600       0.00281800      -0.07393500
Cu       6.25758000       1.25152000      10.00000000  F      -0.01675700       0.01210300      -0.06169200
Cu       8.76061000       1.25152000      10.00000000  F       0.01153500       0.01261800      -0.05130800
Cu      11.26364000       1.25152000      10.00000000  F      -0.00445500       0.00462500      -0.07269700
Cu       1.25152000       3.75455000      10.00000000  F      -0.00245900       0.00667200      -0.06802800
Cu       3.75455000       3.75455000      10.00000000  F       0.01648600      -0.01525700      -0.05962100
Cu       6.25758000       3.75455000      10.00000000  F      -0.01902300      -0.01505700      -0.07997300
Cu       8.76061000       3.75455000      10.00000000  F       0.01954500      -0.01665100      -0.09042500
Cu      11.26364000       3.75455000      10.00000000  F      -0.01101900      -0.00287700      -0.05562500
Cu       1.25152000       6.25758000      10.00000000  F      -0.00343000      -0.00530700      -0.07011600
Cu       3.75455000       6.25758000      10.00000000  F       0.01799600       0.01597100      -0.06011800
Cu       6.25758000       6.25758000      10.00000000  F      -0.01898000       0.01705000      -0.08261600
Cu       8.76061000       6.25758000      10.00000000  F       0.01819500       0.01722900      -0.09035300
Cu      11.26364000       6.25758000      10.00000000  F      -0.01041300       0.00432200      -0.05729600
Cu       1.25152000       8.76061000      10.00000000  F      -0.00067100       0.01453500      -0.07417000
Cu       3.75455000       8.76061000      10.00000000  F       0.01143800      -0.00531300      -0.07286000
Cu       6.25758000       8.76061000      10.00000000  F      -0.01690100      -0.01647800      -0.05938300
Cu       8.76061000       8.76061000      10.00000000  F       0.01239000      -0.01499500      -0.05031900
Cu      11.26364000       8.76061000      10.00000000  F      -0.00454600      -0.00827600      -0.07198500
Cu       1.25152000      11.26364000      10.00000000  F      -0.00936400       0.00173900      -0.02020900
Cu       3.75455000      11.26364000      10.00000000  F      -0.00452700       0.00143100      -0.07378000
Cu       6.25758000      11.26364000      10.00000000  F      -0.00620000       0.00204200      -0.07628000
Cu       8.76061000      11.26364000      10.00000000  F      -0.00104000       0.00128300      -0.06301100
Cu      11.26364000      11.26364000      10.00000000  F       0.02004800       0.00164800      -0.07546300
Cu       0.00000000       0.00000000      11.76991000  F       0.00052800       0.04399100       0.03370400
Cu       2.50303000       0.00000000      11.76991000  F       0.04845100       0.01769100       0.06489300
Cu       5.00606000       0.00000000      11.76991000  F       0.00859500       0.07464400       0.04648500
Cu       7.50909000       0.00000000      11.76991000  F      -0.01866500       0.05914500       0.02836300
Cu      10.01212000       0.00000000      11.76991000  F      -0.03962800       0.07806200       0.04342400
Cu       0.00000000       2.50303000      11.76991000  F      -0.06068200       0.04550400       0.06017000
Cu       2.50303000       2.50303000      11.76991000  F       0.06151000       0.04584900       0.06925200
Cu       5.00606000       2.50303000      11.76991000  F      -0.05156000      -0.04791100       0.03013100
Cu       7.50909000       2.50303000      11.76991000  F      -0.01407300       0.02167500       0.11422800
Cu      10.01212000       2.50303000      11.76991000  F       0.02744600      -0.00153200       0.08252700
Cu       0.00000000       5.00606000      11.76991000  F      -0.07692500       0.00215700       0.03109500
Cu       2.50303000       5.00606000      11.76991000  F       0.08060300       0.00131500       0.09747500
Cu       5.00606000       5.00606000      11.76991000  F      -0.08331900       0.00285400       0.08285800
Cu       7.50909000       5.00606000      11.76991000  F      -0.00056000       0.00126500       0.14864300
Cu      10.01212000       5.00606000      11.76991000  F       0.01529100       0.00001700       0.11544600
Cu       0.00000000       7.50909000      11.76991000  F      -0.05995000      -0.04811400       0.06109500
Cu       2.50303000       7.50909000      11.76991000  F       0.06147700      -0.04824500       0.06994300
Cu       5.00606000       7.50909000      11.76991000  F      -0.04782500       0.04239000       0.03346900
Cu       7.50909000       7.50909000      11.76991000  F      -0.01536400      -0.02489400       0.11513600
Cu      10.01212000       7.50909000      11.76991000  F       0.03079900       0.00318200       0.07778700
Cu       0.00000000      10.01212000      11.76991000  F       0.00063800      -0.04298300       0.03259500
Cu       2.50303000      10.01212000      11.76991000  F       0.04898400      -0.01715900       0.06606500
Cu       5.00606000      10.01212000      11.76991000  F       0.01050800      -0.07508700       0.04663600
Cu       7.50909000      10.01212000      11.76991000  F      -0.01776100      -0.05968800       0.02851100
Cu      10.01212000      10.01212000      11.76991000  F      -0.04091700      -0.07774100       0.04350500
Cu       1.25865000       1.24316000      13.57357000  T      -0.00027900      -0.00017100      -0.00077200
Cu       3.76666000       1.26192000      13.60390000  T      -0.00013900      -0.00047200      -0.00046600
Cu       6.24955000       1.26964000      13.60136000  T       0.00008500       0.00058900       0.00059100
Cu       8.73927000       1.27229000      13.59447000  T       0.00020900       0.00086300      -0.00054800
Cu      11.25969000       1.25603000      13.58317000  T      -0.00016200       0.00019900      -0.00160600
Cu       1.24361000       3.75616000      13.57435000  T       0.00544800      -0.00101300      -0.00267100
Cu       3.76612000       3.74809000      13.60657000  T       0.00541900      -0.00078400      -0.00060800
Cu       6.25584000       3.76482000      13.56326000  T       0.00531000      -0.00106500      -0.00157400
Cu       8.74863000       3.77516000      13.58002000  T       0.00470400       0.00147300       0.00214300
Cu      11.24446000       3.76983000      13.60835000  T       0.00355400       0.00068000      -0.00002300
Cu       1.24379000       6.25592000      13.57434000  T       0.00546300       0.00136100      -0.00266300
Cu       3.76690000       6.26411000      13.60630000  T       0.00542800       0.00103500      -0.00060800
Cu       6.25754000       6.24571000      13.56426000  T       0.00560800       0.00068100      -0.00147200
Cu       8.75002000       6.23822000      13.57889000  T       0.00494600      -0.00130300       0.00165200
Cu      11.24487000       6.24379000      13.60796000  T       0.00354600      -0.00065500      -0.00015700
Cu       1.25874000       8.76827000      13.57381000  T      -0.00020200       0.00030800      -0.00066100
Cu       3.76715000       8.75037000      13.60375000  T      -0.00002500       0.00058200      -0.00050400
Cu       6.25081000       8.74082000      13.60207000  T       0.00042000      -0.00097500       0.00072200
Cu       8.74007000       8.73946000      13.59517000  T       0.00041700      -0.00099200      -0.00047900
Cu      11.25937000       8.75603000      13.58363000  T       0.00001400      -0.00018300      -0.00155500
Cu       1.25492000      11.26378000      13.59468000  T      -0.00009200      -0.00008600      -0.00121200
Cu       3.74829000      11.26396000      13.57770000  T      -0.00058400       0.00003500      -0.00084000
Cu       6.25337000      11.26341000      13.56297000  T      -0.00079800      -0.00013100      -0.00006500
Cu       8.76238000      11.26364000      13.56162000  T      -0.00103100      -0.00010000      -0.00079200
Cu      11.27952000      11.26389000      13.56703000  T      -0.00030100      -0.00010500      -0.00122200
Cu      -0.00115000       0.00317000      15.36626000  T      -0.00119500       0.00041300      -0.00347600
Cu       2.51202000       0.00717000      15.37051000  T      -0.00099900       0.00015000      -0.00197500
Cu       5.01219000      12.48747000      15.36262000  T      -0.00121800      -0.00022000      -0.00089100
Cu       7.50955000      12.49049000      15.33644000  T      -0.00085900      -0.00033600      -0.00033300
Cu      10.01600000      12.48441000      15.34029000  T      -0.00113500      -0.00034200      -0.00272800
Cu       0.02732000       2.49192000      15.34785000  T       0.00084800       0.00131600      -0.00219700
Cu       2.48496000       2.50655000      15.36215000  T       0.00116500       0.00038100      -0.00190200
Cu       4.94684000       2.42224000      15.49567000  T       0.00372000       0.00011800      -0.00022100
Cu       7.42933000       2.47834000      15.42811000  T       0.00635600       0.00012600      -0.00052600
Cu      10.08044000       2.41646000      15.38591000  T       0.00313100      -0.00050400       0.00060200
Cu      12.54641000       5.00610000      15.38435000  T       0.01702800       0.00000800      -0.00785100
Cu       2.45529000       5.00689000      15.35785000  T       0.01599000       0.00024900      -0.00393600
Pd       4.98204000       5.00544000      15.53117000  T       0.00479000      -0.00013400      -0.00156300
Y        7.59754000       5.00479000      17.28266000  T       0.00132600      -0.00018600      -0.00152400
Cu      10.09661000       5.01197000      15.52037000  T       0.02198700       0.00041100       0.01546700
Cu       0.02786000       7.51986000      15.34803000  T       0.00079200      -0.00152200      -0.00229300
Cu       2.48634000       7.50608000      15.36188000  T       0.00124900       0.00007200      -0.00170600
Cu       4.94910000       7.58846000      15.49430000  T       0.00393500      -0.00028700      -0.00068500
Cu       7.43393000       7.53029000      15.43042000  T       0.00746700      -0.00157900      -0.00022900
Cu      10.08054000       7.59647000      15.39023000  T       0.00304500      -0.00009500       0.00051500
Cu      -0.00118000      10.00973000      15.36576000  T      -0.00081700      -0.00063100      -0.00278400
Cu       2.51224000      10.00650000      15.37007000  T      -0.00066100       0.00011000      -0.00174200
Cu       5.01240000      10.03808000      15.36212000  T      -0.00101100      -0.00003000      -0.00086800
Cu       7.50963000      10.03456000      15.33638000  T      -0.00072900      -0.00035400      -0.00030700
Cu      10.01596000      10.04380000      15.34031000  T      -0.00087800      -0.00010200      -0.00276500
O        6.07363000       3.44099000      16.68459000  T       0.00920400      -0.00156600      -0.00053600
O        6.07476000       6.56965000      16.68324000  T       0.00932700       0.00079700      -0.00097900
O        8.84553000       6.47715000      16.28821000  T       0.00937100      -0.00208700       0.00343500
O        8.83963000       3.54470000      16.26536000  T       0.00785300       0.00435600      -0.00213500
C        9.96111000       4.95995000      18.41510000  T      -0.00584200      -0.00172900       0.01835400
O       10.32753000       4.87212000      19.72309000  T      -0.02255000       0.00592600       0.02077100
O       10.92764000       4.98446000      17.60033000  T      -0.00528200      -0.00476600       0.03413000
H       11.31900000       4.83960000      19.74415000  T      -0.00941500       0.00798700       0.03167600
108
Lattice="12.515153631 0.0 0.0 0.0 12.515153631 0.0 0.0 0.0 25.30973" Properties=species:S:1:pos:R:3:move_mask:L:1:forces:R:3 stress="0.007608243586723545 -7.034180784870433e-06 -8.990269744922245e-05 -7.034180784870433e-06 0.007485104853178994 -5.373939357385485e-06 -8.990269744922245e-05 -5.373939357385485e-06 0.001708444602464143" free_energy=-444.15669694 energy=-444.15287871 pbc="T T T"
Cu       1.25152000       1.25152000      10.00000000  F      -0.00065000      -0.01790800      -0.07548800
Cu       3.75455000       1.25152000      10.00000000  F       0.01178600       0.00284300      -0.07366900
Cu       6.25758000       1.25152000      10.00000000  F      -0.01758600       0.01221000      -0.06174400
Cu       8.76061000       1.25152000      10.00000000  F       0.01097300       0.01269800      -0.05172900
Cu      11.26364000       1.25152000      10.00000000  F      -0.00456300       0.00473300      -0.07300000
Cu       1.25152000       3.75455000      10.00000000  F      -0.00250700       0.00671200      -0.06800900
Cu       3.75455000       3.75455000      10.00000000  F       0.01606100      -0.01519700      -0.05937600
Cu       6.25758000       3.75455000      10.00000000  F      -0.01981600      -0.01496500      -0.08013200
Cu       8.76061000       3.75455000      10.00000000  F       0.01891200      -0.01661600      -0.09059100
Cu      11.26364000       3.75455000      10.00000000  F      -0.01107500      -0.00289700      -0.05591800
Cu       1.25152000       6.25758000      10.00000000  F      -0.00346000      -0.00536500      -0.07011100
Cu       3.75455000       6.25758000      10.00000000  F       0.01756000       0.01588200      -0.05987200
Cu       6.25758000       6.25758000      10.00000000  F      -0.01976800       0.01694200      -0.08278300
Cu       8.76061000       6.25758000      10.00000000  F       0.01756300       0.01717800      -0.09054400
Cu      11.26364000       6.25758000      10.00000000  F      -0.01047300       0.00431600      -0.05761400
Cu       1.25152000       8.76061000      10.00000000  F      -0.00063800       0.01448800      -0.07409000
Cu       3.75455000       8.76061000      10.00000000  F       0.01096200      -0.00529300      -0.07259100
Cu       6.25758000       8.76061000      10.00000000  F      -0.01772300      -0.01654400      -0.05943600
Cu       8.76061000       8.76061000      10.00000000  F       0.01182200      -0.01505800      -0.05074100
Cu      11.26364000       8.76061000      10.00000000  F      -0.00466400      -0.00835200      -0.07225800
Cu       1.25152000      11.26364000      10.00000000  F      -0.00932300       0.00177100      -0.02004300
Cu       3.75455000      11.26364000      10.00000000  F      -0.00500800       0.00145500      -0.07364800
Cu       6.25758000      11.26364000      10.00000000  F      -0.00701700       0.00206000      -0.07641200
Cu       8.76061000      11.26364000      10.00000000  F      -0.00160100       0.00132600      -0.06345600
Cu      11.26364000      11.26364000      10.00000000  F       0.01994000       0.00169000      -0.07568200
Cu       0.00000000       0.00000000      11.76991000  F       0.00059700       0.04433500       0.03378600
Cu       2.50303000       0.00000000      11.76991000  F       0.04850700       0.01776100       0.06478900
Cu       5.00606000       0.00000000      11.76991000  F       0.00767900       0.07497800       0.04597100
Cu       7.50909000       0.00000000      11.76991000  F      -0.01928900       0.05920900       0.02750000
Cu      10.01212000       0.00000000      11.76991000  F      -0.03950200       0.07840400       0.04308700
Cu       0.00000000       2.50303000      11.76991000  F      -0.06080300       0.04575400       0.05995300
Cu       2.50303000       2.50303000      11.76991000  F       0.06053600       0.04657400       0.06932100
Cu       5.00606000       2.50303000      11.76991000  F      -0.05296000      -0.04726100       0.02984800
Cu       7.50909000       2.50303000      11.76991000  F      -0.01567700       0.02202200       0.11366200
Cu      10.01212000       2.50303000      11.76991000  F       0.02679800      -0.00180500       0.08185000
Cu       0.00000000       5.00606000      11.76991000  F      -0.07765300       0.00213800       0.03040000
Cu       2.50303000       5.00606000      11.76991000  F       0.07891300       0.00126200       0.09737700
Cu       5.00606000       5.00606000      11.76991000  F      -0.08496500       0.00284600       0.08253100
Cu       7.50909000       5.00606000      11.76991000  F      -0.00339000       0.00136000       0.14840800
Cu      10.01212000       5.00606000      11.76991000  F       0.01407800       0.00013900       0.11467100
Cu       0.00000000       7.50909000      11.76991000  F      -0.06010200      -0.04843700       0.06092000
Cu       2.50303000       7.50909000      11.76991000  F       0.06051700      -0.04902000       0.07003400
Cu       5.00606000       7.50909000      11.76991000  F      -0.04931400       0.04177200       0.03314300
Cu       7.50909000       7.50909000      11.76991000  F      -0.01691800      -0.02529100       0.11457900
Cu      10.01212000       7.50909000      11.76991000  F       0.02999100       0.00330300       0.07727300
Cu       0.00000000      10.01212000      11.76991000  F       0.00071000      -0.04327000       0.03273600
Cu       2.50303000      10.01212000      11.76991000  F       0.04902100      -0.01722600       0.06598000
Cu       5.00606000      10.01212000      11.76991000  F       0.00952300      -0.07535700       0.04609400
Cu       7.50909000      10.01212000      11.76991000  F      -0.01841400      -0.05967300       0.02761900
Cu      10.01212000      10.01212000      11.76991000  F      -0.04080200      -0.07801700       0.04317600
Cu       1.25873000       1.24329000      13.57349000  T      -0.00075000      -0.00130900      -0.00013100
Cu       3.76677000       1.26212000      13.60387000  T      -0.00176900      -0.00205500      -0.00097400
Cu       6.24961000       1.26967000      13.60118000  T      -0.00183100       0.00086800       0.00128500
Cu       8.73920000       1.27230000      13.59445000  T      -0.00016800       0.00075600      -0.00066100
Cu      11.25965000       1.25616000      13.58332000  T       0.00044700      -0.00097700      -0.00256700
Cu       1.24289000       3.75634000      13.57458000  T       0.00609200      -0.00184800      -0.00264700
Cu       3.76548000       3.74827000      13.60655000  T       0.00438300      -0.00146800      -0.00032000
Cu       6.25520000       3.76493000      13.56340000  T       0.00398500      -0.00015200      -0.00112800
Cu       8.74798000       3.77503000      13.57985000  T       0.00429700       0.00179900       0.00061400
Cu      11.24389000       3.76984000      13.60830000  T       0.00473100      -0.00011700      -0.00061300
Cu       1.24307000       6.25566000      13.57457000  T       0.00593700       0.00241800      -0.00254300
Cu       3.76625000       6.26388000      13.60628000  T       0.00451000       0.00208300      -0.00034600
Cu       6.25688000       6.24566000      13.56438000  T       0.00413500      -0.00050900      -0.00104500
Cu       8.74934000       6.23832000      13.57880000  T       0.00461400      -0.00164500       0.00006700
Cu      11.24429000       6.24378000      13.60794000  T       0.00474200       0.00014300      -0.00078400
Cu       1.25881000       8.76811000      13.57372000  T      -0.00068200       0.00153700      -0.00002300
Cu       3.76726000       8.75015000      13.60373000  T      -0.00173800       0.00217800      -0.00092200
Cu       6.25083000       8.74083000      13.60186000  T      -0.00155700      -0.00091100       0.00139400
Cu       8.73995000       8.73945000      13.59512000  T       0.00020000      -0.00064800      -0.00041700
Cu      11.25930000       8.75590000      13.58375000  T       0.00065700       0.00116400      -0.00232000
Cu       1.25495000      11.26379000      13.59464000  T      -0.00003000      -0.00016500      -0.00088400
Cu       3.74848000      11.26396000      13.57764000  T      -0.00221400       0.00000600      -0.00045900
Cu       6.25354000      11.26342000      13.56281000  T      -0.00240700       0.00001900       0.00099500
Cu       8.76251000      11.26364000      13.56153000  T      -0.00151700       0.00003500       0.00055300
Cu      11.27949000      11.26391000      13.56697000  T       0.00089400      -0.00005800      -0.00020400
Cu      -0.00096000       0.00310000      15.36651000  T      -0.00118700       0.00051100      -0.00477100
Cu       2.51214000       0.00711000      15.37055000  T      -0.00097600       0.00070300      -0.00285900
Cu       5.01233000      12.48756000      15.36254000  T      -0.00146900      -0.00087700      -0.00122100
Cu       7.50970000      12.49069000      15.33623000  T      -0.00164700      -0.00187600       0.00058500
Cu      10.01623000      12.48453000      15.34041000  T      -0.00212000      -0.00097200      -0.00290800
Cu       0.02718000       2.49173000      15.34790000  T       0.00035600       0.00173400      -0.00207300
Cu       2.48480000       2.50642000      15.36219000  T       0.00006000       0.00170600      -0.00226700
Cu       4.94617000       2.42219000      15.49561000  T       0.00417500       0.00070600      -0.00021800
Cu       7.42826000       2.47850000      15.42821000  T       0.00829100      -0.00228900      -0.00253700
Cu      10.07985000       2.41671000      15.38567000  T       0.00482000      -0.00295000       0.00063000
Cu      12.54411000       5.00610000      15.38518000  T       0.01963600       0.00004900      -0.00788100
Cu       2.45346000       5.00686000      15.35821000  T       0.01355000       0.00024900      -0.00449600
Pd       4.97935000       5.00550000      15.53203000  T       0.03823200      -0.00073800      -0.01230900
Y        7.59652000       5.00484000      17.28210000  T       0.02076300      -0.00061600       0.01056100
Cu      10.09332000       5.01187000      15.51824000  T       0.02839100       0.00073700       0.01401500
Cu       0.02771000       7.52009000      15.34809000  T       0.00039800      -0.00178600      -0.00239600
Cu       2.48616000       7.50615000      15.36190000  T       0.00027400      -0.00117900      -0.00205400
Cu       4.94840000       7.58855000      15.49428000  T       0.00426800      -0.00088300      -0.00045200
Cu       7.43270000       7.53033000      15.43047000  T       0.00964000       0.00089400      -0.00224300
Cu      10.07996000       7.59633000      15.38999000  T       0.00461300       0.00213300       0.00047800
Cu      -0.00105000      10.00985000      15.36590000  T      -0.00064800      -0.00100900      -0.00374800
Cu       2.51231000      10.00653000      15.37009000  T      -0.00054200      -0.00046600      -0.00264200
Cu       5.01250000      10.03805000      15.36204000  T      -0.00120000       0.00046500      -0.00120900
Cu       7.50976000      10.03447000      15.33616000  T      -0.00155400       0.00103700       0.00072100
Cu      10.01616000      10.04375000      15.34042000  T      -0.00197100       0.00034200      -0.00291800
O        6.07269000       3.44126000      16.68445000  T       0.00633300       0.00052500       0.00024600
O        6.07381000       6.56948000      16.68317000  T       0.00630200      -0.00096000      -0.00003000
O        8.84441000       6.47724000      16.28755000  T       0.00497600      -0.00232700       0.00588100
O        8.83875000       3.54431000      16.26550000  T       0.00366800       0.00389200       0.00095400
C        9.96254000       4.96019000      18.41178000  T      -0.00907500      -0.00156800       0.02014000
O       10.33018000       4.87136000      19.71929000  T      -0.01860600       0.00531300       0.02222900
O       10.92817000       4.98508000      17.59577000  T      -0.00762900      -0.00485500       0.04242500
H       11.32168000       4.83831000      19.74000000  T      -0.01187100       0.00860400       0.03068000
108
Lattice="12.515153631 0.0 0.0 0.0 12.515153631 0.0 0.0 0.0 25.30973" Properties=species:S:1:pos:R:3:move_mask:L:1:forces:R:3 stress="0.007642172430331845 -7.995373190256454e-06 -5.958768762480746e-05 -7.995373190256454e-06 0.007521486609873768 -6.690897782946853e-06 -5.958768762480746e-05 -6.690897782946853e-06 0.001748290396723782" free_energy=-444.15862797 energy=-444.15480162 pbc="T T T"
Cu       1.25152000       1.25152000      10.00000000  F      -0.00057000      -0.01772500      -0.07578400
Cu       3.75455000       1.25152000      10.00000000  F       0.01219700       0.00309900      -0.07406500
Cu       6.25758000       1.25152000      10.00000000  F      -0.01699700       0.01235100      -0.06177000
Cu       8.76061000       1.25152000      10.00000000  F       0.01119700       0.01290800      -0.05149200
Cu      11.26364000       1.25152000      10.00000000  F      -0.00454100       0.00489000      -0.07299000
Cu       1.25152000       3.75455000      10.00000000  F      -0.00236400       0.00675700      -0.06814900
Cu       3.75455000       3.75455000      10.00000000  F       0.01639800      -0.01521300      -0.05965100
Cu       6.25758000       3.75455000      10.00000000  F      -0.01926500      -0.01497600      -0.07978600
Cu       8.76061000       3.75455000      10.00000000  F       0.01929200      -0.01649000      -0.09072900
Cu      11.26364000       3.75455000      10.00000000  F      -0.01122300      -0.00264500      -0.05579700
Cu       1.25152000       6.25758000      10.00000000  F      -0.00335600      -0.00544400      -0.07028500
Cu       3.75455000       6.25758000      10.00000000  F       0.01791300       0.01587900      -0.06015700
Cu       6.25758000       6.25758000      10.00000000  F      -0.01922700       0.01693200      -0.08242300
Cu       8.76061000       6.25758000      10.00000000  F       0.01794200       0.01701000      -0.09062900
Cu      11.26364000       6.25758000      10.00000000  F      -0.01060100       0.00404100      -0.05747400
Cu       1.25152000       8.76061000      10.00000000  F      -0.00059300       0.01430600      -0.07440200
Cu       3.75455000       8.76061000      10.00000000  F       0.01137500      -0.00557300      -0.07298800
Cu       6.25758000       8.76061000      10.00000000  F      -0.01713900      -0.01670200      -0.05948000
Cu       8.76061000       8.76061000      10.00000000  F       0.01204100      -0.01523200      -0.05051100
Cu      11.26364000       8.76061000      10.00000000  F      -0.00462300      -0.00850400      -0.07232300
Cu       1.25152000      11.26364000      10.00000000  F      -0.00930000       0.00177700      -0.02055700
Cu       3.75455000      11.26364000      10.00000000  F      -0.00459400       0.00147500      -0.07383000
Cu       6.25758000      11.26364000      10.00000000  F      -0.00649500       0.00207900      -0.07645300
Cu       8.76061000      11.26364000      10.00000000  F      -0.00137100       0.00130300      -0.06339200
Cu      11.26364000      11.26364000      10.00000000  F       0.01996900       0.00167200      -0.07594100
Cu       0.00000000       0.00000000      11.76991000  F       0.00073600       0.04387500       0.03320500
Cu       2.50303000       0.00000000      11.76991000  F       0.04824300       0.01784000       0.06453900
Cu       5.00606000       0.00000000      11.76991000  F       0.00847400       0.07456300       0.04667900
Cu       7.50909000       0.00000000      11.76991000  F      -0.01931400       0.05935700       0.02896700
Cu      10.01212000       0.00000000      11.76991000  F      -0.04024900       0.07798600       0.04343400
Cu       0.00000000       2.50303000      11.76991000  F      -0.06026300       0.04570000       0.05999400
Cu       2.50303000       2.50303000      11.76991000  F       0.06255800       0.04530200       0.06863600
Cu       5.00606000       2.50303000      11.76991000  F      -0.05103100      -0.04828400       0.03010500
Cu       7.50909000       2.50303000      11.76991000  F      -0.01355800       0.02164500       0.11443400
Cu      10.01212000       2.50303000      11.76991000  F       0.02771000      -0.00075500       0.08283800
Cu       0.00000000       5.00606000      11.76991000  F      -0.07578400       0.00217700       0.03135900
Cu       2.50303000       5.00606000      11.76991000  F       0.08255600       0.00137600       0.09718400
Cu       5.00606000       5.00606000      11.76991000  F      -0.08251500       0.00287300       0.08286000
Cu       7.50909000       5.00606000      11.76991000  F       0.00144900       0.00115700       0.14852900
Cu      10.01212000       5.00606000      11.76991000  F       0.01626400      -0.00013400       0.11579600
Cu       0.00000000       7.50909000      11.76991000  F      -0.05949000      -0.04819900       0.06086300
Cu       2.50303000       7.50909000      11.76991000  F       0.06250900      -0.04761700       0.06928800
Cu       5.00606000       7.50909000      11.76991000  F      -0.04719900       0.04274000       0.03349000
Cu       7.50909000       7.50909000      11.76991000  F      -0.01491200      -0.02479200       0.11532100
Cu      10.01212000       7.50909000      11.76991000  F       0.03126300       0.00260800       0.07788900
Cu       0.00000000      10.01212000      11.76991000  F       0.00084600      -0.04288600       0.03201200
Cu       2.50303000      10.01212000      11.76991000  F       0.04880100      -0.01726200       0.06567400
Cu       5.00606000      10.01212000      11.76991000  F       0.01046300      -0.07503400       0.04685600
Cu       7.50909000      10.01212000      11.76991000  F      -0.01837900      -0.05994300       0.02914400
Cu      10.01212000      10.01212000      11.76991000  F      -0.04151800      -0.07769100       0.04349900
Cu       1.25855000       1.24302000      13.57365000  T       0.00023400       0.00091600      -0.00137700
Cu       3.76654000       1.26168000      13.60392000  T       0.00074200       0.00109400      -0.00025300
Cu       6.24949000       1.26962000      13.60158000  T       0.00068000       0.00048100      -0.00002300
Cu       8.73935000       1.27230000      13.59449000  T      -0.00024100       0.00114000      -0.00048600
Cu      11.25973000       1.25590000      13.58298000  T      -0.00072200       0.00136600      -0.00082500
Cu       1.24452000       3.75593000      13.57404000  T       0.00564700      -0.00020400      -0.00294800
Cu       3.76693000       3.74788000      13.60659000  T       0.00600700      -0.00024300      -0.00121200
Cu       6.25664000       3.76468000      13.56308000  T       0.00568300      -0.00183900      -0.00248400
Cu       8.74943000       3.77533000      13.58025000  T       0.00484000       0.00153000       0.00317900
Cu      11.24516000       3.76984000      13.60842000  T       0.00242000       0.00167900       0.00059900
Cu       1.24470000       6.25623000      13.57404000  T       0.00568500       0.00031600      -0.00297800
Cu       3.76773000       6.26439000      13.60631000  T       0.00609200       0.00021300      -0.00106900
Cu       6.25839000       6.24577000      13.56409000  T       0.00610800       0.00163300      -0.00234100
Cu       8.75088000       6.23809000      13.57903000  T       0.00506700      -0.00127100       0.00271000
Cu      11.24557000       6.24379000      13.60799000  T       0.00250300      -0.00173500       0.00045400
Cu       1.25866000       8.76845000      13.57391000  T       0.00031600      -0.00078400      -0.00122000
Cu       3.76704000       8.75063000      13.60377000  T       0.00088500      -0.00094100      -0.00035700
Cu       6.25080000       8.74079000      13.60231000  T       0.00108100      -0.00115000       0.00021100
Cu       8.74020000       8.73945000      13.59522000  T      -0.00014400      -0.00144000      -0.00052300
Cu      11.25944000       8.75617000      13.58347000  T      -0.00062000      -0.00155200      -0.00081100
Cu       1.25487000      11.26376000      13.59470000  T      -0.00017600       0.00001500      -0.00141200
Cu       3.74808000      11.26396000      13.57776000  T       0.00015400       0.00007400      -0.00117900
Cu       6.25317000      11.26340000      13.56314000  T      -0.00077500      -0.00025000      -0.00113700
Cu       8.76222000      11.26363000      13.56172000  T      -0.00152000      -0.00017300      -0.00180000
Cu      11.27954000      11.26387000      13.56708000  T      -0.00124000      -0.00015100      -0.00196200
Cu      -0.00139000       0.00325000      15.36593000  T      -0.00148500       0.00057400      -0.00189400
Cu       2.51187000       0.00725000      15.37045000  T      -0.00142000      -0.00000700      -0.00102200
Cu       5.01202000      12.48738000      15.36269000  T      -0.00178300       0.00046800      -0.00044200
Cu       7.50937000      12.49026000      15.33667000  T      -0.00132200       0.00094000      -0.00062900
Cu      10.01572000      12.48428000      15.34011000  T      -0.00095000       0.00024100      -0.00194500
Cu       0.02750000       2.49217000      15.34776000  T       0.00166900       0.00127400      -0.00211000
Cu       2.48516000       2.50670000      15.36207000  T       0.00228900      -0.00019900      -0.00151200
Cu       4.94765000       2.42228000      15.49573000  T       0.00323900       0.00009600      -0.00009400
Cu       7.43064000       2.47817000      15.42799000  T       0.00447000       0.00206800       0.00049400
Cu      10.08115000       2.41618000      15.38620000  T       0.00264800       0.00082900       0.00015200
Cu      12.54928000       5.00610000      15.38328000  T       0.01616800      -0.00010700      -0.00823500
Cu       2.45763000       5.00693000      15.35737000  T       0.01862500       0.00026300      -0.00366200
Pd       4.98513000       5.00537000      15.53017000  T       0.00752200      -0.00015100      -0.00250800
Y        7.59866000       5.00473000      17.28325000  T       0.00187600       0.00000300      -0.00215300
Cu      10.10065000       5.01208000      15.52304000  T       0.01729800       0.00017300       0.01718000
Cu       0.02804000       7.51958000      15.34792000  T       0.00152000      -0.00166400      -0.00196400
Cu       2.48657000       7.50601000      15.36183000  T       0.00232700       0.00062200      -0.00138400
Cu       4.94995000       7.58837000      15.49430000  T       0.00393600      -0.00064200      -0.00027800
Cu       7.43544000       7.53021000      15.43037000  T       0.00561100      -0.00375100       0.00102500
Cu      10.08123000       7.59663000      15.39051000  T       0.00255800      -0.00129300       0.00010200
Cu      -0.00134000      10.00958000      15.36556000  T      -0.00119100      -0.00053100      -0.00148300
Cu       2.51214000      10.00647000      15.37003000  T      -0.00110000       0.00040500      -0.00081200
Cu       5.01226000      10.03812000      15.36220000  T      -0.00157700      -0.00056200      -0.00043400
Cu       7.50947000      10.03464000      15.33662000  T      -0.00107600      -0.00159900      -0.00059800
Cu      10.01571000      10.04385000      15.34015000  T      -0.00064600      -0.00052100      -0.00187200
O        6.07486000       3.44065000      16.68474000  T       0.00968900      -0.00217600      -0.00142900
O        6.07600000       6.56986000      16.68331000  T       0.01010700       0.00112700      -0.00204200
O        8.84697000       6.47703000      16.28900000  T       0.01086600      -0.00279200       0.00206500
O        8.84076000       3.54521000      16.26516000  T       0.00889100       0.00562000      -0.00372400
C        9.95939000       4.95965000      18.41917000  T      -0.00693200      -0.00172200       0.01898400
O       10.32416000       4.87307000      19.72775000  T      -0.01870700       0.00634000       0.02389100
O       10.92700000       4.98369000      17.60591000  T      -0.00765900      -0.00424700       0.03234700
H       11.31583000       4.84119000      19.74934000  T      -0.01789100       0.00761400       0.03369400
108
Lattice="12.515153631 0.0 0.0 0.0 12.515153631 0.0 0.0 0.0 25.30973" Properties=species:S:1:pos:R:3:move_mask:L:1:forces:R:3 stress="0.007631649245945607 -8.088995827144703e-06 -5.264712947682528e-05 -8.088995827144703e-06 0.007511724889600886 -6.135403470743243e-06 -5.264712947682528e-05 -6.135403470743243e-06 0.0017377734538466685" free_energy=-444.15894506 energy=-444.15512038 pbc="T T T"
Cu       1.25152000       1.25152000      10.00000000  F      -0.00056200      -0.01794300      -0.07569200
Cu       3.75455000       1.25152000      10.00000000  F       0.01220300       0.00292200      -0.07408100
Cu       6.25758000       1.25152000      10.00000000  F      -0.01698200       0.01213200      -0.06174300
Cu       8.76061000       1.25152000      10.00000000  F       0.01121400       0.01264200      -0.05138800
Cu      11.26364000       1.25152000      10.00000000  F      -0.00451000       0.00460700      -0.07287900
Cu       1.25152000       3.75455000      10.00000000  F      -0.00229500       0.00670000      -0.06821200
Cu       3.75455000       3.75455000      10.00000000  F       0.01639400      -0.01527900      -0.05973500
Cu       6.25758000       3.75455000      10.00000000  F      -0.01930400      -0.01503800      -0.07980800
Cu       8.76061000       3.75455000      10.00000000  F       0.01929700      -0.01656300      -0.09087400
Cu      11.26364000       3.75455000      10.00000000  F      -0.01119000      -0.00269600      -0.05586200
Cu       1.25152000       6.25758000      10.00000000  F      -0.00329300      -0.00526600      -0.07028400
Cu       3.75455000       6.25758000      10.00000000  F       0.01790700       0.01607000      -0.06017900
Cu       6.25758000       6.25758000      10.00000000  F      -0.01926500       0.01712300      -0.08238000
Cu       8.76061000       6.25758000      10.00000000  F       0.01794700       0.01721200      -0.09070200
Cu      11.26364000       6.25758000      10.00000000  F      -0.01056400       0.00421800      -0.05747900
Cu       1.25152000       8.76061000      10.00000000  F      -0.00058700       0.01447500      -0.07421800
Cu       3.75455000       8.76061000      10.00000000  F       0.01138100      -0.00544600      -0.07290000
Cu       6.25758000       8.76061000      10.00000000  F      -0.01712100      -0.01653200      -0.05937500
Cu       8.76061000       8.76061000      10.00000000  F       0.01205700      -0.01501000      -0.05032200
Cu      11.26364000       8.76061000      10.00000000  F      -0.00459100      -0.00826800      -0.07212000
Cu       1.25152000      11.26364000      10.00000000  F      -0.00934900       0.00169100      -0.02037700
Cu       3.75455000      11.26364000      10.00000000  F      -0.00458300       0.00138400      -0.07363400
Cu       6.25758000      11.26364000      10.00000000  F      -0.00643900       0.00198400      -0.07630600
Cu       8.76061000      11.26364000      10.00000000  F      -0.00133100       0.00120400      -0.06317800
Cu      11.26364000      11.26364000      10.00000000  F       0.01999500       0.00157600      -0.07567900
Cu       0.00000000       0.00000000      11.76991000  F       0.00072900       0.04375700       0.03283800
Cu       2.50303000       0.00000000      11.76991000  F       0.04838800       0.01771400       0.06436200
Cu       5.00606000       0.00000000      11.76991000  F       0.00852500       0.07445100       0.04656300
Cu       7.50909000       0.00000000      11.76991000  F      -0.01935100       0.05926800       0.02859800
Cu      10.01212000       0.00000000      11.76991000  F      -0.04035200       0.07794200       0.04295500
Cu       0.00000000       2.50303000      11.76991000  F      -0.06022200       0.04562200       0.05978300
Cu       2.50303000       2.50303000      11.76991000  F       0.06319300       0.04498400       0.06807800
Cu       5.00606000       2.50303000      11.76991000  F      -0.05068900      -0.04865600       0.02961500
Cu       7.50909000       2.50303000      11.76991000  F      -0.01294100       0.02150700       0.11413200
Cu      10.01212000       2.50303000      11.76991000  F       0.02782400      -0.00060200       0.08277100
Cu       0.00000000       5.00606000      11.76991000  F      -0.07546500       0.00227600       0.03122200
Cu       2.50303000       5.00606000      11.76991000  F       0.08347400       0.00148800       0.09658200
Cu       5.00606000       5.00606000      11.76991000  F      -0.08186700       0.00302000       0.08259100
Cu       7.50909000       5.00606000      11.76991000  F       0.00263000       0.00125100       0.14854200
Cu      10.01212000       5.00606000      11.76991000  F       0.01644200      -0.00005000       0.11583400
Cu       0.00000000       7.50909000      11.76991000  F      -0.05941900      -0.04805000       0.06068700
Cu       2.50303000       7.50909000      11.76991000  F       0.06316300      -0.04724100       0.06881000
Cu       5.00606000       7.50909000      11.76991000  F      -0.04683600       0.04313200       0.03310100
Cu       7.50909000       7.50909000      11.76991000  F      -0.01432500      -0.02458900       0.11498500
Cu      10.01212000       7.50909000      11.76991000  F       0.03144100       0.00254100       0.07777800
Cu       0.00000000      10.01212000      11.76991000  F       0.00085800      -0.04297600       0.03166100
Cu       2.50303000      10.01212000      11.76991000  F       0.04895000      -0.01732000       0.06553400
Cu       5.00606000      10.01212000      11.76991000  F       0.01053900      -0.07517000       0.04677200
Cu       7.50909000      10.01212000      11.76991000  F      -0.01842400      -0.06013400       0.02881100
Cu      10.01212000      10.01212000      11.76991000  F      -0.04161000      -0.07788200       0.04302000
Cu       1.25858000       1.24307000      13.57354000  T       0.00011400       0.00008800      -0.00064800
Cu       3.76661000       1.26175000      13.60389000  T       0.00037400       0.00004700      -0.00019500
Cu       6.24956000       1.26965000      13.60156000  T       0.00033200      -0.00009600       0.00030000
Cu       8.73935000       1.27237000      13.59444000  T      -0.00011200       0.00073700       0.00004700
Cu      11.25969000       1.25598000      13.58291000  T      -0.00024800       0.00061800      -0.00063800
Cu       1.24491000       3.75592000      13.57384000  T       0.00549300      -0.00037400      -0.00203000
Cu       3.76736000       3.74786000      13.60650000  T       0.00555300      -0.00051000      -0.00104000
Cu       6.25703000       3.76457000      13.56292000  T       0.00511500      -0.00124700      -0.00237700
Cu       8.74975000       3.77543000      13.58046000  T       0.00434800       0.00141100       0.00250500
Cu      11.24532000       3.76994000      13.60845000  T       0.00281300       0.00131300       0.00082600
Cu       1.24509000       6.25625000      13.57384000  T       0.00550800       0.00078800      -0.00202100
Cu       3.76816000       6.26440000      13.60624000  T       0.00570900       0.00076200      -0.00089900
Cu       6.25881000       6.24588000      13.56395000  T       0.00548400       0.00122300      -0.00220900
Cu       8.75121000       6.23801000      13.57921000  T       0.00461000      -0.00097500       0.00206700
Cu      11.24574000       6.24367000      13.60802000  T       0.00285400      -0.00119900       0.00078100
Cu       1.25869000       8.76840000      13.57381000  T       0.00017400      -0.00009100      -0.00049000
Cu       3.76713000       8.75056000      13.60374000  T       0.00057200      -0.00004900      -0.00020100
Cu       6.25090000       8.74072000      13.60231000  T       0.00065200      -0.00052500       0.00054300
Cu       8.74020000       8.73936000      13.59517000  T       0.00005700      -0.00104900       0.00004700
Cu      11.25941000       8.75607000      13.58340000  T      -0.00011900      -0.00082500      -0.00059200
Cu       1.25486000      11.26377000      13.59459000  T      -0.00027700      -0.00012100      -0.00069500
Cu       3.74811000      11.26397000      13.57767000  T      -0.00034300      -0.00008500      -0.00056900
Cu       6.25314000      11.26338000      13.56305000  T      -0.00098200      -0.00037100      -0.00018200
Cu       8.76214000      11.26362000      13.56158000  T      -0.00141900      -0.00031400      -0.00063300
Cu      11.27946000      11.26386000      13.56691000  T      -0.00076200      -0.00028100      -0.00095800
Cu      -0.00147000       0.00328000      15.36580000  T      -0.00128800       0.00035100      -0.00213500
Cu       2.51180000       0.00724000      15.37038000  T      -0.00132300      -0.00013000      -0.00119200
Cu       5.01193000      12.48741000      15.36266000  T      -0.00158900      -0.00022200      -0.00053200
Cu       7.50929000      12.49033000      15.33662000  T      -0.00120800       0.00007900      -0.00056900
Cu      10.01566000      12.48430000      15.33998000  T      -0.00120100      -0.00014500      -0.00193900
Cu       0.02763000       2.49225000      15.34763000  T       0.00185500       0.00110300      -0.00180200
Cu       2.48534000       2.50668000      15.36198000  T       0.00187600      -0.00002000      -0.00126500
Cu       4.94787000       2.42229000      15.49573000  T       0.00299400      -0.00008800      -0.00018800
Cu       7.43093000       2.47832000      15.42803000  T       0.00488600       0.00107600      -0.00007700
Cu      10.08135000       2.41623000      15.38621000  T       0.00362600      -0.00063100      -0.00021600
Cu      12.55034000       5.00609000      15.38275000  T       0.01545800       0.00001600      -0.00703700
Cu       2.45890000       5.00694000      15.35713000  T       0.01589900       0.00026600      -0.00332400
Pd       4.98634000       5.00535000      15.52979000  T       0.00448200       0.00026200      -0.00245600
Y        7.59917000       5.00470000      17.28319000  T       0.00200300      -0.00018100       0.00304100
Cu      10.10178000       5.01209000      15.52420000  T       0.01958800       0.00052200       0.01468600
Cu       0.02816000       7.51947000      15.34780000  T       0.00173700      -0.00141400      -0.00178000
Cu       2.48676000       7.50606000      15.36175000  T       0.00199700       0.00051600      -0.00126200
Cu       4.95022000       7.58833000      15.49429000  T       0.00347700      -0.00032700      -0.00048500
Cu       7.43581000       7.52995000      15.43045000  T       0.00603700      -0.00256500       0.00029100
Cu      10.08142000       7.59655000      15.39051000  T       0.00351700       0.00021100      -0.00034700
Cu      -0.00140000      10.00955000      15.36546000  T      -0.00101200      -0.00054400      -0.00180100
Cu       2.51209000      10.00650000      15.36998000  T      -0.00102000       0.00034000      -0.00115900
Cu       5.01218000      10.03809000      15.36217000  T      -0.00140600      -0.00022000      -0.00058400
Cu       7.50941000      10.03454000      15.33657000  T      -0.00101800      -0.00102300      -0.00063300
Cu      10.01568000      10.04382000      15.34002000  T      -0.00093200      -0.00033800      -0.00189800
O        6.07544000       3.44057000      16.68457000  T       0.00872400      -0.00214300      -0.00007200
O        6.07661000       6.56988000      16.68309000  T       0.00915400       0.00142600      -0.00097200
O        8.84766000       6.47682000      16.28909000  T       0.00844400      -0.00165500       0.00266100
O        8.84132000       3.54560000      16.26491000  T       0.00649100       0.00413900      -0.00260400
C        9.95871000       4.95950000      18.42087000  T       0.00144000      -0.00120100       0.00941000
O       10.32299000       4.87348000      19.72956000  T      -0.02510700       0.00598200       0.02515600
O       10.92659000       4.98344000      17.60772000  T      -0.01258600      -0.00389000       0.03443000
H       11.31445000       4.84185000      19.75238000  T      -0.01057700       0.00739200       0.02969400
108
Lattice="12.515153631 0.0 0.0 0.0 12.515153631 0.0 0.0 0.0 25.30973" Properties=species:S:1:pos:R:3:move_mask:L:1:forces:R:3 stress="0.007597951338174964 -8.051546772389404e-06 -5.181700876308281e-05 -8.051546772389404e-06 0.007479905676077134 -5.767154432316131e-06 -5.181700876308281e-05 -5.767154432316131e-06 0.0016972286105649307" free_energy=-444.15864359 energy=-444.15481811 pbc="T T T"
Cu       1.25152000       1.25152000      10.00000000  F      -0.00102600      -0.01794600      -0.07582400
Cu       3.75455000       1.25152000      10.00000000  F       0.01192800       0.00289000      -0.07445300
Cu       6.25758000       1.25152000      10.00000000  F      -0.01694000       0.01210800      -0.06208700
Cu       8.76061000       1.25152000      10.00000000  F       0.01128600       0.01262700      -0.05148400
Cu      11.26364000       1.25152000      10.00000000  F      -0.00473100       0.00460000      -0.07289400
Cu       1.25152000       3.75455000      10.00000000  F      -0.00276700       0.00672300      -0.06831900
Cu       3.75455000       3.75455000      10.00000000  F       0.01611600      -0.01524000      -0.06005200
Cu       6.25758000       3.75455000      10.00000000  F      -0.01923300      -0.01497900      -0.08009700
Cu       8.76061000       3.75455000      10.00000000  F       0.01937900      -0.01649200      -0.09094900
Cu      11.26364000       3.75455000      10.00000000  F      -0.01143300      -0.00264900      -0.05582900
Cu       1.25152000       6.25758000      10.00000000  F      -0.00375600      -0.00521200      -0.07031100
Cu       3.75455000       6.25758000      10.00000000  F       0.01764600       0.01614400      -0.06039200
Cu       6.25758000       6.25758000      10.00000000  F      -0.01918700       0.01720200      -0.08254700
Cu       8.76061000       6.25758000      10.00000000  F       0.01800500       0.01726400      -0.09066600
Cu      11.26364000       6.25758000      10.00000000  F      -0.01082000       0.00425500      -0.05737100
Cu       1.25152000       8.76061000      10.00000000  F      -0.00103500       0.01445200      -0.07424600
Cu       3.75455000       8.76061000      10.00000000  F       0.01113100      -0.00544900      -0.07310300
Cu       6.25758000       8.76061000      10.00000000  F      -0.01707000      -0.01655000      -0.05949400
Cu       8.76061000       8.76061000      10.00000000  F       0.01209700      -0.01503700      -0.05023100
Cu      11.26364000       8.76061000      10.00000000  F      -0.00483400      -0.00828500      -0.07199800
Cu       1.25152000      11.26364000      10.00000000  F      -0.00979300       0.00163900      -0.02044400
Cu       3.75455000      11.26364000      10.00000000  F      -0.00483000       0.00130300      -0.07390100
Cu       6.25758000      11.26364000      10.00000000  F      -0.00641000       0.00189100      -0.07653100
Cu       8.76061000      11.26364000      10.00000000  F      -0.00127100       0.00111900      -0.06320400
Cu      11.26364000      11.26364000      10.00000000  F       0.01976300       0.00151500      -0.07563000
Cu       0.00000000       0.00000000      11.76991000  F       0.00025800       0.04365700       0.03244700
Cu       2.50303000       0.00000000      11.76991000  F       0.04784800       0.01760900       0.06401200
Cu       5.00606000       0.00000000      11.76991000  F       0.00843800       0.07434000       0.04625300
Cu       7.50909000       0.00000000      11.76991000  F      -0.01911100       0.05914300       0.02827600
Cu      10.01212000       0.00000000      11.76991000  F      -0.04039000       0.07784300       0.04258000
Cu       0.00000000       2.50303000      11.76991000  F      -0.06068400       0.04564500       0.05939200
Cu       2.50303000       2.50303000      11.76991000  F       0.06271400       0.04501400       0.06777800
Cu       5.00606000       2.50303000      11.76991000  F      -0.05076000      -0.04860600       0.02932700
Cu       7.50909000       2.50303000      11.76991000  F      -0.01267400       0.02153600       0.11378000
Cu      10.01212000       2.50303000      11.76991000  F       0.02781800      -0.00056900       0.08236900
Cu       0.00000000       5.00606000      11.76991000  F      -0.07587100       0.00239700       0.03086400
Cu       2.50303000       5.00606000      11.76991000  F       0.08302500       0.00162800       0.09635600
Cu       5.00606000       5.00606000      11.76991000  F      -0.08194100       0.00317500       0.08238600
Cu       7.50909000       5.00606000      11.76991000  F       0.00291300       0.00140300       0.14822000
Cu      10.01212000       5.00606000      11.76991000  F       0.01644800       0.00008100       0.11537800
Cu       0.00000000       7.50909000      11.76991000  F      -0.05987100      -0.04801000       0.06032700
Cu       2.50303000       7.50909000      11.76991000  F       0.06271200      -0.04719900       0.06853600
Cu       5.00606000       7.50909000      11.76991000  F      -0.04690100       0.04317200       0.03285300
Cu       7.50909000       7.50909000      11.76991000  F      -0.01408200      -0.02453800       0.11465300
Cu      10.01212000       7.50909000      11.76991000  F       0.03142000       0.00258300       0.07740900
Cu       0.00000000      10.01212000      11.76991000  F       0.00039600      -0.04305700       0.03128100
Cu       2.50303000      10.01212000      11.76991000  F       0.04842300      -0.01742600       0.06519700
Cu       5.00606000      10.01212000      11.76991000  F       0.01044400      -0.07530100       0.04646800
Cu       7.50909000      10.01212000      11.76991000  F      -0.01819900      -0.06025400       0.02850400
Cu      10.01212000      10.01212000      11.76991000  F      -0.04164500      -0.07799400       0.04265800
Cu       1.25858000       1.24307000      13.57354000  T      -0.00033700       0.00017000      -0.00113600
Cu       3.76661000       1.26175000      13.60389000  T       0.00024100       0.00025400      -0.00040000
Cu       6.24956000       1.26965000      13.60157000  T       0.00057800       0.00000500       0.00016100
Cu       8.73935000       1.27237000      13.59445000  T      -0.00002200       0.00084100      -0.00022000
Cu      11.25969000       1.25598000      13.58291000  T      -0.00057900       0.00070900      -0.00107300
Cu       1.24492000       3.75591000      13.57384000  T       0.00576600      -0.00027300      -0.00257000
Cu       3.76736000       3.74786000      13.60650000  T       0.00601800      -0.00040100      -0.00127800
Cu       6.25704000       3.76457000      13.56291000  T       0.00576100      -0.00126300      -0.00256300
Cu       8.74976000       3.77543000      13.58046000  T       0.00488900       0.00161300       0.00272300
Cu      11.24533000       3.76995000      13.60846000  T       0.00289500       0.00157000       0.00061300
Cu       1.24510000       6.25625000      13.57384000  T       0.00580500       0.00088300      -0.00255300
Cu       3.76817000       6.26440000      13.60624000  T       0.00619400       0.00084800      -0.00112500
Cu       6.25882000       6.24588000      13.56394000  T       0.00616100       0.00141600      -0.00249800
Cu       8.75122000       6.23801000      13.57921000  T       0.00520300      -0.00098200       0.00213300
Cu      11.24575000       6.24367000      13.60803000  T       0.00294400      -0.00128200       0.00055300
Cu       1.25869000       8.76840000      13.57381000  T      -0.00025000      -0.00024600      -0.00093600
Cu       3.76713000       8.75057000      13.60374000  T       0.00048900      -0.00031700      -0.00043200
Cu       6.25090000       8.74072000      13.60232000  T       0.00092100      -0.00075700       0.00034400
Cu       8.74020000       8.73936000      13.59518000  T       0.00016400      -0.00121600      -0.00031300
Cu      11.25941000       8.75607000      13.58340000  T      -0.00044300      -0.00100400      -0.00102000
Cu       1.25486000      11.26377000      13.59459000  T      -0.00081900      -0.00021900      -0.00115900
Cu       3.74810000      11.26397000      13.57768000  T      -0.00058500      -0.00022300      -0.00096800
Cu       6.25314000      11.26338000      13.56306000  T      -0.00088100      -0.00056600      -0.00059200
Cu       8.76213000      11.26362000      13.56158000  T      -0.00140200      -0.00047700      -0.00116500
Cu      11.27946000      11.26386000      13.56692000  T      -0.00118600      -0.00042400      -0.00152800
Cu      -0.00147000       0.00328000      15.36580000  T      -0.00175500       0.00038900      -0.00221500
Cu       2.51180000       0.00724000      15.37038000  T      -0.00173900      -0.00012600      -0.00102200
Cu       5.01192000      12.48740000      15.36266000  T      -0.00187200      -0.00014600      -0.00024600
Cu       7.50929000      12.49032000      15.33662000  T      -0.00129800       0.00018500      -0.00046700
Cu      10.01566000      12.48430000      15.33998000  T      -0.00140400      -0.00017700      -0.00211800
Cu       0.02763000       2.49225000      15.34762000  T       0.00180000       0.00127800      -0.00194700
Cu       2.48534000       2.50668000      15.36198000  T       0.00194600       0.00008000      -0.00120300
Cu       4.94788000       2.42229000      15.49573000  T       0.00327600       0.00000300      -0.00006500
Cu       7.43095000       2.47832000      15.42802000  T       0.00522900       0.00139700       0.00005600
Cu      10.08136000       2.41622000      15.38621000  T       0.00368700      -0.00044600      -0.00010300
Cu      12.55037000       5.00609000      15.38274000  T       0.01724600       0.00006900      -0.00830200
Cu       2.45892000       5.00695000      15.35712000  T       0.01731300       0.00036800      -0.00372200
Pd       4.98629000       5.00535000      15.52980000  T       0.00680800       0.00023600      -0.00279000
Y        7.59914000       5.00470000      17.28322000  T       0.00515800      -0.00020600       0.00387800
Cu      10.10184000       5.01209000      15.52422000  T       0.02062900       0.00059700       0.01586900
Cu       0.02816000       7.51947000      15.34780000  T       0.00167100      -0.00159700      -0.00204500
Cu       2.48676000       7.50606000      15.36174000  T       0.00204800       0.00048600      -0.00135100
Cu       4.95022000       7.58833000      15.49429000  T       0.00387800      -0.00050800      -0.00046800
Cu       7.43583000       7.52995000      15.43045000  T       0.00645800      -0.00300000       0.00041200
Cu      10.08143000       7.59656000      15.39051000  T       0.00349200      -0.00008400      -0.00028400
Cu      -0.00140000      10.00955000      15.36545000  T      -0.00145700      -0.00068000      -0.00193300
Cu       2.51209000      10.00650000      15.36998000  T      -0.00139600       0.00028000      -0.00106400
Cu       5.01217000      10.03809000      15.36217000  T      -0.00166500      -0.00039900      -0.00042500
Cu       7.50940000      10.03454000      15.33657000  T      -0.00108300      -0.00127100      -0.00064300
Cu      10.01567000      10.04382000      15.34002000  T      -0.00110700      -0.00044500      -0.00217200
O        6.07546000       3.44056000      16.68458000  T       0.01111300      -0.00255300      -0.00022200
O        6.07663000       6.56989000      16.68311000  T       0.01145900       0.00154000      -0.00141600
O        8.84766000       6.47683000      16.28911000  T       0.01125800      -0.00241100       0.00283800
O        8.84133000       3.54559000      16.26491000  T       0.00849300       0.00569300      -0.00356500
C        9.95879000       4.95951000      18.42079000  T      -0.00908300      -0.00161400       0.02058500
O       10.32289000       4.87349000      19.72960000  T      -0.02656000       0.00734800       0.03090500
O       10.92652000       4.98343000      17.60785000  T      -0.00687000      -0.00458800       0.03581500
H       11.31449000       4.84185000      19.75234000  T      -0.01614100       0.00747400       0.03118200
108
Lattice="12.515153631 0.0 0.0 0.0 12.515153631 0.0 0.0 0.0 25.30973" Properties=species:S:1:pos:R:3:move_mask:L:1:forces:R:3 stress="0.0076073073603546626 -8.60079957546713e-06 -4.5850126038738416e-05 -8.60079957546713e-06 0.007491527366069528 -7.652090188332875e-06 -4.5850126038738416e-05 -7.652090188332875e-06 0.0017106603382038314" free_energy=-444.15931362 energy=-444.15548107 pbc="T T T"
Cu       1.25152000       1.25152000      10.00000000  F      -0.00083600      -0.01799100      -0.07581200
Cu       3.75455000       1.25152000      10.00000000  F       0.01215700       0.00292400      -0.07434000
Cu       6.25758000       1.25152000      10.00000000  F      -0.01664700       0.01213600      -0.06192600
Cu       8.76061000       1.25152000      10.00000000  F       0.01156500       0.01261200      -0.05136400
Cu      11.26364000       1.25152000      10.00000000  F      -0.00453600       0.00453000      -0.07281500
Cu       1.25152000       3.75455000      10.00000000  F      -0.00251400       0.00683400      -0.06821000
Cu       3.75455000       3.75455000      10.00000000  F       0.01636100      -0.01513100      -0.05986600
Cu       6.25758000       3.75455000      10.00000000  F      -0.01898300      -0.01487600      -0.07984900
Cu       8.76061000       3.75455000      10.00000000  F       0.01959600      -0.01642000      -0.09088400
Cu      11.26364000       3.75455000      10.00000000  F      -0.01122500      -0.00255600      -0.05579700
Cu       1.25152000       6.25758000      10.00000000  F      -0.00351600      -0.00513100      -0.07025600
Cu       3.75455000       6.25758000      10.00000000  F       0.01788100       0.01620200      -0.06027400
Cu       6.25758000       6.25758000      10.00000000  F      -0.01895900       0.01721900      -0.08238500
Cu       8.76061000       6.25758000      10.00000000  F       0.01824900       0.01731600      -0.09067500
Cu      11.26364000       6.25758000      10.00000000  F      -0.01059200       0.00433900      -0.05738100
Cu       1.25152000       8.76061000      10.00000000  F      -0.00086800       0.01443100      -0.07424800
Cu       3.75455000       8.76061000      10.00000000  F       0.01133500      -0.00555500      -0.07308100
Cu       6.25758000       8.76061000      10.00000000  F      -0.01679600      -0.01663000      -0.05948300
Cu       8.76061000       8.76061000      10.00000000  F       0.01240400      -0.01505800      -0.05023700
Cu      11.26364000       8.76061000      10.00000000  F      -0.00460400      -0.00828300      -0.07201900
Cu       1.25152000      11.26364000      10.00000000  F      -0.00966300       0.00154300      -0.02046100
Cu       3.75455000      11.26364000      10.00000000  F      -0.00464900       0.00124800      -0.07385600
Cu       6.25758000      11.26364000      10.00000000  F      -0.00609400       0.00185100      -0.07649900
Cu       8.76061000      11.26364000      10.00000000  F      -0.00095700       0.00106300      -0.06318600
Cu      11.26364000      11.26364000      10.00000000  F       0.01999700       0.00143500      -0.07562000
Cu       0.00000000       0.00000000      11.76991000  F       0.00049200       0.04370700       0.03246800
Cu       2.50303000       0.00000000      11.76991000  F       0.04822800       0.01770200       0.06406400
Cu       5.00606000       0.00000000      11.76991000  F       0.00878000       0.07446700       0.04636100
Cu       7.50909000       0.00000000      11.76991000  F      -0.01894100       0.05936300       0.02840700
Cu      10.01212000       0.00000000      11.76991000  F      -0.04030000       0.07794600       0.04261400
Cu       0.00000000       2.50303000      11.76991000  F      -0.06034800       0.04580000       0.05953900
Cu       2.50303000       2.50303000      11.76991000  F       0.06349600       0.04498500       0.06760400
Cu       5.00606000       2.50303000      11.76991000  F      -0.05019700      -0.04858900       0.02934100
Cu       7.50909000       2.50303000      11.76991000  F      -0.01212200       0.02164200       0.11394000
Cu      10.01212000       2.50303000      11.76991000  F       0.02802400      -0.00026100       0.08270000
Cu       0.00000000       5.00606000      11.76991000  F      -0.07531300       0.00242500       0.03103800
Cu       2.50303000       5.00606000      11.76991000  F       0.08403000       0.00164500       0.09612100
Cu       5.00606000       5.00606000      11.76991000  F      -0.08115600       0.00313700       0.08242200
Cu       7.50909000       5.00606000      11.76991000  F       0.00382900       0.00129700       0.14850100
Cu      10.01212000       5.00606000      11.76991000  F       0.01674900       0.00002200       0.11578400
Cu       0.00000000       7.50909000      11.76991000  F      -0.05950900      -0.04812100       0.06042500
Cu       2.50303000       7.50909000      11.76991000  F       0.06345200      -0.04713200       0.06834200
Cu       5.00606000       7.50909000      11.76991000  F      -0.04636400       0.04312900       0.03277300
Cu       7.50909000       7.50909000      11.76991000  F      -0.01352300      -0.02463500       0.11466800
Cu      10.01212000       7.50909000      11.76991000  F       0.03174400       0.00232000       0.07759100
Cu       0.00000000      10.01212000      11.76991000  F       0.00063500      -0.04317100       0.03128800
Cu       2.50303000      10.01212000      11.76991000  F       0.04878200      -0.01753000       0.06525800
Cu       5.00606000      10.01212000      11.76991000  F       0.01081500      -0.07540300       0.04656700
Cu       7.50909000      10.01212000      11.76991000  F      -0.01801600      -0.06041700       0.02855100
Cu      10.01212000      10.01212000      11.76991000  F      -0.04154000      -0.07809800       0.04264200
Cu       1.25860000       1.24309000      13.57348000  T      -0.00012800      -0.00000500      -0.00034000
Cu       3.76666000       1.26178000      13.60388000  T       0.00029200      -0.00005100      -0.00000000
Cu       6.24961000       1.26965000      13.60157000  T       0.00031900       0.00000200       0.00052400
Cu       8.73936000       1.27242000      13.59443000  T       0.00008700       0.00068300       0.00019000
Cu      11.25968000       1.25603000      13.58286000  T      -0.00012400       0.00028900      -0.00067200
Cu       1.24523000       3.75590000      13.57370000  T       0.00456800      -0.00026900      -0.00155700
Cu       3.76769000       3.74784000      13.60643000  T       0.00465800      -0.00048200      -0.00083500
Cu       6.25734000       3.76449000      13.56279000  T       0.00400700      -0.00020500      -0.00106100
Cu       8.75001000       3.77550000      13.58060000  T       0.00362200       0.00125900       0.00203600
Cu      11.24549000       3.77002000      13.60849000  T       0.00255900       0.00107000       0.00063600
Cu       1.24541000       6.25628000      13.57371000  T       0.00454400       0.00080800      -0.00155600
Cu       3.76850000       6.26443000      13.60618000  T       0.00471200       0.00090600      -0.00089200
Cu       6.25914000       6.24594000      13.56383000  T       0.00432500       0.00028400      -0.00098900
Cu       8.75149000       6.23795000      13.57933000  T       0.00382100      -0.00073700       0.00156200
Cu      11.24591000       6.24360000      13.60805000  T       0.00260200      -0.00082700       0.00052400
Cu       1.25872000       8.76839000      13.57376000  T      -0.00008400      -0.00003300      -0.00033600
Cu       3.76719000       8.75054000      13.60372000  T       0.00039000       0.00001600      -0.00007600
Cu       6.25097000       8.74068000      13.60233000  T       0.00061200      -0.00054600       0.00062900
Cu       8.74022000       8.73929000      13.59515000  T       0.00026800      -0.00098000       0.00013500
Cu      11.25940000       8.75601000      13.58335000  T       0.00000000      -0.00052400      -0.00074600
Cu       1.25485000      11.26376000      13.59452000  T      -0.00056900      -0.00019500      -0.00047600
Cu       3.74812000      11.26397000      13.57762000  T      -0.00051100      -0.00013400      -0.00026000
Cu       6.25312000      11.26336000      13.56302000  T      -0.00069000      -0.00033600       0.00022600
Cu       8.76208000      11.26361000      13.56151000  T      -0.00100900      -0.00029600      -0.00022200
Cu      11.27942000      11.26385000      13.56682000  T      -0.00066300      -0.00028900      -0.00064300
Cu      -0.00153000       0.00330000      15.36569000  T      -0.00132200       0.00024800      -0.00178400
Cu       2.51175000       0.00724000      15.37033000  T      -0.00128100      -0.00010000      -0.00088800
Cu       5.01185000      12.48741000      15.36264000  T      -0.00121600      -0.00025800      -0.00026500
Cu       7.50924000      12.49035000      15.33658000  T      -0.00088500      -0.00002700      -0.00031100
Cu      10.01561000      12.48430000      15.33987000  T      -0.00112400      -0.00025400      -0.00159000
Cu       0.02775000       2.49232000      15.34752000  T       0.00156000       0.00108400      -0.00142600
Cu       2.48548000       2.50668000      15.36191000  T       0.00184100       0.00030900      -0.00087800
Cu       4.94807000       2.42230000      15.49574000  T       0.00324500       0.00053200       0.00030600
Cu       7.43121000       2.47841000      15.42805000  T       0.00427700       0.00104400      -0.00008900
Cu      10.08155000       2.41622000      15.38620000  T       0.00314400      -0.00060800       0.00000600
Cu      12.55124000       5.00609000      15.38233000  T       0.01318400       0.00012100      -0.00608800
Cu       2.45986000       5.00696000      15.35694000  T       0.01114200       0.00033100      -0.00283200
Pd       4.98658000       5.00535000      15.52972000  T       0.01804200      -0.00018900      -0.00488000
Y        7.59948000       5.00468000      17.28330000  T       0.00476800      -0.00037600       0.00363600
Cu      10.10286000       5.01211000      15.52507000  T       0.01760500       0.00069900       0.01260000
Cu       0.02827000       7.51939000      15.34770000  T       0.00153800      -0.00127400      -0.00145400
Cu       2.48690000       7.50609000      15.36168000  T       0.00192500       0.00022700      -0.00090800
Cu       4.95044000       7.58830000      15.49428000  T       0.00345400      -0.00061500      -0.00006200
Cu       7.43616000       7.52977000      15.43048000  T       0.00599000      -0.00233500       0.00027900
Cu      10.08163000       7.59654000      15.39050000  T       0.00325600       0.00040800      -0.00012500
Cu      -0.00144000      10.00952000      15.36537000  T      -0.00105300      -0.00062500      -0.00157900
Cu       2.51205000      10.00652000      15.36993000  T      -0.00099000       0.00010400      -0.00085800
Cu       5.01212000      10.03807000      15.36215000  T      -0.00109400      -0.00025700      -0.00029800
Cu       7.50937000      10.03447000      15.33653000  T      -0.00069500      -0.00089900      -0.00036000
Cu      10.01565000      10.04380000      15.33992000  T      -0.00088600      -0.00025700      -0.00155900
O        6.07599000       3.44045000      16.68449000  T       0.00642100      -0.00167500      -0.00115100
O        6.07719000       6.56993000      16.68297000  T       0.00705300       0.00056800      -0.00142100
O        8.84825000       6.47668000      16.28924000  T       0.00649300      -0.00103400       0.00282400
O        8.84178000       3.54590000      16.26472000  T       0.00482100       0.00268700      -0.00262700
C        9.95828000       4.95940000      18.42208000  T      -0.01043000      -0.00105700       0.02026200
O       10.32172000       4.87389000      19.73114000  T      -0.01853900       0.00549300       0.02610800
O       10.92623000       4.98320000      17.60955000  T      -0.00076500      -0.00344200       0.02392900
H       11.31333000       4.84238000      19.75472000  T      -0.01692300       0.00773800       0.02919500
108
Lattice="12.515153631 0.0 0.0 0.0 12.515153631 0.0 0.0 0.0 25.30973" Properties=species:S:1:pos:R:3:move_mask:L:1:forces:R:3 stress="0.007627879374433573 -7.957924135501154e-06 -6.016814797351461e-05 -7.957924135501154e-06 0.007510133304773786 -7.570950569696392e-06 -6.016814797351461e-05 -7.570950569696392e-06 0.0017297531146199085" free_energy=-444.1600041 energy=-444.15617637 pbc="T T T"
Cu       1.25152000       1.25152000      10.00000000  F      -0.00111700      -0.01787800      -0.07578500
Cu       3.75455000       1.25152000      10.00000000  F       0.01175100       0.00297500      -0.07412800
Cu       6.25758000       1.25152000      10.00000000  F      -0.01723700       0.01217000      -0.06171400
Cu       8.76061000       1.25152000      10.00000000  F       0.01099500       0.01266400      -0.05138900
Cu      11.26364000       1.25152000      10.00000000  F      -0.00493800       0.00466100      -0.07286100
Cu       1.25152000       3.75455000      10.00000000  F      -0.00285300       0.00670100      -0.06820200
Cu       3.75455000       3.75455000      10.00000000  F       0.01593700      -0.01527400      -0.05976500
Cu       6.25758000       3.75455000      10.00000000  F      -0.01956800      -0.01505400      -0.07988800
Cu       8.76061000       3.75455000      10.00000000  F       0.01904200      -0.01661300      -0.09079700
Cu      11.26364000       3.75455000      10.00000000  F      -0.01157500      -0.00272400      -0.05579900
Cu       1.25152000       6.25758000      10.00000000  F      -0.00385700      -0.00530400      -0.07033900
Cu       3.75455000       6.25758000      10.00000000  F       0.01743700       0.01600500      -0.06028500
Cu       6.25758000       6.25758000      10.00000000  F      -0.01953200       0.01707600      -0.08255800
Cu       8.76061000       6.25758000      10.00000000  F       0.01771600       0.01719200      -0.09070200
Cu      11.26364000       6.25758000      10.00000000  F      -0.01094800       0.00421200      -0.05747600
Cu       1.25152000       8.76061000      10.00000000  F      -0.00115400       0.01446500      -0.07438400
Cu       3.75455000       8.76061000      10.00000000  F       0.01092700      -0.00543700      -0.07310300
Cu       6.25758000       8.76061000      10.00000000  F      -0.01737400      -0.01650800      -0.05955300
Cu       8.76061000       8.76061000      10.00000000  F       0.01184500      -0.01497400      -0.05043500
Cu      11.26364000       8.76061000      10.00000000  F      -0.00501500      -0.00827600      -0.07219300
Cu       1.25152000      11.26364000      10.00000000  F      -0.00989600       0.00177100      -0.02050000
Cu       3.75455000      11.26364000      10.00000000  F      -0.00500800       0.00149000      -0.07391100
Cu       6.25758000      11.26364000      10.00000000  F      -0.00668300       0.00208100      -0.07639600
Cu       8.76061000      11.26364000      10.00000000  F      -0.00154100       0.00131500      -0.06320300
Cu      11.26364000      11.26364000      10.00000000  F       0.01953600       0.00166500      -0.07570900
Cu       0.00000000       0.00000000      11.76991000  F       0.00012100       0.04379600       0.03289700
Cu       2.50303000       0.00000000      11.76991000  F       0.04764400       0.01777400       0.06437400
Cu       5.00606000       0.00000000      11.76991000  F       0.00809800       0.07452900       0.04651800
Cu       7.50909000       0.00000000      11.76991000  F      -0.01947300       0.05921400       0.02860900
Cu      10.01212000       0.00000000      11.76991000  F      -0.04053700       0.07792100       0.04300900
Cu       0.00000000       2.50303000      11.76991000  F      -0.06086800       0.04559800       0.05974400
Cu       2.50303000       2.50303000      11.76991000  F       0.06199900       0.04524300       0.06841700
Cu       5.00606000       2.50303000      11.76991000  F      -0.05146000      -0.04841900       0.02988700
Cu       7.50909000       2.50303000      11.76991000  F      -0.01367400       0.02151800       0.11414700
Cu      10.01212000       2.50303000      11.76991000  F       0.02742300      -0.00091200       0.08254100
Cu       0.00000000       5.00606000      11.76991000  F      -0.07636100       0.00222500       0.03111600
Cu       2.50303000       5.00606000      11.76991000  F       0.08203600       0.00143400       0.09698400
Cu       5.00606000       5.00606000      11.76991000  F      -0.08294600       0.00295500       0.08274100
Cu       7.50909000       5.00606000      11.76991000  F       0.00131200       0.00122100       0.14835200
Cu      10.01212000       5.00606000      11.76991000  F       0.01590300      -0.00008300       0.11558000
Cu       0.00000000       7.50909000      11.76991000  F      -0.06008400      -0.04803000       0.06061700
Cu       2.50303000       7.50909000      11.76991000  F       0.06197900      -0.04749000       0.06908900
Cu       5.00606000       7.50909000      11.76991000  F      -0.04762900       0.04294300       0.03328000
Cu       7.50909000       7.50909000      11.76991000  F      -0.01504400      -0.02459700       0.11502100
Cu      10.01212000       7.50909000      11.76991000  F       0.03094100       0.00282200       0.07758000
Cu       0.00000000      10.01212000      11.76991000  F       0.00022900      -0.04283400       0.03172300
Cu       2.50303000      10.01212000      11.76991000  F       0.04822500      -0.01723200       0.06552300
Cu       5.00606000      10.01212000      11.76991000  F       0.01011000      -0.07506400       0.04672300
Cu       7.50909000      10.01212000      11.76991000  F      -0.01855400      -0.05984400       0.02877500
Cu      10.01212000      10.01212000      11.76991000  F      -0.04183400      -0.07765000       0.04307300
Cu       1.25854000       1.24305000      13.57362000  T      -0.00034200       0.00059900      -0.00141500
Cu       3.76653000       1.26171000      13.60392000  T       0.00023900       0.00073900      -0.00041100
Cu       6.24948000       1.26964000      13.60157000  T       0.00035200       0.00016100      -0.00000400
Cu       8.73932000       1.27231000      13.59447000  T      -0.00035400       0.00099800      -0.00058300
Cu      11.25969000       1.25593000      13.58298000  T      -0.00090500       0.00111000      -0.00112900
Cu       1.24453000       3.75594000      13.57400000  T       0.00559300      -0.00028900      -0.00284400
Cu       3.76696000       3.74789000      13.60659000  T       0.00604700      -0.00042000      -0.00122800
Cu       6.25667000       3.76464000      13.56303000  T       0.00599300      -0.00196400      -0.00302400
Cu       8.74945000       3.77535000      13.58029000  T       0.00505100       0.00165500       0.00308900
Cu      11.24513000       3.76986000      13.60842000  T       0.00242300       0.00164200       0.00058500
Cu       1.24471000       6.25622000      13.57400000  T       0.00562600       0.00050600      -0.00287200
Cu       3.76775000       6.26437000      13.60632000  T       0.00615300       0.00051000      -0.00113400
Cu       6.25843000       6.24582000      13.56405000  T       0.00637300       0.00178500      -0.00292300
Cu       8.75089000       6.23808000      13.57907000  T       0.00530500      -0.00135900       0.00258300
Cu      11.24555000       6.24377000      13.60799000  T       0.00249500      -0.00166600       0.00040400
Cu       1.25865000       8.76843000      13.57388000  T      -0.00024900      -0.00045400      -0.00130500
Cu       3.76703000       8.75060000      13.60377000  T       0.00040700      -0.00059700      -0.00050400
Cu       6.25079000       8.74077000      13.60230000  T       0.00076100      -0.00081900       0.00020600
Cu       8.74016000       8.73943000      13.59521000  T      -0.00026800      -0.00127400      -0.00065700
Cu      11.25940000       8.75613000      13.58347000  T      -0.00080100      -0.00129100      -0.00111900
Cu       1.25486000      11.26376000      13.59468000  T      -0.00075400      -0.00000700      -0.00149600
Cu       3.74808000      11.26397000      13.57773000  T      -0.00042100       0.00006600      -0.00117300
Cu       6.25314000      11.26339000      13.56311000  T      -0.00108100      -0.00026500      -0.00097700
Cu       8.76218000      11.26363000      13.56168000  T      -0.00174300      -0.00017300      -0.00173500
Cu      11.27950000      11.26387000      13.56704000  T      -0.00144600      -0.00014600      -0.00210700
Cu      -0.00142000       0.00325000      15.36592000  T      -0.00196100       0.00058500      -0.00234500
Cu       2.51185000       0.00724000      15.37045000  T      -0.00190600      -0.00001900      -0.00123400
Cu       5.01198000      12.48739000      15.36269000  T      -0.00219900       0.00023900      -0.00050500
Cu       7.50933000      12.49029000      15.33667000  T      -0.00176100       0.00064300      -0.00073100
Cu      10.01569000      12.48429000      15.34010000  T      -0.00152400       0.00012300      -0.00227900
Cu       0.02748000       2.49218000      15.34774000  T       0.00156400       0.00139200      -0.00230500
Cu       2.48516000       2.50669000      15.36206000  T       0.00185800      -0.00016100      -0.00157600
Cu       4.94763000       2.42228000      15.49572000  T       0.00320100       0.00022700       0.00014100
Cu       7.43062000       2.47820000      15.42800000  T       0.00470900       0.00195500       0.00046000
Cu      10.08112000       2.41622000      15.38621000  T       0.00294700       0.00026700      -0.00007700
Cu      12.54933000       5.00610000      15.38321000  T       0.01747500      -0.00007600      -0.00868000
Cu       2.45783000       5.00694000      15.35734000  T       0.01993800       0.00030100      -0.00387200
Pd       4.98577000       5.00537000      15.52990000  T       0.02755000      -0.00052800      -0.00918100
Y        7.59876000       5.00472000      17.28319000  T       0.01523200      -0.00038500       0.00602400
Cu      10.10060000       5.01207000      15.52318000  T       0.01928800       0.00027200       0.01744700
Cu       0.02801000       7.51957000      15.34790000  T       0.00144500      -0.00174700      -0.00212700
Cu       2.48657000       7.50603000      15.36181000  T       0.00193500       0.00071300      -0.00142000
Cu       4.94994000       7.58837000      15.49429000  T       0.00361600      -0.00057900      -0.00014400
Cu       7.43541000       7.53018000      15.43039000  T       0.00586700      -0.00337700       0.00087900
Cu      10.08119000       7.59658000      15.39052000  T       0.00318700      -0.00048400      -0.00022800
Cu      -0.00136000      10.00958000      15.36556000  T      -0.00159700      -0.00058100      -0.00185900
Cu       2.51212000      10.00648000      15.37004000  T      -0.00154800       0.00042800      -0.00100200
Cu       5.01223000      10.03811000      15.36220000  T      -0.00202800      -0.00046800      -0.00045700
Cu       7.50943000      10.03462000      15.33662000  T      -0.00149200      -0.00138500      -0.00067000
Cu      10.01569000      10.04384000      15.34014000  T      -0.00118600      -0.00045200      -0.00215800
O        6.07482000       3.44068000      16.68474000  T       0.00862400      -0.00117400      -0.00091500
O        6.07596000       6.56985000      16.68331000  T       0.00914700      -0.00007400      -0.00098600
O        8.84694000       6.47701000      16.28895000  T       0.00934000      -0.00237400       0.00209900
O        8.84075000       3.54523000      16.26517000  T       0.00768700       0.00422600      -0.00354900
C        9.95936000       4.95964000      18.41912000  T      -0.00749900      -0.00174000       0.02208100
O       10.32446000       4.87299000      19.72757000  T      -0.02720800       0.00574800       0.03014800
O       10.92689000       4.98372000      17.60576000  T      -0.01137400      -0.00372300       0.03139700
H       11.31596000       4.84111000      19.74908000  T      -0.01022500       0.00772000       0.03415100
108
Lattice="12.515153631 0.0 0.0 0.0 12.515153631 0.0 0.0 0.0 25.30973" Properties=species:S:1:pos:R:3:move_mask:L:1:forces:R:3 stress="0.007634620204289528 -8.014097717634104e-06 -5.522487274581507e-05 -8.014097717634104e-06 0.007515944149769984 -6.260233653260909e-06 -5.522487274581507e-05 -6.260233653260909e-06 0.0017363379067477152" free_energy=-444.16089466 energy=-444.15706557 pbc="T T T"
Cu       1.25152000       1.25152000      10.00000000  F      -0.00104600      -0.01786300      -0.07576500
Cu       3.75455000       1.25152000      10.00000000  F       0.01178400       0.00297500      -0.07416300
Cu       6.25758000       1.25152000      10.00000000  F      -0.01726500       0.01218200      -0.06182300
Cu       8.76061000       1.25152000      10.00000000  F       0.01096400       0.01271400      -0.05140100
Cu      11.26364000       1.25152000      10.00000000  F      -0.00488900       0.00470000      -0.07287700
Cu       1.25152000       3.75455000      10.00000000  F      -0.00280500       0.00667300      -0.06821200
Cu       3.75455000       3.75455000      10.00000000  F       0.01595500      -0.01530700      -0.05977900
Cu       6.25758000       3.75455000      10.00000000  F      -0.01956600      -0.01506900      -0.07988800
Cu       8.76061000       3.75455000      10.00000000  F       0.01905000      -0.01659100      -0.09082900
Cu      11.26364000       3.75455000      10.00000000  F      -0.01156200      -0.00273000      -0.05580200
Cu       1.25152000       6.25758000      10.00000000  F      -0.00379300      -0.00534600      -0.07034300
Cu       3.75455000       6.25758000      10.00000000  F       0.01747600       0.01600100      -0.06027800
Cu       6.25758000       6.25758000      10.00000000  F      -0.01953000       0.01705300      -0.08249100
Cu       8.76061000       6.25758000      10.00000000  F       0.01769300       0.01714200      -0.09069700
Cu      11.26364000       6.25758000      10.00000000  F      -0.01094300       0.00414300      -0.05746800
Cu       1.25152000       8.76061000      10.00000000  F      -0.00106800       0.01447500      -0.07438100
Cu       3.75455000       8.76061000      10.00000000  F       0.01096900      -0.00542200      -0.07305900
Cu       6.25758000       8.76061000      10.00000000  F      -0.01740400      -0.01650600      -0.05948300
Cu       8.76061000       8.76061000      10.00000000  F       0.01180400      -0.01500800      -0.05038700
Cu      11.26364000       8.76061000      10.00000000  F      -0.00498000      -0.00828200      -0.07219000
Cu       1.25152000      11.26364000      10.00000000  F      -0.00981400       0.00179300      -0.02049200
Cu       3.75455000      11.26364000      10.00000000  F      -0.00498200       0.00148200      -0.07382900
Cu       6.25758000      11.26364000      10.00000000  F      -0.00673100       0.00208200      -0.07639800
Cu       8.76061000      11.26364000      10.00000000  F      -0.00158500       0.00130400      -0.06321300
Cu      11.26364000      11.26364000      10.00000000  F       0.01960600       0.00168100      -0.07575500
Cu       0.00000000       0.00000000      11.76991000  F       0.00023500       0.04390900       0.03286000
Cu       2.50303000       0.00000000      11.76991000  F       0.04787600       0.01783900       0.06433600
Cu       5.00606000       0.00000000      11.76991000  F       0.00816500       0.07459700       0.04645200
Cu       7.50909000       0.00000000      11.76991000  F      -0.01960000       0.05935400       0.02847200
Cu      10.01212000       0.00000000      11.76991000  F      -0.04066400       0.07807800       0.04290300
Cu       0.00000000       2.50303000      11.76991000  F      -0.06078600       0.04569100       0.05976900
Cu       2.50303000       2.50303000      11.76991000  F       0.06248400       0.04513800       0.06818000
Cu       5.00606000       2.50303000      11.76991000  F      -0.05122800      -0.04856800       0.02960800
Cu       7.50909000       2.50303000      11.76991000  F      -0.01334100       0.02153200       0.11401700
Cu      10.01212000       2.50303000      11.76991000  F       0.02742800      -0.00066500       0.08262400
Cu       0.00000000       5.00606000      11.76991000  F      -0.07613800       0.00218000       0.03112600
Cu       2.50303000       5.00606000      11.76991000  F       0.08263700       0.00139800       0.09666600
Cu       5.00606000       5.00606000      11.76991000  F      -0.08248400       0.00291900       0.08260100
Cu       7.50909000       5.00606000      11.76991000  F       0.00199600       0.00117300       0.14836200
Cu      10.01212000       5.00606000      11.76991000  F       0.01598600      -0.00012600       0.11565400
Cu       0.00000000       7.50909000      11.76991000  F      -0.05999500      -0.04815000       0.06058600
Cu       2.50303000       7.50909000      11.76991000  F       0.06245200      -0.04742400       0.06881200
Cu       5.00606000       7.50909000      11.76991000  F      -0.04738000       0.04302400       0.03301200
Cu       7.50909000       7.50909000      11.76991000  F      -0.01471700      -0.02464900       0.11480900
Cu      10.01212000       7.50909000      11.76991000  F       0.03099700       0.00254900       0.07759700
Cu       0.00000000      10.01212000      11.76991000  F       0.00035500      -0.04291200       0.03164100
Cu       2.50303000      10.01212000      11.76991000  F       0.04843700      -0.01723900       0.06544700
Cu       5.00606000      10.01212000      11.76991000  F       0.01017400      -0.07508600       0.04660300
Cu       7.50909000      10.01212000      11.76991000  F      -0.01868000      -0.05997800       0.02862300
Cu      10.01212000      10.01212000      11.76991000  F      -0.04192700      -0.07779200       0.04293400
Cu       1.25856000       1.24307000      13.57356000  T      -0.00034900       0.00033600      -0.00099900
Cu       3.76658000       1.26175000      13.60390000  T       0.00014400       0.00034600      -0.00036800
Cu       6.24953000       1.26965000      13.60157000  T       0.00020400       0.00003100       0.00011600
Cu       8.73932000       1.27235000      13.59445000  T      -0.00034100       0.00101200      -0.00022600
Cu      11.25967000       1.25597000      13.58293000  T      -0.00070200       0.00090800      -0.00092200
Cu       1.24477000       3.75594000      13.57389000  T       0.00548800      -0.00036200      -0.00235200
Cu       3.76722000       3.74789000      13.60655000  T       0.00570800      -0.00070900      -0.00148100
Cu       6.25692000       3.76457000      13.56294000  T       0.00546700      -0.00135800      -0.00262600
Cu       8.74965000       3.77541000      13.58040000  T       0.00471200       0.00153200       0.00280300
Cu      11.24524000       3.76993000      13.60844000  T       0.00261300       0.00140500       0.00075000
Cu       1.24495000       6.25624000      13.57389000  T       0.00551000       0.00053500      -0.00237200
Cu       3.76802000       6.26439000      13.60628000  T       0.00587000       0.00071300      -0.00137000
Cu       6.25869000       6.24589000      13.56396000  T       0.00583200       0.00108000      -0.00250200
Cu       8.75110000       6.23804000      13.57917000  T       0.00499900      -0.00133200       0.00233600
Cu      11.24566000       6.24370000      13.60801000  T       0.00264900      -0.00154800       0.00066200
Cu       1.25867000       8.76840000      13.57382000  T      -0.00028700      -0.00021100      -0.00088000
Cu       3.76709000       8.75056000      13.60375000  T       0.00032100      -0.00020100      -0.00043900
Cu       6.25086000       8.74074000      13.60231000  T       0.00052800      -0.00057100       0.00032900
Cu       8.74017000       8.73938000      13.59517000  T      -0.00017600      -0.00122100      -0.00022800
Cu      11.25938000       8.75608000      13.58342000  T      -0.00054200      -0.00100100      -0.00090700
Cu       1.25486000      11.26376000      13.59461000  T      -0.00075100       0.00005000      -0.00104700
Cu       3.74810000      11.26396000      13.57769000  T      -0.00063600       0.00010400      -0.00088900
Cu       6.25314000      11.26338000      13.56306000  T      -0.00118300      -0.00019500      -0.00048600
Cu       8.76214000      11.26362000      13.56159000  T      -0.00172500      -0.00013700      -0.00100800
Cu      11.27946000      11.26386000      13.56693000  T      -0.00125600      -0.00010800      -0.00138600
Cu      -0.00145000       0.00327000      15.36585000  T      -0.00187300       0.00063300      -0.00253000
Cu       2.51182000       0.00724000      15.37042000  T      -0.00192900       0.00005200      -0.00145800
Cu       5.01194000      12.48741000      15.36268000  T      -0.00213200       0.00001200      -0.00059800
Cu       7.50929000      12.49031000      15.33664000  T      -0.00159900       0.00038800      -0.00071000
Cu      10.01567000      12.48430000      15.34003000  T      -0.00152600       0.00005900      -0.00223000
Cu       0.02757000       2.49223000      15.34767000  T       0.00164200       0.00127800      -0.00237000
Cu       2.48526000       2.50668000      15.36201000  T       0.00163500      -0.00008000      -0.00164500
Cu       4.94777000       2.42229000      15.49574000  T       0.00293000      -0.00001600       0.00000200
Cu       7.43080000       2.47829000      15.42803000  T       0.00498000       0.00156000       0.00019700
Cu      10.08125000       2.41623000      15.38621000  T       0.00333400      -0.00032600      -0.00025900
Cu      12.55000000       5.00610000      15.38291000  T       0.01696400      -0.00016500      -0.00814800
Cu       2.45863000       5.00695000      15.35721000  T       0.01672500       0.00016600      -0.00378400
Pd       4.98609000       5.00536000      15.52981000  T       0.02990400      -0.00057100      -0.00930800
Y        7.59909000       5.00471000      17.28323000  T       0.01413200      -0.00056100       0.00645600
Cu      10.10131000       5.01208000      15.52384000  T       0.01982300       0.00036200       0.01590700
Cu       0.02809000       7.51951000      15.34784000  T       0.00149100      -0.00170100      -0.00208100
Cu       2.48668000       7.50606000      15.36177000  T       0.00179500       0.00055200      -0.00135700
Cu       4.95010000       7.58834000      15.49429000  T       0.00347000      -0.00051900      -0.00018100
Cu       7.43562000       7.53003000      15.43044000  T       0.00636400      -0.00324300       0.00074200
Cu      10.08133000       7.59656000      15.39051000  T       0.00316100      -0.00015900      -0.00030200
Cu      -0.00139000      10.00955000      15.36550000  T      -0.00155300      -0.00049800      -0.00199400
Cu       2.51210000      10.00649000      15.37001000  T      -0.00157700       0.00052300      -0.00120700
Cu       5.01219000      10.03808000      15.36219000  T      -0.00193100      -0.00016600      -0.00056400
Cu       7.50940000      10.03456000      15.33659000  T      -0.00134700      -0.00110000      -0.00067300
Cu      10.01568000      10.04382000      15.34006000  T      -0.00124900      -0.00028000      -0.00214300
O        6.07517000       3.44065000      16.68465000  T       0.00832800      -0.00109200      -0.00026200
O        6.07633000       6.56985000      16.68319000  T       0.00880200       0.00024700      -0.00076000
O        8.84736000       6.47689000      16.28903000  T       0.00824800      -0.00110300       0.00190300
O        8.84109000       3.54546000      16.26504000  T       0.00672500       0.00331400      -0.00324900
C        9.95901000       4.95955000      18.42005000  T      -0.00744900      -0.00140000       0.02104000
O       10.32356000       4.87326000      19.72869000  T      -0.01788000       0.00542100       0.02960800
O       10.92664000       4.98357000      17.60686000  T      -0.01100500      -0.00375700       0.03257600
H       11.31526000       4.84152000      19.75100000  T      -0.01912400       0.00800800       0.03218300
108
Lattice="12.515153631 0.0 0.0 0.0 12.515153631 0.0 0.0 0.0 25.30973" Properties=species:S:1:pos:R:3:move_mask:L:1:forces:R:3 stress="0.00759164741395782 -9.761720272881416e-06 -1.5079486048133952e-05 -9.761720272881416e-06 0.007484212317373992 -1.2801335217186564e-05 -1.5079486048133952e-05 -1.2801335217186564e-05 0.001704849493207634" free_energy=-444.16644243 energy=-444.16260725 pbc="T T T"
Cu       1.25152000       1.25152000      10.00000000  F      -0.00023500      -0.01784200      -0.07534500
Cu       3.75455000       1.25152000      10.00000000  F       0.01189400       0.00318700      -0.07362600
Cu       6.25758000       1.25152000      10.00000000  F      -0.01753600       0.01228900      -0.06166800
Cu       8.76061000       1.25152000      10.00000000  F       0.01092100       0.01272000      -0.05167000
Cu      11.26364000       1.25152000      10.00000000  F      -0.00423200       0.00457400      -0.07306500
Cu       1.25152000       3.75455000      10.00000000  F      -0.00173600       0.00646000      -0.06785800
Cu       3.75455000       3.75455000      10.00000000  F       0.01604200      -0.01553400      -0.05935300
Cu       6.25758000       3.75455000      10.00000000  F      -0.02003400      -0.01523900      -0.07950800
Cu       8.76061000       3.75455000      10.00000000  F       0.01896000      -0.01679000      -0.09183300
Cu      11.26364000       3.75455000      10.00000000  F      -0.01093700      -0.00282500      -0.05640100
Cu       1.25152000       6.25758000      10.00000000  F      -0.00278600      -0.00549000      -0.07000100
Cu       3.75455000       6.25758000      10.00000000  F       0.01763500       0.01594100      -0.05990800
Cu       6.25758000       6.25758000      10.00000000  F      -0.02003300       0.01689500      -0.08236500
Cu       8.76061000       6.25758000      10.00000000  F       0.01760200       0.01688400      -0.09194800
Cu      11.26364000       6.25758000      10.00000000  F      -0.01031300       0.00388200      -0.05830300
Cu       1.25152000       8.76061000      10.00000000  F      -0.00027600       0.01455800      -0.07414000
Cu       3.75455000       8.76061000      10.00000000  F       0.01107700      -0.00563600      -0.07280400
Cu       6.25758000       8.76061000      10.00000000  F      -0.01775000      -0.01658200      -0.05988600
Cu       8.76061000       8.76061000      10.00000000  F       0.01172800      -0.01485400      -0.05118100
Cu      11.26364000       8.76061000      10.00000000  F      -0.00422000      -0.00807600      -0.07300500
Cu       1.25152000      11.26364000      10.00000000  F      -0.00921300       0.00199600      -0.02048200
Cu       3.75455000      11.26364000      10.00000000  F      -0.00493600       0.00175100      -0.07300900
Cu       6.25758000      11.26364000      10.00000000  F      -0.00698900       0.00234900      -0.07664600
Cu       8.76061000      11.26364000      10.00000000  F      -0.00164800       0.00155700      -0.06408800
Cu      11.26364000      11.26364000      10.00000000  F       0.02038300       0.00189100      -0.07635800
Cu       0.00000000       0.00000000      11.76991000  F       0.00157900       0.04453700       0.03112200
Cu       2.50303000       0.00000000      11.76991000  F       0.04900700       0.01858800       0.06320700
Cu       5.00606000       0.00000000      11.76991000  F       0.00806900       0.07507100       0.04574500
Cu       7.50909000       0.00000000      11.76991000  F      -0.02033200       0.06063100       0.02763300
Cu      10.01212000       0.00000000      11.76991000  F      -0.04092500       0.07900300       0.04128300
Cu       0.00000000       2.50303000      11.76991000  F      -0.05878600       0.04598500       0.05897700
Cu       2.50303000       2.50303000      11.76991000  F       0.06663300       0.04356700       0.06526000
Cu       5.00606000       2.50303000      11.76991000  F      -0.04922200      -0.04974700       0.02767500
Cu       7.50909000       2.50303000      11.76991000  F      -0.01072700       0.02145200       0.11302600
Cu      10.01212000       2.50303000      11.76991000  F       0.02863700       0.00115600       0.08288400
Cu       0.00000000       5.00606000      11.76991000  F      -0.07239900       0.00169500       0.03077500
Cu       2.50303000       5.00606000      11.76991000  F       0.08867300       0.00093300       0.09360900
Cu       5.00606000       5.00606000      11.76991000  F      -0.07887000       0.00250100       0.08105200
Cu       7.50909000       5.00606000      11.76991000  F       0.00815700       0.00038400       0.14818700
Cu      10.01212000       5.00606000      11.76991000  F       0.01799100      -0.00096500       0.11606000
Cu       0.00000000       7.50909000      11.76991000  F      -0.05788300      -0.04874300       0.05982800
Cu       2.50303000       7.50909000      11.76991000  F       0.06667900      -0.04615100       0.06611400
Cu       5.00606000       7.50909000      11.76991000  F      -0.04515300       0.04369700       0.03113000
Cu       7.50909000       7.50909000      11.76991000  F      -0.01223900      -0.02477700       0.11335000
Cu      10.01212000       7.50909000      11.76991000  F       0.03266100       0.00067400       0.07724400
Cu       0.00000000      10.01212000      11.76991000  F       0.00173100      -0.04287800       0.02993700
Cu       2.50303000      10.01212000      11.76991000  F       0.04963400      -0.01712700       0.06454500
Cu       5.00606000      10.01212000      11.76991000  F       0.01037500      -0.07509100       0.04608300
Cu       7.50909000      10.01212000      11.76991000  F      -0.01938900      -0.06083500       0.02766800
Cu      10.01212000      10.01212000      11.76991000  F      -0.04223800      -0.07815300       0.04123100
Cu       1.25872000       1.24319000      13.57314000  T       0.00089100      -0.00069300       0.00070700
Cu       3.76698000       1.26189000      13.60378000  T      -0.00049400      -0.00119600      -0.00002100
Cu       6.24993000       1.26968000      13.60161000  T      -0.00177400      -0.00008900       0.00051000
Cu       8.73946000       1.27272000      13.59434000  T      -0.00020400       0.00061100       0.00046300
Cu      11.25967000       1.25626000      13.58250000  T       0.00157600      -0.00057500      -0.00076600
Cu       1.24721000       3.75575000      13.57291000  T       0.00554500      -0.00156200      -0.00127500
Cu       3.76975000       3.74763000      13.60599000  T       0.00346000      -0.00142500      -0.00097100
Cu       6.25916000       3.76418000      13.56218000  T       0.00092300       0.00096400       0.00036400
Cu       8.75157000       3.77593000      13.58146000  T       0.00195200       0.00035800       0.00095400
Cu      11.24654000       3.77044000      13.60869000  T       0.00426900      -0.00023500       0.00045600
Cu       1.24740000       6.25646000      13.57293000  T       0.00562900       0.00116300      -0.00105000
Cu       3.77060000       6.26464000      13.60576000  T       0.00366400       0.00097400      -0.00113200
Cu       6.26110000       6.24617000      13.56325000  T       0.00125000      -0.00191300       0.00067400
Cu       8.75314000       6.23759000      13.58002000  T       0.00237900      -0.00076000       0.00039300
Cu      11.24697000       6.24313000      13.60824000  T       0.00419700      -0.00052900       0.00045800
Cu       1.25887000       8.76831000      13.57348000  T       0.00096100       0.00107100       0.00070700
Cu       3.76757000       8.75045000      13.60362000  T      -0.00038100       0.00148600       0.00018300
Cu       6.25141000       8.74045000      13.60245000  T      -0.00120900      -0.00024000       0.00100100
Cu       8.74037000       8.73890000      13.59506000  T       0.00006500      -0.00057800       0.00083500
Cu      11.25943000       8.75572000      13.58301000  T       0.00170700       0.00075900      -0.00052300
Cu       1.25479000      11.26377000      13.59416000  T       0.00000600       0.00041100       0.00048800
Cu       3.74815000      11.26399000      13.57737000  T      -0.00188200       0.00049300       0.00050800
Cu       6.25301000      11.26327000      13.56287000  T      -0.00273300       0.00029000       0.00112300
Cu       8.76175000      11.26355000      13.56114000  T      -0.00162200       0.00039400       0.00111700
Cu      11.27918000      11.26380000      13.56633000  T       0.00064500       0.00039200       0.00084400
Cu      -0.00190000       0.00346000      15.36500000  T      -0.00065800       0.00060300      -0.00208900
Cu       2.51140000       0.00723000      15.36995000  T      -0.00118400       0.00041900      -0.00219500
Cu       5.01146000      12.48740000      15.36248000  T      -0.00191700      -0.00047600      -0.00122500
Cu       7.50897000      12.49047000      15.33635000  T      -0.00183000      -0.00047400      -0.00030600
Cu      10.01530000      12.48430000      15.33919000  T      -0.00135100      -0.00020200      -0.00120300
Cu       0.02849000       2.49274000      15.34691000  T       0.00326400       0.00088300      -0.00129600
Cu       2.48638000       2.50669000      15.36149000  T       0.00272900       0.00071600      -0.00162700
Cu       4.94936000       2.42238000      15.49576000  T       0.00324500       0.00041400      -0.00079100
Cu       7.43296000       2.47896000      15.42808000  T       0.00543100       0.00010800      -0.00152100
Cu      10.08283000       2.41616000      15.38619000  T       0.00458000      -0.00183900       0.00033300
Cu      12.55663000       5.00606000      15.37986000  T       0.01224800      -0.00016300      -0.00468200
Cu       2.46516000       5.00702000      15.35578000  T       0.00384300      -0.00041700      -0.00281500
Pd       4.98984000       5.00526000      15.52894000  T       0.01807600      -0.00119400      -0.00515900
Y        7.60133000       5.00456000      17.28384000  T       0.00338700      -0.00032100       0.00323400
Cu      10.10963000       5.01227000      15.53045000  T       0.02112400       0.00025800       0.01217900
Cu       0.02898000       7.51883000      15.34715000  T       0.00345200      -0.00129900      -0.00088300
Cu       2.48783000       7.50623000      15.36130000  T       0.00294600      -0.00043200      -0.00116600
Cu       4.95190000       7.58808000      15.49422000  T       0.00372900      -0.00059900      -0.00089800
Cu       7.43843000       7.52866000      15.43068000  T       0.00764000      -0.00145500      -0.00122500
Cu      10.08291000       7.59647000      15.39047000  T       0.00472800       0.00154500       0.00067600
Cu      -0.00172000      10.00936000      15.36479000  T      -0.00028400      -0.00026300      -0.00176500
Cu       2.51181000      10.00665000      15.36960000  T      -0.00100800       0.00040600      -0.00189300
Cu       5.01178000      10.03799000      15.36199000  T      -0.00186400       0.00062600      -0.00102800
Cu       7.50917000      10.03410000      15.33631000  T      -0.00160400       0.00015300       0.00011700
Cu      10.01543000      10.04371000      15.33928000  T      -0.00119100       0.00070300      -0.00077000
O        6.07933000       3.43968000      16.68380000  T       0.00578500      -0.00405900      -0.00169800
O        6.08071000       6.57024000      16.68208000  T       0.00632600       0.00117700      -0.00134800
O        8.85190000       6.47579000      16.29017000  T       0.00515000      -0.00069400       0.00650300
O        8.84462000       3.54772000      16.26337000  T       0.00262200       0.00291100      -0.00280500
C        9.95495000       4.95878000      18.43064000  T      -0.00841300      -0.00032100       0.02486500
O       10.31385000       4.87650000      19.74168000  T      -0.02669100       0.00735800       0.03009700
O       10.92471000       4.98165000      17.62063000  T      -0.00345400      -0.00533300       0.04329100
H       11.30556000       4.84595000      19.76983000  T      -0.02270600       0.00822300       0.02387600
108
Lattice="12.515153631 0.0 0.0 0.0 12.515153631 0.0 0.0 0.0 25.30973" Properties=species:S:1:pos:R:3:move_mask:L:1:forces:R:3 stress="0.007618279933397966 -9.923999510154382e-06 1.1752761684038176e-05 -9.923999510154382e-06 0.0075199387156105486 -1.0635531550505071e-05 1.1752761684038176e-05 -1.0635531550505071e-05 0.001743041287548914" free_energy=-444.16160988 energy=-444.15777419 pbc="T T T"
Cu       1.25152000       1.25152000      10.00000000  F      -0.00170400      -0.01827100      -0.07534500
Cu       3.75455000       1.25152000      10.00000000  F       0.01163900       0.00270600      -0.07474200
Cu       6.25758000       1.25152000      10.00000000  F      -0.01654800       0.01173900      -0.06214500
Cu       8.76061000       1.25152000      10.00000000  F       0.01176800       0.01225900      -0.05092200
Cu      11.26364000       1.25152000      10.00000000  F      -0.00476800       0.00412400      -0.07201000
Cu       1.25152000       3.75455000      10.00000000  F      -0.00324100       0.00637200      -0.06788500
Cu       3.75455000       3.75455000      10.00000000  F       0.01566100      -0.01574800      -0.06053900
Cu       6.25758000       3.75455000      10.00000000  F      -0.01897800      -0.01548400      -0.08016500
Cu       8.76061000       3.75455000      10.00000000  F       0.01998000      -0.01688500      -0.09137900
Cu      11.26364000       3.75455000      10.00000000  F      -0.01154200      -0.00289700      -0.05535700
Cu       1.25152000       6.25758000      10.00000000  F      -0.00429600      -0.00518400      -0.07014000
Cu       3.75455000       6.25758000      10.00000000  F       0.01724400       0.01638700      -0.06108900
Cu       6.25758000       6.25758000      10.00000000  F      -0.01896400       0.01741100      -0.08276800
Cu       8.76061000       6.25758000      10.00000000  F       0.01859500       0.01730600      -0.09119500
Cu      11.26364000       6.25758000      10.00000000  F      -0.01090000       0.00418600      -0.05706200
Cu       1.25152000       8.76061000      10.00000000  F      -0.00177900       0.01491200      -0.07404700
Cu       3.75455000       8.76061000      10.00000000  F       0.01086600      -0.00521800      -0.07368000
Cu       6.25758000       8.76061000      10.00000000  F      -0.01669700      -0.01609500      -0.05997400
Cu       8.76061000       8.76061000      10.00000000  F       0.01255100      -0.01446500      -0.05004200
Cu      11.26364000       8.76061000      10.00000000  F      -0.00482600      -0.00766900      -0.07160700
Cu       1.25152000      11.26364000      10.00000000  F      -0.01063900       0.00184300      -0.02039700
Cu       3.75455000      11.26364000      10.00000000  F      -0.00513800       0.00156600      -0.07348400
Cu       6.25758000      11.26364000      10.00000000  F      -0.00594400       0.00213000      -0.07672100
Cu       8.76061000      11.26364000      10.00000000  F      -0.00089400       0.00129200      -0.06303600
Cu      11.26364000      11.26364000      10.00000000  F       0.01986700       0.00168800      -0.07525700
Cu       0.00000000       0.00000000      11.76991000  F      -0.00000500       0.04411000       0.03069000
Cu       2.50303000       0.00000000      11.76991000  F       0.04769700       0.01822100       0.06285500
Cu       5.00606000       0.00000000      11.76991000  F       0.00897300       0.07436000       0.04552300
Cu       7.50909000       0.00000000      11.76991000  F      -0.01874700       0.06028300       0.02769900
Cu      10.01212000       0.00000000      11.76991000  F      -0.04106000       0.07865100       0.04121200
Cu       0.00000000       2.50303000      11.76991000  F      -0.06020900       0.04613100       0.05920700
Cu       2.50303000       2.50303000      11.76991000  F       0.06634500       0.04300200       0.06443000
Cu       5.00606000       2.50303000      11.76991000  F      -0.04770100      -0.05055900       0.02689200
Cu       7.50909000       2.50303000      11.76991000  F      -0.00755400       0.02121200       0.11326000
Cu      10.01212000       2.50303000      11.76991000  F       0.02939000       0.00184800       0.08392300
Cu       0.00000000       5.00606000      11.76991000  F      -0.07316000       0.00208400       0.03180000
Cu       2.50303000       5.00606000      11.76991000  F       0.08892000       0.00138900       0.09271900
Cu       5.00606000       5.00606000      11.76991000  F      -0.07692700       0.00299700       0.08066700
Cu       7.50909000       5.00606000      11.76991000  F       0.01286300       0.00072000       0.14876400
Cu      10.01212000       5.00606000      11.76991000  F       0.01921200      -0.00070000       0.11769100
Cu       0.00000000       7.50909000      11.76991000  F      -0.05915400      -0.04863300       0.06008000
Cu       2.50303000       7.50909000      11.76991000  F       0.06644900      -0.04530200       0.06542000
Cu       5.00606000       7.50909000      11.76991000  F      -0.04361300       0.04468800       0.03057400
Cu       7.50909000       7.50909000      11.76991000  F      -0.00922400      -0.02429500       0.11352000
Cu      10.01212000       7.50909000      11.76991000  F       0.03366800       0.00029300       0.07809700
Cu       0.00000000      10.01212000      11.76991000  F       0.00023200      -0.04312700       0.02948000
Cu       2.50303000      10.01212000      11.76991000  F       0.04835900      -0.01747200       0.06425000
Cu       5.00606000      10.01212000      11.76991000  F       0.01129400      -0.07520600       0.04592300
Cu       7.50909000      10.01212000      11.76991000  F      -0.01783900      -0.06130800       0.02784600
Cu      10.01212000      10.01212000      11.76991000  F      -0.04231700      -0.07848700       0.04112600
Cu       1.25880000       1.24321000      13.57302000  T      -0.00118300      -0.00087500       0.00100200
Cu       3.76712000       1.26190000      13.60373000  T      -0.00117100      -0.00195100      -0.00007200
Cu       6.25005000       1.26969000      13.60164000  T      -0.00017300      -0.00057300       0.00029000
Cu       8.73952000       1.27287000      13.59432000  T       0.00134900       0.00028000       0.00060200
Cu      11.25970000       1.25635000      13.58233000  T       0.00109600      -0.00083300      -0.00079700
Cu       1.24824000       3.75565000      13.57253000  T       0.00244800      -0.00115500      -0.00060100
Cu       3.77077000       3.74750000      13.60576000  T       0.00194200      -0.00095000      -0.00042200
Cu       6.26002000       3.76407000      13.56192000  T       0.00214500       0.00115800       0.00095000
Cu       8.75233000       3.77613000      13.58187000  T       0.00360500       0.00076700       0.00169400
Cu      11.24713000       3.77063000      13.60880000  T       0.00358700      -0.00013500       0.00108400
Cu       1.24843000       6.25658000      13.57256000  T       0.00268800       0.00148100      -0.00029000
Cu       3.77164000       6.26476000      13.60554000  T       0.00232700       0.00123300      -0.00047500
Cu       6.26203000       6.24622000      13.56302000  T       0.00257200      -0.00136000       0.00124700
Cu       8.75395000       6.23742000      13.58035000  T       0.00401600      -0.00052600       0.00117800
Cu      11.24756000       6.24291000      13.60835000  T       0.00349900       0.00002100       0.00108400
Cu       1.25896000       8.76831000      13.57337000  T      -0.00105000       0.00095400       0.00110100
Cu       3.76774000       8.75046000      13.60358000  T      -0.00094400       0.00195700       0.00018600
Cu       6.25159000       8.74034000      13.60253000  T       0.00029900       0.00003600       0.00086300
Cu       8.74046000       8.73871000      13.59505000  T       0.00167300      -0.00034100       0.00098300
Cu      11.25949000       8.75561000      13.58284000  T       0.00125900       0.00084900      -0.00052800
Cu       1.25475000      11.26378000      13.59402000  T      -0.00186300      -0.00001400       0.00050500
Cu       3.74812000      11.26400000      13.57727000  T      -0.00259800      -0.00001300       0.00033900
Cu       6.25290000      11.26324000      13.56284000  T      -0.00107500      -0.00027100       0.00115700
Cu       8.76156000      11.26353000      13.56102000  T      -0.00032100      -0.00012000       0.00112600
Cu      11.27909000      11.26379000      13.56614000  T      -0.00041000       0.00000100       0.00116600
Cu      -0.00209000       0.00354000      15.36465000  T      -0.00198900       0.00066900      -0.00199000
Cu       2.51122000       0.00724000      15.36974000  T      -0.00228500       0.00029100      -0.00096200
Cu       5.01125000      12.48738000      15.36239000  T      -0.00148000      -0.00098400      -0.00008400
Cu       7.50881000      12.49051000      15.33623000  T      -0.00040300      -0.00100000      -0.00013700
Cu      10.01513000      12.48430000      15.33886000  T      -0.00116600      -0.00024600      -0.00149300
Cu       0.02891000       2.49295000      15.34661000  T       0.00173600       0.00177600      -0.00087200
Cu       2.48687000       2.50671000      15.36127000  T       0.00125600       0.00089700      -0.00040900
Cu       4.95003000       2.42242000      15.49575000  T       0.00233400      -0.00068900      -0.00070300
Cu       7.43392000       2.47921000      15.42806000  T       0.00764000      -0.00056500      -0.00184000
Cu      10.08353000       2.41608000      15.38621000  T       0.00390100      -0.00005200       0.00104800
Cu      12.55935000       5.00604000      15.37863000  T       0.00766800       0.00016300      -0.00294900
Cu       2.46762000       5.00704000      15.35519000  T      -0.00099500      -0.00021500      -0.00196600
Pd       4.99167000       5.00521000      15.52852000  T       0.02090500      -0.00020200      -0.00555500
Y        7.60217000       5.00450000      17.28412000  T       0.00518500      -0.00075700       0.00331700
Cu      10.11325000       5.01236000      15.53321000  T       0.01997800       0.00078900       0.01414400
Cu       0.02940000       7.51855000      15.34688000  T       0.00198500      -0.00199000      -0.00091500
Cu       2.48833000       7.50628000      15.36111000  T       0.00160900      -0.00049300      -0.00042800
Cu       4.95267000       7.58797000      15.49418000  T       0.00352400       0.00002300      -0.00081900
Cu       7.43970000       7.52810000      15.43074000  T       0.01003700      -0.00113500      -0.00169900
Cu      10.08361000       7.59647000      15.39048000  T       0.00371700      -0.00049300       0.00129800
Cu      -0.00185000      10.00927000      15.36449000  T      -0.00165500      -0.00079900      -0.00197800
Cu       2.51168000      10.00672000      15.36941000  T      -0.00213000       0.00005000      -0.00105500
Cu       5.01160000      10.03797000      15.36191000  T      -0.00136000       0.00051900      -0.00020600
Cu       7.50905000      10.03394000      15.33621000  T      -0.00025200       0.00000300       0.00010100
Cu      10.01530000      10.04368000      15.33897000  T      -0.00119600       0.00028700      -0.00134200
O        6.08094000       3.43924000      16.68346000  T       0.00487300      -0.00332100       0.00290400
O        6.08241000       6.57042000      16.68164000  T       0.00464400       0.00245500       0.00200900
O        8.85364000       6.47541000      16.29074000  T       0.00641700       0.00049800       0.00272200
O        8.84593000       3.54859000      16.26271000  T       0.00432400       0.00274300      -0.00362500
C        9.95315000       4.95850000      18.43521000  T      -0.00532000       0.00001800       0.01602600
O       10.30982000       4.87785000      19.74709000  T      -0.02966600       0.00552900       0.02475600
O       10.92401000       4.98083000      17.62663000  T      -0.00705600      -0.00429600       0.03569000
H       11.30129000       4.84781000      19.77739000  T      -0.01570300       0.00800400       0.02098000
108
Lattice="12.515153631 0.0 0.0 0.0 12.515153631 0.0 0.0 0.0 25.30973" Properties=species:S:1:pos:R:3:move_mask:L:1:forces:R:3 stress="0.007692691205196745 -9.574474999104918e-06 3.457796055739325e-06 -9.574474999104918e-06 0.0075894753687820145 -9.037705214278958e-06 3.457796055739325e-06 -9.037705214278958e-06 0.0018295735700701594" free_energy=-444.16158583 energy=-444.15774471 pbc="T T T"
Cu       1.25152000       1.25152000      10.00000000  F      -0.00056400      -0.01772200      -0.07579300
Cu       3.75455000       1.25152000      10.00000000  F       0.01247300       0.00319700      -0.07441700
Cu       6.25758000       1.25152000      10.00000000  F      -0.01679800       0.01224600      -0.06165000
Cu       8.76061000       1.25152000      10.00000000  F       0.01113100       0.01283300      -0.05104900
Cu      11.26364000       1.25152000      10.00000000  F      -0.00461100       0.00474800      -0.07271400
Cu       1.25152000       3.75455000      10.00000000  F      -0.00217700       0.00678600      -0.06807500
Cu       3.75455000       3.75455000      10.00000000  F       0.01647800      -0.01536400      -0.06001100
Cu       6.25758000       3.75455000      10.00000000  F      -0.01917300      -0.01509000      -0.07951200
Cu       8.76061000       3.75455000      10.00000000  F       0.01939000      -0.01646300      -0.09121300
Cu      11.26364000       3.75455000      10.00000000  F      -0.01140300      -0.00246300      -0.05570800
Cu       1.25152000       6.25758000      10.00000000  F      -0.00324100      -0.00546900      -0.07022200
Cu       3.75455000       6.25758000      10.00000000  F       0.01802800       0.01609500      -0.06048900
Cu       6.25758000       6.25758000      10.00000000  F      -0.01915300       0.01709900      -0.08206300
Cu       8.76061000       6.25758000      10.00000000  F       0.01802200       0.01699800      -0.09096100
Cu      11.26364000       6.25758000      10.00000000  F      -0.01075000       0.00388900      -0.05732100
Cu       1.25152000       8.76061000      10.00000000  F      -0.00065500       0.01433100      -0.07434800
Cu       3.75455000       8.76061000      10.00000000  F       0.01166200      -0.00571500      -0.07324000
Cu       6.25758000       8.76061000      10.00000000  F      -0.01693600      -0.01660500      -0.05935800
Cu       8.76061000       8.76061000      10.00000000  F       0.01195000      -0.01507100      -0.05003300
Cu      11.26364000       8.76061000      10.00000000  F      -0.00465900      -0.00832800      -0.07211800
Cu       1.25152000      11.26364000      10.00000000  F      -0.00946800       0.00177000      -0.02087600
Cu       3.75455000      11.26364000      10.00000000  F      -0.00432600       0.00149300      -0.07340400
Cu       6.25758000      11.26364000      10.00000000  F      -0.00619700       0.00207000      -0.07623800
Cu       8.76061000      11.26364000      10.00000000  F      -0.00155600       0.00122800      -0.06312400
Cu      11.26364000      11.26364000      10.00000000  F       0.02002100       0.00160700      -0.07602900
Cu       0.00000000       0.00000000      11.76991000  F       0.00076800       0.04425000       0.03131600
Cu       2.50303000       0.00000000      11.76991000  F       0.04898800       0.01831200       0.06336500
Cu       5.00606000       0.00000000      11.76991000  F       0.00937100       0.07449900       0.04593000
Cu       7.50909000       0.00000000      11.76991000  F      -0.01950800       0.06038500       0.02809800
Cu      10.01212000       0.00000000      11.76991000  F      -0.04155100       0.07873900       0.04175300
Cu       0.00000000       2.50303000      11.76991000  F      -0.05960500       0.04663700       0.05940700
Cu       2.50303000       2.50303000      11.76991000  F       0.06720800       0.04360100       0.06490100
Cu       5.00606000       2.50303000      11.76991000  F      -0.04755000      -0.04997700       0.02725300
Cu       7.50909000       2.50303000      11.76991000  F      -0.00876800       0.02171100       0.11342200
Cu      10.01212000       2.50303000      11.76991000  F       0.02872500       0.00216700       0.08383600
Cu       0.00000000       5.00606000      11.76991000  F      -0.07277700       0.00223400       0.03164400
Cu       2.50303000       5.00606000      11.76991000  F       0.08951100       0.00151100       0.09312600
Cu       5.00606000       5.00606000      11.76991000  F      -0.07699600       0.00308500       0.08073800
Cu       7.50909000       5.00606000      11.76991000  F       0.01126500       0.00087000       0.14857800
Cu      10.01212000       5.00606000      11.76991000  F       0.01846400      -0.00051700       0.11725700
Cu       0.00000000       7.50909000      11.76991000  F      -0.05858300      -0.04904600       0.06028900
Cu       2.50303000       7.50909000      11.76991000  F       0.06723900      -0.04582200       0.06585000
Cu       5.00606000       7.50909000      11.76991000  F      -0.04350800       0.04420100       0.03091900
Cu       7.50909000       7.50909000      11.76991000  F      -0.01036900      -0.02473500       0.11374100
Cu      10.01212000       7.50909000      11.76991000  F       0.03299900       0.00004700       0.07810800
Cu       0.00000000      10.01212000      11.76991000  F       0.00099500      -0.04348600       0.03009900
Cu       2.50303000      10.01212000      11.76991000  F       0.04959900      -0.01776800       0.06472400
Cu       5.00606000      10.01212000      11.76991000  F       0.01163300      -0.07545100       0.04629400
Cu       7.50909000      10.01212000      11.76991000  F      -0.01857800      -0.06153400       0.02826300
Cu      10.01212000      10.01212000      11.76991000  F      -0.04276000      -0.07877600       0.04168500
Cu       1.25876000       1.24319000      13.57309000  T       0.00005500      -0.00058200       0.00096300
Cu       3.76705000       1.26187000      13.60375000  T      -0.00014000      -0.00145900       0.00001300
Cu       6.24999000       1.26968000      13.60163000  T      -0.00037900      -0.00033300       0.00047600
Cu       8.73950000       1.27282000      13.59433000  T       0.00048800       0.00034200       0.00061400
Cu      11.25970000       1.25630000      13.58239000  T       0.00092500      -0.00050000      -0.00044300
Cu       1.24788000       3.75567000      13.57267000  T       0.00327400      -0.00081900      -0.00078100
Cu       3.77041000       3.74753000      13.60584000  T       0.00265900      -0.00062200      -0.00049500
Cu       6.25971000       3.76413000      13.56203000  T       0.00191400       0.00067600       0.00001200
Cu       8.75207000       3.77606000      13.58173000  T       0.00265800       0.00100900       0.00105000
Cu      11.24695000       3.77055000      13.60877000  T       0.00300200       0.00020100       0.00067500
Cu       1.24808000       6.25656000      13.57270000  T       0.00344600       0.00131100      -0.00057100
Cu       3.77127000       6.26473000      13.60562000  T       0.00294700       0.00096100      -0.00051500
Cu       6.26169000       6.24617000      13.56313000  T       0.00224800      -0.00076100       0.00020600
Cu       8.75368000       6.23748000      13.58023000  T       0.00306200      -0.00068500       0.00057700
Cu      11.24738000       6.24299000      13.60832000  T       0.00300700      -0.00004600       0.00062300
Cu       1.25892000       8.76832000      13.57343000  T       0.00011600       0.00057900       0.00105700
Cu       3.76766000       8.75048000      13.60360000  T       0.00004500       0.00141400       0.00020300
Cu       6.25152000       8.74038000      13.60251000  T       0.00003400      -0.00016200       0.00094000
Cu       8.74044000       8.73878000      13.59507000  T       0.00085600      -0.00038700       0.00089000
Cu      11.25949000       8.75567000      13.58290000  T       0.00111400       0.00045900      -0.00020500
Cu       1.25475000      11.26378000      13.59409000  T      -0.00066200      -0.00009300       0.00075700
Cu       3.74810000      11.26400000      13.57731000  T      -0.00133800      -0.00009500       0.00048000
Cu       6.25291000      11.26325000      13.56287000  T      -0.00114900      -0.00032700       0.00130400
Cu       8.76162000      11.26353000      13.56109000  T      -0.00106400      -0.00020200       0.00137500
Cu      11.27912000      11.26380000      13.56623000  T      -0.00035900      -0.00017500       0.00137700
Cu      -0.00204000       0.00352000      15.36476000  T      -0.00122900       0.00050800      -0.00085200
Cu       2.51126000       0.00724000      15.36980000  T      -0.00120500       0.00022200      -0.00059200
Cu       5.01131000      12.48738000      15.36242000  T      -0.00104000      -0.00082800      -0.00034100
Cu       7.50886000      12.49048000      15.33628000  T      -0.00086500      -0.00089400      -0.00019600
Cu      10.01518000      12.48430000      15.33897000  T      -0.00123900      -0.00034900      -0.00074800
Cu       0.02878000       2.49289000      15.34672000  T       0.00241200       0.00121100      -0.00052200
Cu       2.48670000       2.50672000      15.36134000  T       0.00190300       0.00073000      -0.00032500
Cu       4.94981000       2.42240000      15.49575000  T       0.00277300      -0.00033700      -0.00035400
Cu       7.43365000       2.47910000      15.42804000  T       0.00637700      -0.00045500      -0.00153400
Cu      10.08331000       2.41610000      15.38621000  T       0.00354300      -0.00070700       0.00064600
Cu      12.55841000       5.00605000      15.37906000  T       0.00866000       0.00021400      -0.00311200
Cu       2.46665000       5.00703000      15.35539000  T       0.00218100      -0.00009400      -0.00169600
Pd       4.99136000       5.00522000      15.52858000  T       0.00975700       0.00009600      -0.00255600
Y        7.60193000       5.00451000      17.28408000  T       0.00736500      -0.00061100       0.00303300
Cu      10.11213000       5.01233000      15.53232000  T       0.01820600       0.00076200       0.01168900
Cu       0.02927000       7.51863000      15.34697000  T       0.00252500      -0.00135500      -0.00057800
Cu       2.48817000       7.50625000      15.36118000  T       0.00217700      -0.00035500      -0.00044900
Cu       4.95243000       7.58801000      15.49419000  T       0.00416300      -0.00039500      -0.00015800
Cu       7.43935000       7.52830000      15.43069000  T       0.00875100      -0.00131800      -0.00105800
Cu      10.08340000       7.59648000      15.39049000  T       0.00349600       0.00037600       0.00058700
Cu      -0.00182000      10.00929000      15.36458000  T      -0.00096600      -0.00075200      -0.00101800
Cu       2.51171000      10.00670000      15.36946000  T      -0.00108000      -0.00001100      -0.00075000
Cu       5.01165000      10.03799000      15.36193000  T      -0.00093200       0.00037100      -0.00051400
Cu       7.50908000      10.03400000      15.33625000  T      -0.00071000      -0.00012800      -0.00004800
Cu      10.01533000      10.04370000      15.33908000  T      -0.00121400       0.00021900      -0.00067800
O        6.08034000       3.43938000      16.68362000  T       0.00349500      -0.00262700       0.00280500
O        6.08177000       6.57037000      16.68184000  T       0.00336600       0.00204300       0.00188700
O        8.85298000       6.47558000      16.29057000  T       0.00308700       0.00150100       0.00256800
O        8.84542000       3.54826000      16.26294000  T       0.00145400       0.00133700      -0.00216000
C        9.95373000       4.95861000      18.43370000  T      -0.00993900       0.00014100       0.01526100
O       10.31111000       4.87739000      19.74528000  T      -0.01700500       0.00478000       0.01675900
O       10.92420000       4.98110000      17.62477000  T      -0.00558000      -0.00367900       0.03155700
H       11.30267000       4.84719000      19.77470000  T      -0.02314600       0.00744500       0.02222600
108
Lattice="12.515153631 0.0 0.0 0.0 12.515153631 0.0 0.0 0.0 25.30973" Properties=species:S:1:pos:R:3:move_mask:L:1:forces:R:3 stress="0.007595192591141323 -9.899033473650848e-06 1.53229049040434e-05 -9.899033473650848e-06 0.007498917312874573 -8.014097717634104e-06 1.53229049040434e-05 -8.014097717634104e-06 0.0017196668358724812" free_energy=-444.16234457 energy=-444.15848666 pbc="T T T"
Cu       1.25152000       1.25152000      10.00000000  F       0.00004100      -0.01757800      -0.07595500
Cu       3.75455000       1.25152000      10.00000000  F       0.01281300       0.00354400      -0.07446900
Cu       6.25758000       1.25152000      10.00000000  F      -0.01647300       0.01267200      -0.06178000
Cu       8.76061000       1.25152000      10.00000000  F       0.01155200       0.01315700      -0.05128100
Cu      11.26364000       1.25152000      10.00000000  F      -0.00402800       0.00487900      -0.07305600
Cu       1.25152000       3.75455000      10.00000000  F      -0.00144700       0.00679000      -0.06804800
Cu       3.75455000       3.75455000      10.00000000  F       0.01697500      -0.01528900      -0.05973200
Cu       6.25758000       3.75455000      10.00000000  F      -0.01884800      -0.01489600      -0.07905800
Cu       8.76061000       3.75455000      10.00000000  F       0.01965600      -0.01626400      -0.09137700
Cu      11.26364000       3.75455000      10.00000000  F      -0.01099200      -0.00234300      -0.05594100
Cu       1.25152000       6.25758000      10.00000000  F      -0.00254600      -0.00552700      -0.07020700
Cu       3.75455000       6.25758000      10.00000000  F       0.01850600       0.01593600      -0.06022300
Cu       6.25758000       6.25758000      10.00000000  F      -0.01880200       0.01681700      -0.08161400
Cu       8.76061000       6.25758000      10.00000000  F       0.01829300       0.01675100      -0.09109100
Cu      11.26364000       6.25758000      10.00000000  F      -0.01032700       0.00372700      -0.05753200
Cu       1.25152000       8.76061000      10.00000000  F      -0.00008700       0.01420700      -0.07452900
Cu       3.75455000       8.76061000      10.00000000  F       0.01196900      -0.00603400      -0.07331400
Cu       6.25758000       8.76061000      10.00000000  F      -0.01659700      -0.01699300      -0.05951600
Cu       8.76061000       8.76061000      10.00000000  F       0.01240300      -0.01535900      -0.05028600
Cu      11.26364000       8.76061000      10.00000000  F      -0.00406000      -0.00843000      -0.07245000
Cu       1.25152000      11.26364000      10.00000000  F      -0.00900200       0.00177900      -0.02113200
Cu       3.75455000      11.26364000      10.00000000  F      -0.00409400       0.00150400      -0.07360700
Cu       6.25758000      11.26364000      10.00000000  F      -0.00588000       0.00208900      -0.07671300
Cu       8.76061000      11.26364000      10.00000000  F      -0.00102800       0.00120900      -0.06371100
Cu      11.26364000      11.26364000      10.00000000  F       0.02069200       0.00158100      -0.07648300
Cu       0.00000000       0.00000000      11.76991000  F       0.00149600       0.04429700       0.03131700
Cu       2.50303000       0.00000000      11.76991000  F       0.04955200       0.01853600       0.06332400
Cu       5.00606000       0.00000000      11.76991000  F       0.00979100       0.07472800       0.04616900
Cu       7.50909000       0.00000000      11.76991000  F      -0.01924000       0.06088700       0.02872300
Cu      10.01212000       0.00000000      11.76991000  F      -0.04135000       0.07899500       0.04212100
Cu       0.00000000       2.50303000      11.76991000  F      -0.05862500       0.04691700       0.05941100
Cu       2.50303000       2.50303000      11.76991000  F       0.06904600       0.04323100       0.06403800
Cu       5.00606000       2.50303000      11.76991000  F      -0.04621900      -0.04984600       0.02702300
Cu       7.50909000       2.50303000      11.76991000  F      -0.00773900       0.02219000       0.11374100
Cu      10.01212000       2.50303000      11.76991000  F       0.02933300       0.00307800       0.08448300
Cu       0.00000000       5.00606000      11.76991000  F      -0.07115200       0.00226600       0.03163000
Cu       2.50303000       5.00606000      11.76991000  F       0.09204100       0.00152100       0.09209800
Cu       5.00606000       5.00606000      11.76991000  F      -0.07520300       0.00308800       0.08027100
Cu       7.50909000       5.00606000      11.76991000  F       0.01346000       0.00077400       0.14884400
Cu      10.01212000       5.00606000      11.76991000  F       0.01929800      -0.00060200       0.11787200
Cu       0.00000000       7.50909000      11.76991000  F      -0.05756400      -0.04931800       0.06027300
Cu       2.50303000       7.50909000      11.76991000  F       0.06903500      -0.04546300       0.06499900
Cu       5.00606000       7.50909000      11.76991000  F      -0.04212100       0.04396700       0.03074500
Cu       7.50909000       7.50909000      11.76991000  F      -0.00933900      -0.02521100       0.11391600
Cu      10.01212000       7.50909000      11.76991000  F       0.03386900      -0.00077200       0.07854300
Cu       0.00000000      10.01212000      11.76991000  F       0.00175100      -0.04361800       0.03004200
Cu       2.50303000      10.01212000      11.76991000  F       0.05013300      -0.01798700       0.06469200
Cu       5.00606000      10.01212000      11.76991000  F       0.01208500      -0.07575200       0.04652700
Cu       7.50909000      10.01212000      11.76991000  F      -0.01827100      -0.06217400       0.02890100
Cu      10.01212000      10.01212000      11.76991000  F      -0.04247300      -0.07915100       0.04198700
Cu       1.25882000       1.24319000      13.57301000  T       0.00066300      -0.00051600       0.00129900
Cu       3.76716000       1.26184000      13.60372000  T       0.00042900      -0.00078800       0.00056000
Cu       6.25008000       1.26968000      13.60167000  T       0.00009500       0.00020500       0.00105000
Cu       8.73958000       1.27294000      13.59433000  T       0.00054100       0.00022600       0.00126700
Cu      11.25977000       1.25636000      13.58223000  T       0.00083400      -0.00049100       0.00070500
Cu       1.24877000       3.75556000      13.57234000  T       0.00140600      -0.00051400       0.00000600
Cu       3.77127000       3.74742000      13.60567000  T       0.00102800      -0.00016300       0.00043200
Cu       6.26044000       3.76406000      13.56184000  T       0.00064500       0.00050800       0.00090300
Cu       8.75276000       3.77625000      13.58208000  T       0.00082600       0.00019400       0.00064200
Cu      11.24750000       3.77070000      13.60887000  T       0.00123200      -0.00024700       0.00068800
Cu       1.24898000       6.25669000      13.57239000  T       0.00156900       0.00089700       0.00019200
Cu       3.77216000       6.26485000      13.60545000  T       0.00118100       0.00033200       0.00048300
Cu       6.26249000       6.24619000      13.56297000  T       0.00090700      -0.00062600       0.00095600
Cu       8.75442000       6.23732000      13.58050000  T       0.00108500      -0.00001400       0.00044600
Cu      11.24793000       6.24282000      13.60842000  T       0.00131800       0.00043000       0.00073600
Cu       1.25899000       8.76833000      13.57338000  T       0.00063200       0.00045000       0.00139300
Cu       3.76779000       8.75052000      13.60357000  T       0.00047200       0.00073700       0.00072000
Cu       6.25168000       8.74028000      13.60260000  T       0.00023500      -0.00035500       0.00126000
Cu       8.74055000       8.73862000      13.59509000  T       0.00091000      -0.00013000       0.00140400
Cu      11.25957000       8.75560000      13.58276000  T       0.00097100       0.00048400       0.00087100
Cu       1.25469000      11.26378000      13.59399000  T      -0.00002800      -0.00007000       0.00141400
Cu       3.74803000      11.26401000      13.57724000  T      -0.00038300      -0.00008800       0.00122700
Cu       6.25281000      11.26321000      13.56288000  T      -0.00030800      -0.00019500       0.00169600
Cu       8.76147000      11.26351000      13.56102000  T      -0.00007700      -0.00015300       0.00200000
Cu      11.27904000      11.26378000      13.56612000  T       0.00027500      -0.00014300       0.00199400
Cu      -0.00223000       0.00360000      15.36447000  T      -0.00043800       0.00006100       0.00013800
Cu       2.51108000       0.00726000      15.36964000  T      -0.00004700       0.00004500       0.00010800
Cu       5.01112000      12.48734000      15.36236000  T       0.00013000      -0.00039400       0.00012000
Cu       7.50872000      12.49048000      15.33619000  T      -0.00005100      -0.00051600       0.00018900
Cu      10.01502000      12.48428000      15.33870000  T      -0.00044900      -0.00025000       0.00026000
Cu       0.02918000       2.49310000      15.34648000  T       0.00149800       0.00048700       0.00064600
Cu       2.48714000       2.50676000      15.36118000  T       0.00195200       0.00024600       0.00024500
Cu       4.95042000       2.42242000      15.49574000  T       0.00239200      -0.00013000      -0.00010000
Cu       7.43460000       2.47928000      15.42797000  T       0.00365200      -0.00042800      -0.00098500
Cu      10.08398000       2.41603000      15.38625000  T       0.00186100      -0.00030500       0.00084800
Cu      12.56077000       5.00605000      15.37803000  T       0.00226800       0.00024700       0.00026600
Cu       2.46862000       5.00704000      15.35489000  T      -0.00034300      -0.00013200      -0.00006600
Pd       4.99297000       5.00518000      15.52822000  T       0.01117700      -0.00050700      -0.00239900
Y        7.60282000       5.00444000      17.28436000  T       0.00771000      -0.00113000       0.00243400
Cu      10.11551000       5.01243000      15.53486000  T       0.00911900       0.00040800       0.00712600
Cu       0.02968000       7.51837000      15.34675000  T       0.00158200      -0.00046000       0.00043200
Cu       2.48863000       7.50627000      15.36103000  T       0.00207800      -0.00011600       0.00013600
Cu       4.95317000       7.58791000      15.49415000  T       0.00312100      -0.00027100      -0.00010000
Cu       7.44060000       7.52784000      15.43069000  T       0.00501800      -0.00089400      -0.00067400
Cu      10.08407000       7.59648000      15.39053000  T       0.00161700      -0.00014700       0.00099500
Cu      -0.00196000      10.00920000      15.36432000  T      -0.00037600      -0.00035000      -0.00001400
Cu       2.51157000      10.00674000      15.36931000  T      -0.00008800       0.00000900       0.00002100
Cu       5.01148000      10.03798000      15.36187000  T       0.00017900       0.00015300       0.00004400
Cu       7.50898000      10.03387000      15.33619000  T       0.00003000      -0.00009400       0.00037300
Cu      10.01520000      10.04368000      15.33882000  T      -0.00044800       0.00014000       0.00022900
O        6.08172000       3.43895000      16.68346000  T      -0.00181000      -0.00041100       0.00109800
O        6.08321000       6.57057000      16.68156000  T      -0.00222700       0.00080800       0.00044700
O        8.85449000       6.47530000      16.29110000  T      -0.00061600       0.00313700       0.00080600
O        8.84654000       3.54903000      16.26234000  T      -0.00143800      -0.00123500      -0.00073600
C        9.95196000       4.95839000      18.43779000  T      -0.01181800       0.00019100       0.01720000
O       10.30716000       4.87862000      19.75014000  T      -0.01277000       0.00282900       0.01379700
O       10.92349000       4.98033000      17.63044000  T      -0.00057000      -0.00130200       0.01307700
H       11.29863000       4.84891000      19.78144000  T      -0.01863700       0.00782900       0.02111200
