44
Lattice="8.629602757 0.0 0.0 4.314801379 7.473454789 0.0 0.0 0.0 23.486801045" Properties=species:S:1:pos:R:3:move_mask:L:1:forces:R:3 stress="0.00699558329243597 0.0001009189610564064 0.0003054469736024749 0.0001009189610564064 0.006617897092210522 0.0009236247619573304 0.0003054469736024749 0.0009236247619573304 0.0030093249005172353" free_energy=-148.43228956 energy=-148.43386292 pbc="T T T"
O        5.69934000       1.78528000       1.57207000  T      -0.35999300      -0.05106200       0.68554200
O        2.83584000       1.85677000       1.64131000  T       0.35894500       0.19770600       0.62569600
C        3.58688000       2.31354000       2.79244000  T      -0.15448900      -0.14529900      -0.36270700
C        5.01754000       1.71877000       2.84819000  T       0.11447900       0.00600500      -0.40677700
H        3.65463000       3.43124000       2.76561000  T      -0.01945100      -0.34523000      -0.01802700
H        3.05146000       2.02883000       3.73100000  T       0.12162900       0.06045800      -0.28089900
H        5.60103000       2.28366000       3.61519000  T      -0.16528200      -0.16829800      -0.24285100
H        4.96717000       0.65138000       3.16543000  T      -0.00713500       0.26488700      -0.08833100
Ag       4.25852000       2.69710000      23.41698000  T      -0.00068300       0.03984000       0.01124100
Ag       8.56908000       0.14307000      23.47153000  T       0.00940000      -0.02462700       0.03726700
Ag       9.97837000       2.69087000       0.07985000  T      -0.04593600       0.04089800       0.01694100
Ag       2.81770000       0.09513000       0.10515000  T      -0.00488700      -0.05051900       0.01567900
Ag       5.69630000       0.09612000       0.03474000  T       0.01194400      -0.07550600      -0.00084600
Ag      11.44428000       5.15619000      23.46903000  T       0.02232700       0.02216300       0.04363300
Ag       8.56776000       5.14490000       0.00581000  T       0.01000600      -0.01579800       0.05705600
Ag       7.18526000       2.70096000       0.05180000  T       0.04105700       0.03481500       0.03522000
Ag       5.68469000       5.15409000      23.47554000  T      -0.00460200       0.02524000       0.04690600
Ag       1.38040000       0.97054000      21.16878000  T      -0.00081100      -0.00677900       0.00788000
Ag       4.24283000       0.95730000      21.15768000  T       0.00592300      -0.00103900      -0.00986200
Ag       2.80222000       3.44199000      21.14159000  T       0.01666800       0.01814700       0.00982100
Ag       5.69024000       3.44443000      21.12916000  T      -0.00258100       0.01717200       0.01180900
Ag       7.11529000       0.97588000      21.15155000  T       0.01029200      -0.00921500       0.00767700
Ag       4.24581000       5.93931000      21.11600000  T       0.00711800       0.00928600       0.04240000
Ag       9.99276000       5.96018000      21.14074000  T       0.00504300       0.00417100       0.03120300
Ag       7.12237000       5.96231000      21.14549000  T       0.00931800       0.00391600       0.03380100
Ag       8.56308000       3.43678000      21.16221000  T       0.00278600       0.01733800       0.03702000
Ag       2.80412000       1.77651000      18.80607000  F      -0.00103200      -0.05333400      -0.10291800
Ag       4.23836000       4.25615000      18.80263000  F       0.03742500       0.04049000      -0.10955900
Ag       5.68170000       1.77312000      18.78784000  F      -0.00245800      -0.01350200      -0.04751900
Ag       7.12083000       4.26159000      18.79046000  F       0.01339700       0.02363100       0.08601600
Ag       8.55609000       1.77426000      18.79188000  F       0.01722000      -0.02489600       0.00475500
Ag       5.68442000       6.75789000      18.80009000  F      -0.01552400       0.03728600      -0.02882100
Ag      11.43164000       6.75661000      18.81409000  F       0.01170100       0.03676400      -0.11048700
Ag       9.99791000       4.25827000      18.80804000  F      -0.03956100       0.04973900       0.01911700
Ag       8.55456000       6.75729000      18.80130000  F       0.01565000       0.01288900      -0.06634800
Ag       8.55976000       0.10529000      16.41389000  F      -0.00340500      -0.00416800       0.00167300
Ag       2.80704000       0.10706000      16.41111000  F       0.00648200       0.00740500       0.01317100
Ag      10.00004000       2.59747000      16.41325000  F       0.00528500       0.00860200       0.00912800
Ag       4.24456000       2.59721000      16.40971000  F      -0.00073600       0.00549900       0.00279500
Ag       5.68492000       0.10503000      16.41330000  F      -0.00895500       0.00243600       0.00569900
Ag      11.43682000       5.09105000      16.42301000  F       0.00119300      -0.00511200      -0.01379400
Ag       8.56065000       5.08890000      16.41664000  F       0.01204700       0.01224200      -0.01324400
Ag       7.12243000       2.59821000      16.40161000  F      -0.01184800      -0.00284400       0.01382000
Ag       5.68405000       5.08956000      16.41574000  F      -0.01796600      -0.00180100      -0.00997400
44
Lattice="8.629602757 0.0 0.0 4.314801379 7.473454789 0.0 0.0 0.0 23.486801045" Properties=species:S:1:pos:R:3:move_mask:L:1:forces:R:3 stress="0.006910861047561231 3.832286603292321e-05 0.00030961006018943903 3.832286603292321e-05 0.006539915677191736 0.0008838413827889506 0.00030961006018943903 0.0008838413827889506 0.0026991531045064666" free_energy=-148.44716936 energy=-148.44873816 pbc="T T T"
O        5.69587000       1.78479000       1.57868000  T      -0.22920600      -0.04228200       0.42412300
O        2.83930000       1.85867000       1.64735000  T       0.22338900       0.11499000       0.39474600
C        3.58539000       2.31214000       2.78894000  T      -0.04886800      -0.11950100      -0.20422600
C        5.01865000       1.71883000       2.84427000  T       0.01160200       0.01554600      -0.23561600
H        3.65444000       3.42791000       2.76543000  T      -0.00589400      -0.26674600      -0.01930500
H        3.05263000       2.02941000       3.72829000  T       0.11030500       0.04253800      -0.23158700
H        5.59944000       2.28204000       3.61284000  T      -0.15127800      -0.13382200      -0.20234800
H        4.96711000       0.65394000       3.16458000  T      -0.01875800       0.20177300      -0.06722500
Ag       4.25851000       2.69749000      23.41709000  T       0.00088400       0.03146300       0.01671100
Ag       8.56917000       0.14284000      23.47189000  T       0.00895300      -0.02032100       0.03853000
Ag       9.97793000       2.69127000       0.08002000  T      -0.03093000       0.03043500       0.02594500
Ag       2.81765000       0.09464000       0.10530000  T      -0.00396500      -0.03367100       0.02381000
Ag       5.69642000       0.09539000       0.03474000  T       0.01020400      -0.05495000       0.00980300
Ag      11.44450000       5.15641000      23.46945000  T       0.02177200       0.01968000       0.04451000
Ag       8.56786000       5.14474000       0.00636000  T       0.00965300      -0.01505400       0.05807700
Ag       7.18566000       2.70130000       0.05214000  T       0.02348500       0.02299400       0.04494500
Ag       5.68465000       5.15433000      23.47599000  T      -0.00380600       0.02209400       0.04797600
Ag       1.38039000       0.97048000      21.16885000  T      -0.00007500      -0.00570700       0.00867600
Ag       4.24288000       0.95729000      21.15759000  T       0.00605300      -0.00021300      -0.00748500
Ag       2.80238000       3.44216000      21.14169000  T       0.01515100       0.01755700       0.01000300
Ag       5.69022000       3.44459000      21.12927000  T      -0.00133400       0.01642100       0.01227500
Ag       7.11539000       0.97580000      21.15162000  T       0.00946200      -0.00783300       0.00883800
Ag       4.24588000       5.93940000      21.11641000  T       0.00719000       0.00891400       0.03994700
Ag       9.99281000       5.96022000      21.14104000  T       0.00498300       0.00324500       0.02889200
Ag       7.12246000       5.96235000      21.14582000  T       0.00916500       0.00329800       0.03195100
Ag       8.56311000       3.43694000      21.16256000  T       0.00264200       0.01725500       0.03370400
Ag       2.80412000       1.77651000      18.80607000  F      -0.00127000      -0.05312100      -0.10201500
Ag       4.23836000       4.25615000      18.80263000  F       0.03745900       0.04095700      -0.10860400
Ag       5.68170000       1.77312000      18.78784000  F      -0.00214500      -0.01320200      -0.04674000
Ag       7.12083000       4.26159000      18.79046000  F       0.01346800       0.02362300       0.08701100
Ag       8.55609000       1.77426000      18.79188000  F       0.01721600      -0.02454800       0.00630900
Ag       5.68442000       6.75789000      18.80009000  F      -0.01556800       0.03695200      -0.02752600
Ag      11.43164000       6.75661000      18.81409000  F       0.01188900       0.03639500      -0.10911200
Ag       9.99791000       4.25827000      18.80804000  F      -0.03957700       0.04979900       0.02039000
Ag       8.55456000       6.75729000      18.80130000  F       0.01569100       0.01253200      -0.06524600
Ag       8.55976000       0.10529000      16.41389000  F      -0.00339200      -0.00417200       0.00170700
Ag       2.80704000       0.10706000      16.41111000  F       0.00643400       0.00726200       0.01317100
Ag      10.00004000       2.59747000      16.41325000  F       0.00519400       0.00862600       0.00924200
Ag       4.24456000       2.59721000      16.40971000  F      -0.00070800       0.00559500       0.00269900
Ag       5.68492000       0.10503000      16.41330000  F      -0.00892700       0.00232400       0.00579900
Ag      11.43682000       5.09105000      16.42301000  F       0.00115800      -0.00501300      -0.01363400
Ag       8.56065000       5.08890000      16.41664000  F       0.01198600       0.01234300      -0.01311600
Ag       7.12243000       2.59821000      16.40161000  F      -0.01180600      -0.00276200       0.01390000
Ag       5.68405000       5.08956000      16.41574000  F      -0.01788500      -0.00169500      -0.00990600
44
Lattice="8.629602757 0.0 0.0 4.314801379 7.473454789 0.0 0.0 0.0 23.486801045" Properties=species:S:1:pos:R:3:move_mask:L:1:forces:R:3 stress="0.006684375405910305 -6.358225346537276e-05 0.0003137107316851443 -6.358225346537276e-05 0.006346734728236524 0.000815334578623256 0.0003137107316851443 0.000815334578623256 0.0020620323359545555" free_energy=-148.45827504 energy=-148.45983748 pbc="T T T"
O        5.69008000       1.78372000       1.58939000  T      -0.01080900      -0.02283400      -0.02204100
O        2.84494000       1.86158000       1.65731000  T      -0.00839500      -0.03328900      -0.00596400
C        3.58415000       2.30912000       2.78378000  T       0.10491900      -0.04583400       0.03259500
C        5.01894000       1.71922000       2.83832000  T      -0.13312100       0.00555800       0.03170300
H        3.65429000       3.42117000       2.76494000  T       0.02175800      -0.11879100      -0.01856700
H        3.05542000       2.03048000       3.72244000  T       0.07206300       0.00034500      -0.10675200
H        5.59562000       2.27866000       3.60773000  T      -0.10842000      -0.05433000      -0.10222500
H        4.96663000       0.65903000       3.16288000  T      -0.04234100       0.07434700      -0.02362100
Ag       4.25853000       2.69828000      23.41751000  T       0.00324400       0.01635000       0.02504300
Ag       8.56939000       0.14232000      23.47286000  T       0.00807100      -0.01173900       0.03952800
Ag       9.97715000       2.69204000       0.08067000  T      -0.00570200       0.01294900       0.03915800
Ag       2.81755000       0.09379000       0.10590000  T      -0.00143700      -0.00559700       0.03633800
Ag       5.69668000       0.09400000       0.03498000  T       0.00642400      -0.02128400       0.02619000
Ag      11.44505000       5.15690000      23.47058000  T       0.01971400       0.01376800       0.04483200
Ag       8.56810000       5.14436000       0.00783000  T       0.00866100      -0.01289700       0.05812900
Ag       7.18625000       2.70188000       0.05327000  T      -0.00469800       0.00458900       0.05875700
Ag       5.68455000       5.15489000      23.47720000  T      -0.00164800       0.01545400       0.04862300
Ag       1.38039000       0.97033000      21.16907000  T       0.00126900      -0.00322100       0.01025200
Ag       4.24304000       0.95728000      21.15740000  T       0.00609200       0.00142600      -0.00276000
Ag       2.80276000       3.44261000      21.14194000  T       0.01206400       0.01562100       0.01060800
Ag       5.69018000       3.44501000      21.12958000  T       0.00123600       0.01447400       0.01304300
Ag       7.11562000       0.97560000      21.15185000  T       0.00792000      -0.00469300       0.01104500
Ag       4.24606000       5.93962000      21.11742000  T       0.00727800       0.00806000       0.03472900
Ag       9.99293000       5.96030000      21.14177000  T       0.00492300       0.00171800       0.02487900
Ag       7.12269000       5.96243000      21.14662000  T       0.00884100       0.00213900       0.02866200
Ag       8.56317000       3.43738000      21.16341000  T       0.00230300       0.01599700       0.02811100
Ag       2.80412000       1.77651000      18.80607000  F      -0.00169000      -0.05275300      -0.10080500
Ag       4.23836000       4.25615000      18.80263000  F       0.03757600       0.04177200      -0.10730900
Ag       5.68170000       1.77312000      18.78784000  F      -0.00157300      -0.01268400      -0.04574000
Ag       7.12083000       4.26159000      18.79046000  F       0.01359200       0.02352100       0.08846400
Ag       8.55609000       1.77426000      18.79188000  F       0.01721300      -0.02392100       0.00882900
Ag       5.68442000       6.75789000      18.80009000  F      -0.01562500       0.03625300      -0.02545000
Ag      11.43164000       6.75661000      18.81409000  F       0.01230000       0.03566200      -0.10694100
Ag       9.99791000       4.25827000      18.80804000  F      -0.03960700       0.04977000       0.02231100
Ag       8.55456000       6.75729000      18.80130000  F       0.01575000       0.01186100      -0.06371700
Ag       8.55976000       0.10529000      16.41389000  F      -0.00338800      -0.00425600       0.00165400
Ag       2.80704000       0.10706000      16.41111000  F       0.00637900       0.00700700       0.01309600
Ag      10.00004000       2.59747000      16.41325000  F       0.00510000       0.00858400       0.00934800
Ag       4.24456000       2.59721000      16.40971000  F      -0.00068100       0.00566600       0.00245000
Ag       5.68492000       0.10503000      16.41330000  F      -0.00893200       0.00211400       0.00590200
Ag      11.43682000       5.09105000      16.42301000  F       0.00110200      -0.00497500      -0.01347000
Ag       8.56065000       5.08890000      16.41664000  F       0.01189200       0.01245500      -0.01300800
Ag       7.12243000       2.59821000      16.40161000  F      -0.01181300      -0.00272700       0.01397400
Ag       5.68405000       5.08956000      16.41574000  F      -0.01780200      -0.00163600      -0.00988500
44
Lattice="8.629602757 0.0 0.0 4.314801379 7.473454789 0.0 0.0 0.0 23.486801045" Properties=species:S:1:pos:R:3:move_mask:L:1:forces:R:3 stress="0.006637439257283662 -5.538715198308803e-05 0.0003109332601241263 -5.538715198308803e-05 0.006300897085216038 0.0008191606237174223 0.0003109332601241263 0.0008191606237174223 0.0020523330307729327" free_energy=-148.45942007 energy=-148.46098663 pbc="T T T"
O        5.68999000       1.78351000       1.58916000  T      -0.02164900      -0.02271400      -0.00655800
O        2.84485000       1.86125000       1.65723000  T      -0.00047100      -0.03056600       0.00399200
C        3.58517000       2.30869000       2.78410000  T       0.06997800      -0.04410000      -0.00496100
C        5.01766000       1.71927000       2.83864000  T      -0.09754000      -0.00337700      -0.00669600
H        3.65450000       3.42005000       2.76477000  T       0.02419500      -0.09828800      -0.01878200
H        3.05610000       2.03048000       3.72143000  T       0.05823400      -0.00723600      -0.07972700
H        5.59458000       2.27814000       3.60676000  T      -0.09332000      -0.03987300      -0.08047500
H        4.96623000       0.65974000       3.16266000  T      -0.04445600       0.05169000      -0.01756100
Ag       4.25856000       2.69844000      23.41775000  T       0.00296000       0.01543500       0.02442100
Ag       8.56947000       0.14221000      23.47324000  T       0.00787300      -0.01030100       0.03856100
Ag       9.97709000       2.69216000       0.08105000  T      -0.00484600       0.01235900       0.03818400
Ag       2.81754000       0.09374000       0.10625000  T      -0.00092800      -0.00526300       0.03551200
Ag       5.69674000       0.09380000       0.03523000  T       0.00618400      -0.02084100       0.02537900
Ag      11.44523000       5.15703000      23.47101000  T       0.01889400       0.01274800       0.04398900
Ag       8.56818000       5.14424000       0.00838000  T       0.00833100      -0.01214500       0.05687800
Ag       7.18621000       2.70192000       0.05384000  T      -0.00438600       0.00464000       0.05711700
Ag       5.68454000       5.15504000      23.47767000  T      -0.00092100       0.01476600       0.04768000
Ag       1.38040000       0.97030000      21.16917000  T       0.00146500      -0.00237000       0.01062100
Ag       4.24310000       0.95730000      21.15737000  T       0.00601000       0.00177100      -0.00173300
Ag       2.80288000       3.44275000      21.14204000  T       0.01144200       0.01495700       0.01089500
Ag       5.69020000       3.44514000      21.12971000  T       0.00163600       0.01382000       0.01325900
Ag       7.11570000       0.97555000      21.15195000  T       0.00785900      -0.00385800       0.01153200
Ag       4.24613000       5.93970000      21.11775000  T       0.00726600       0.00796700       0.03331400
Ag       9.99298000       5.96032000      21.14201000  T       0.00481500       0.00163400       0.02446900
Ag       7.12277000       5.96245000      21.14690000  T       0.00876700       0.00220000       0.02842600
Ag       8.56319000       3.43753000      21.16368000  T       0.00228000       0.01496800       0.02799700
Ag       2.80412000       1.77651000      18.80607000  F      -0.00181600      -0.05262600      -0.10049200
Ag       4.23836000       4.25615000      18.80263000  F       0.03765400       0.04214400      -0.10681500
Ag       5.68170000       1.77312000      18.78784000  F      -0.00136000      -0.01256700      -0.04541800
Ag       7.12083000       4.26159000      18.79046000  F       0.01370300       0.02364200       0.08912700
Ag       8.55609000       1.77426000      18.79188000  F       0.01724500      -0.02371700       0.00940900
Ag       5.68442000       6.75789000      18.80009000  F      -0.01561300       0.03602300      -0.02470500
Ag      11.43164000       6.75661000      18.81409000  F       0.01244900       0.03542900      -0.10620600
Ag       9.99791000       4.25827000      18.80804000  F      -0.03964900       0.04984700       0.02300300
Ag       8.55456000       6.75729000      18.80130000  F       0.01577200       0.01157500      -0.06321500
Ag       8.55976000       0.10529000      16.41389000  F      -0.00338200      -0.00425900       0.00161800
Ag       2.80704000       0.10706000      16.41111000  F       0.00636900       0.00702300       0.01303800
Ag      10.00004000       2.59747000      16.41325000  F       0.00511400       0.00858300       0.00928200
Ag       4.24456000       2.59721000      16.40971000  F      -0.00067600       0.00565800       0.00234900
Ag       5.68492000       0.10503000      16.41330000  F      -0.00890600       0.00213300       0.00583700
Ag      11.43682000       5.09105000      16.42301000  F       0.00111700      -0.00497400      -0.01350200
Ag       8.56065000       5.08890000      16.41664000  F       0.01190800       0.01243400      -0.01304600
Ag       7.12243000       2.59821000      16.40161000  F      -0.01179900      -0.00273800       0.01391200
Ag       5.68405000       5.08956000      16.41574000  F      -0.01780300      -0.00163100      -0.00990300
44
Lattice="8.629602757 0.0 0.0 4.314801379 7.473454789 0.0 0.0 0.0 23.486801045" Properties=species:S:1:pos:R:3:move_mask:L:1:forces:R:3 stress="0.006528993036221441 -4.971362018766015e-05 0.00030616474715195146 -4.971362018766015e-05 0.006184661460764714 0.0008168013332678385 0.00030616474715195146 0.0008168013332678385 0.0019977884825218397" free_energy=-148.46147033 energy=-148.46305193 pbc="T T T"
O        5.68888000       1.78270000       1.58972000  T      -0.01313300      -0.01948900      -0.03877300
O        2.84524000       1.86048000       1.65809000  T      -0.01759700      -0.04632400      -0.03244300
C        3.58737000       2.30704000       2.78361000  T       0.00136400      -0.02991400      -0.04364500
C        5.01450000       1.71921000       2.83802000  T      -0.02709000      -0.02441400      -0.04338400
H        3.65526000       3.41636000       2.76413000  T       0.03222100      -0.03527200      -0.02042700
H        3.05820000       2.03034000       3.71840000  T       0.02922600      -0.02588800      -0.01352000
H        5.59128000       2.27659000       3.60377000  T      -0.05922100      -0.00258600      -0.02494900
H        4.96476000       0.66180000       3.16196000  T      -0.05149200      -0.01103300      -0.00093200
Ag       4.25866000       2.69900000      23.41857000  T       0.00251500       0.01272800       0.02005500
Ag       8.56974000       0.14184000      23.47455000  T       0.00731900      -0.00524700       0.03711500
Ag       9.97688000       2.69262000       0.08233000  T      -0.00137900       0.00975400       0.03687300
Ag       2.81750000       0.09350000       0.10744000  T       0.00109600      -0.00352000       0.03401000
Ag       5.69696000       0.09303000       0.03607000  T       0.00494300      -0.01683000       0.02413300
Ag      11.44588000       5.15748000      23.47251000  T       0.01646000       0.00955200       0.04248800
Ag       8.56847000       5.14382000       0.01032000  T       0.00723600      -0.00990600       0.05455000
Ag       7.18611000       2.70211000       0.05576000  T      -0.00515600       0.00317300       0.05370200
Ag       5.68450000       5.15555000      23.47930000  T       0.00147600       0.01158300       0.04578000
Ag       1.38045000       0.97021000      21.16953000  T       0.00206700       0.00041600       0.01211700
Ag       4.24330000       0.95735000      21.15730000  T       0.00566300       0.00294900       0.00194600
Ag       2.80327000       3.44327000      21.14241000  T       0.00948300       0.01281100       0.01227000
Ag       5.69025000       3.44562000      21.13016000  T       0.00316700       0.01167600       0.01423300
Ag       7.11597000       0.97541000      21.15234000  T       0.00735900      -0.00098400       0.01349600
Ag       4.24638000       5.93997000      21.11890000  T       0.00714200       0.00750100       0.02935900
Ag       9.99314000       5.96038000      21.14285000  T       0.00484000       0.00117600       0.02331600
Ag       7.12307000       5.96253000      21.14787000  T       0.00830100       0.00260300       0.02766200
Ag       8.56327000       3.43805000      21.16465000  T       0.00206500       0.01196500       0.02727200
Ag       2.80412000       1.77651000      18.80607000  F      -0.00220600      -0.05214800      -0.09872400
Ag       4.23836000       4.25615000      18.80263000  F       0.03784200       0.04324800      -0.10461300
Ag       5.68170000       1.77312000      18.78784000  F      -0.00077100      -0.01212300      -0.04364500
Ag       7.12083000       4.26159000      18.79046000  F       0.01398200       0.02396600       0.09176300
Ag       8.55609000       1.77426000      18.79188000  F       0.01727500      -0.02299100       0.01199400
Ag       5.68442000       6.75789000      18.80009000  F      -0.01556900       0.03536300      -0.02175900
Ag      11.43164000       6.75661000      18.81409000  F       0.01282600       0.03474900      -0.10324500
Ag       9.99791000       4.25827000      18.80804000  F      -0.03978600       0.05006000       0.02577900
Ag       8.55456000       6.75729000      18.80130000  F       0.01580300       0.01081500      -0.06095500
Ag       8.55976000       0.10529000      16.41389000  F      -0.00340700      -0.00422300       0.00180900
Ag       2.80704000       0.10706000      16.41111000  F       0.00630200       0.00705800       0.01320500
Ag      10.00004000       2.59747000      16.41325000  F       0.00509900       0.00860300       0.00941900
Ag       4.24456000       2.59721000      16.40971000  F      -0.00071200       0.00569500       0.00245100
Ag       5.68492000       0.10503000      16.41330000  F      -0.00890000       0.00217600       0.00600000
Ag      11.43682000       5.09105000      16.42301000  F       0.00110800      -0.00491300      -0.01330700
Ag       8.56065000       5.08890000      16.41664000  F       0.01189400       0.01247700      -0.01287200
Ag       7.12243000       2.59821000      16.40161000  F      -0.01180500      -0.00273600       0.01407000
Ag       5.68405000       5.08956000      16.41574000  F      -0.01785000      -0.00155600      -0.00967600
44
Lattice="8.629602757 0.0 0.0 4.314801379 7.473454789 0.0 0.0 0.0 23.486801045" Properties=species:S:1:pos:R:3:move_mask:L:1:forces:R:3 stress="0.006534229662378057 -4.2592058275027356e-05 0.00030509744909142545 -4.2592058275027356e-05 0.006194104864072175 0.0008167888502495867 0.00030509744909142545 0.0008167888502495867 0.002035231295768013" free_energy=-148.46241799 energy=-148.46400657 pbc="T T T"
O        5.68869000       1.78246000       1.58936000  T      -0.01449200      -0.02058300      -0.03470200
O        2.84509000       1.85997000       1.65781000  T      -0.01666000      -0.04385700      -0.02886000
C        3.58748000       2.30666000       2.78313000  T      -0.00562600      -0.03088500      -0.04161600
C        5.01408000       1.71895000       2.83755000  T      -0.02098800      -0.02525600      -0.04105100
H        3.65563000       3.41583000       2.76389000  T       0.03018000      -0.03011700      -0.02285800
H        3.05860000       2.03007000       3.71811000  T       0.02745400      -0.02602700      -0.01304100
H        5.59052000       2.27649000       3.60337000  T      -0.05643800      -0.00209700      -0.02384900
H        4.96417000       0.66179000       3.16192000  T      -0.04945600      -0.01548900      -0.00232500
Ag       4.25869000       2.69915000      23.41881000  T       0.00230400       0.01297700       0.01703400
Ag       8.56983000       0.14177000      23.47499000  T       0.00712000      -0.00404700       0.03606000
Ag       9.97685000       2.69274000       0.08276000  T      -0.00173500       0.00970700       0.03519100
Ag       2.81751000       0.09346000       0.10784000  T       0.00138300      -0.00466400       0.03198100
Ag       5.69702000       0.09282000       0.03636000  T       0.00473600      -0.01697100       0.02232500
Ag      11.44608000       5.15760000      23.47301000  T       0.01558300       0.00878300       0.04152700
Ag       8.56856000       5.14370000       0.01097000  T       0.00689900      -0.00916300       0.05305000
Ag       7.18605000       2.70215000       0.05640000  T      -0.00374400       0.00358700       0.05132800
Ag       5.68451000       5.15570000      23.47984000  T       0.00209600       0.01081500       0.04479700
Ag       1.38047000       0.97021000      21.16967000  T       0.00223400       0.00102900       0.01235100
Ag       4.24337000       0.95739000      21.15732000  T       0.00555500       0.00314200       0.00288800
Ag       2.80339000       3.44342000      21.14255000  T       0.00883000       0.01201600       0.01240800
Ag       5.69028000       3.44576000      21.13033000  T       0.00353300       0.01086800       0.01417400
Ag       7.11606000       0.97540000      21.15250000  T       0.00712100      -0.00031300       0.01371000
Ag       4.24646000       5.94006000      21.11925000  T       0.00703000       0.00730500       0.02779200
Ag       9.99320000       5.96039000      21.14313000  T       0.00477200       0.00128400       0.02262900
Ag       7.12317000       5.96256000      21.14820000  T       0.00810300       0.00271300       0.02708700
Ag       8.56330000       3.43819000      21.16497000  T       0.00202900       0.01099500       0.02691400
Ag       2.80412000       1.77651000      18.80607000  F      -0.00226600      -0.05199800      -0.09803900
Ag       4.23836000       4.25615000      18.80263000  F       0.03795100       0.04356900      -0.10378100
Ag       5.68170000       1.77312000      18.78784000  F      -0.00055700      -0.01197800      -0.04296800
Ag       7.12083000       4.26159000      18.79046000  F       0.01413200       0.02409300       0.09274500
Ag       8.55609000       1.77426000      18.79188000  F       0.01733200      -0.02276100       0.01290100
Ag       5.68442000       6.75789000      18.80009000  F      -0.01547200       0.03519700      -0.02069200
Ag      11.43164000       6.75661000      18.81409000  F       0.01297800       0.03458300      -0.10216600
Ag       9.99791000       4.25827000      18.80804000  F      -0.03980700       0.05012900       0.02681000
Ag       8.55456000       6.75729000      18.80130000  F       0.01584400       0.01061100      -0.06007200
Ag       8.55976000       0.10529000      16.41389000  F      -0.00336800      -0.00420500       0.00173900
Ag       2.80704000       0.10706000      16.41111000  F       0.00631100       0.00705500       0.01311200
Ag      10.00004000       2.59747000      16.41325000  F       0.00511900       0.00862300       0.00930700
Ag       4.24456000       2.59721000      16.40971000  F      -0.00068400       0.00572900       0.00234600
Ag       5.68492000       0.10503000      16.41330000  F      -0.00884700       0.00217600       0.00591400
Ag      11.43682000       5.09105000      16.42301000  F       0.00114400      -0.00486200      -0.01337900
Ag       8.56065000       5.08890000      16.41664000  F       0.01192900       0.01250600      -0.01296200
Ag       7.12243000       2.59821000      16.40161000  F      -0.01174400      -0.00271700       0.01397300
Ag       5.68405000       5.08956000      16.41574000  F      -0.01781600      -0.00150000      -0.00973300
44
Lattice="8.629602757 0.0 0.0 4.314801379 7.473454789 0.0 0.0 0.0 23.486801045" Properties=species:S:1:pos:R:3:move_mask:L:1:forces:R:3 stress="0.0065029160110935 -4.631199771405378e-06 0.0002997047852066623 -4.631199771405378e-06 0.00618597217768115 0.0008129940127010497 0.0002997047852066623 0.0008129940127010497 0.0021196539482047096" free_energy=-148.46510652 energy=-148.46672429 pbc="T T T"
O        5.68723000       1.78067000       1.58698000  T      -0.01162700      -0.02635700      -0.01913400
O        2.84399000       1.85647000       1.65595000  T      -0.02156600      -0.03064600      -0.01642500
C        3.58770000       2.30384000       2.77981000  T      -0.03614400      -0.01972400      -0.02482500
C        5.01158000       1.71704000       2.83422000  T       0.00850200      -0.03181600      -0.01871000
H        3.65812000       3.41243000       2.76199000  T       0.01403500      -0.01203700      -0.03711000
H        3.06129000       2.02808000       3.71622000  T       0.01333500      -0.02664000      -0.00960800
H        5.58529000       2.27586000       3.60068000  T      -0.03785900      -0.00098100      -0.01815200
H        4.96002000       0.66127000       3.16153000  T      -0.03371900      -0.03532300      -0.01286600
Ag       4.25889000       2.70029000      23.42034000  T       0.00046600       0.01488300      -0.00256700
Ag       8.57044000       0.14135000      23.47809000  T       0.00577700       0.00313000       0.03054500
Ag       9.97666000       2.69360000       0.08579000  T      -0.00491200       0.00940500       0.02493500
Ag       2.81760000       0.09303000       0.11060000  T       0.00448900      -0.01255600       0.02017000
Ag       5.69744000       0.09131000       0.03828000  T       0.00374800      -0.02002800       0.01057200
Ag      11.44745000       5.15840000      23.47658000  T       0.01140800       0.00346900       0.03649000
Ag       8.56916000       5.14288000       0.01553000  T       0.00494200      -0.00514000       0.04622800
Ag       7.18574000       2.70248000       0.06083000  T       0.00438100       0.00579300       0.03755300
Ag       5.68466000       5.15666000      23.48369000  T       0.00535200       0.00618500       0.03975800
Ag       1.38065000       0.97026000      21.17070000  T       0.00301300       0.00452700       0.01359600
Ag       4.24385000       0.95764000      21.15751000  T       0.00486500       0.00409900       0.00760900
Ag       2.80417000       3.44448000      21.14359000  T       0.00513600       0.00847500       0.01296900
Ag       5.69056000       3.44672000      21.13152000  T       0.00597100       0.00757000       0.01419400
Ag       7.11667000       0.97533000      21.15364000  T       0.00639500       0.00362200       0.01511100
Ag       4.24706000       5.94069000      21.12168000  T       0.00651700       0.00644100       0.01992100
Ag       9.99361000       5.96051000      21.14508000  T       0.00456800       0.00071500       0.02036900
Ag       7.12387000       5.96279000      21.15053000  T       0.00712200       0.00349100       0.02472600
Ag       8.56347000       3.43917000      21.16728000  T       0.00155300       0.00532200       0.02561900
Ag       2.80412000       1.77651000      18.80607000  F      -0.00289400      -0.05121400      -0.09434000
Ag       4.23836000       4.25615000      18.80263000  F       0.03836600       0.04540400      -0.09911000
Ag       5.68170000       1.77312000      18.78784000  F       0.00061900      -0.01130000      -0.03924500
Ag       7.12083000       4.26159000      18.79046000  F       0.01482300       0.02461000       0.09829700
Ag       8.55609000       1.77426000      18.79188000  F       0.01739900      -0.02146700       0.01798500
Ag       5.68442000       6.75789000      18.80009000  F      -0.01515800       0.03380100      -0.01474500
Ag      11.43164000       6.75661000      18.81409000  F       0.01368600       0.03324300      -0.09603000
Ag       9.99791000       4.25827000      18.80804000  F      -0.04013800       0.05032200       0.03266900
Ag       8.55456000       6.75729000      18.80130000  F       0.01592300       0.00896500      -0.05522300
Ag       8.55976000       0.10529000      16.41389000  F      -0.00340100      -0.00432300       0.00162300
Ag       2.80704000       0.10706000      16.41111000  F       0.00615300       0.00690600       0.01289600
Ag      10.00004000       2.59747000      16.41325000  F       0.00506100       0.00847500       0.00902900
Ag       4.24456000       2.59721000      16.40971000  F      -0.00076700       0.00559200       0.00207300
Ag       5.68492000       0.10503000      16.41330000  F      -0.00881400       0.00206800       0.00572400
Ag      11.43682000       5.09105000      16.42301000  F       0.00109200      -0.00493900      -0.01349000
Ag       8.56065000       5.08890000      16.41664000  F       0.01186200       0.01236900      -0.01309200
Ag       7.12243000       2.59821000      16.40161000  F      -0.01173100      -0.00287000       0.01375800
Ag       5.68405000       5.08956000      16.41574000  F      -0.01782900      -0.00152100      -0.00974600
44
Lattice="8.629602757 0.0 0.0 4.314801379 7.473454789 0.0 0.0 0.0 23.486801045" Properties=species:S:1:pos:R:3:move_mask:L:1:forces:R:3 stress="0.006505855761891792 6.135403470743243e-06 0.00029743911739396665 6.135403470743243e-06 0.006189779498247938 0.0008089619978057291 0.00029743911739396665 0.0008089619978057291 0.0021879984731331317" free_energy=-148.46667178 energy=-148.46831231 pbc="T T T"
O        5.68655000       1.77968000       1.58590000  T      -0.01314200      -0.03007400      -0.01041900
O        2.84332000       1.85481000       1.65509000  T      -0.02204900      -0.02580300      -0.00924900
C        3.58732000       2.30256000       2.77829000  T      -0.02786400      -0.01942100      -0.02339600
C        5.01077000       1.71593000       2.83279000  T      -0.00092500      -0.03291800      -0.01638000
H        3.65920000       3.41102000       2.76081000  T       0.00596500      -0.01087900      -0.04206200
H        3.06245000       2.02702000       3.71538000  T       0.00523100      -0.02671100      -0.00757700
H        5.58289000       2.27560000       3.59944000  T      -0.02870700      -0.00128100      -0.01466700
H        4.95808000       0.66064000       3.16121000  T      -0.02611400      -0.03858500      -0.01792300
Ag       4.25897000       2.70090000      23.42085000  T      -0.00010400       0.01494300      -0.00967400
Ag       8.57074000       0.14124000      23.47962000  T       0.00535300       0.00613100       0.02749600
Ag       9.97652000       2.69404000       0.08721000  T      -0.00550100       0.00922300       0.01953200
Ag       2.81769000       0.09271000       0.11186000  T       0.00583900      -0.01544900       0.01479500
Ag       5.69764000       0.09050000       0.03912000  T       0.00303500      -0.02055200       0.00515100
Ag      11.44809000       5.15873000      23.47835000  T       0.00956500       0.00170700       0.03294600
Ag       8.56944000       5.14252000       0.01779000  T       0.00428500      -0.00348000       0.04225600
Ag       7.18569000       2.70268000       0.06292000  T       0.00716500       0.00639600       0.03105000
Ag       5.68478000       5.15710000      23.48560000  T       0.00665000       0.00440700       0.03574300
Ag       1.38076000       0.97034000      21.17125000  T       0.00330600       0.00616400       0.01402600
Ag       4.24408000       0.95778000      21.15768000  T       0.00478400       0.00451200       0.00941800
Ag       2.80452000       3.44498000      21.14414000  T       0.00334500       0.00716900       0.01255400
Ag       5.69074000       3.44717000      21.13214000  T       0.00721100       0.00656200       0.01373900
Ag       7.11698000       0.97535000      21.15425000  T       0.00608800       0.00546300       0.01569200
Ag       4.24736000       5.94100000      21.12282000  T       0.00644000       0.00622900       0.01651300
Ag       9.99381000       5.96056000      21.14605000  T       0.00460700       0.00066200       0.01890300
Ag       7.12421000       5.96291000      21.15169000  T       0.00675000       0.00387900       0.02294700
Ag       8.56356000       3.43960000      21.16845000  T       0.00167900       0.00349700       0.02443700
Ag       2.80412000       1.77651000      18.80607000  F      -0.00308400      -0.05059300      -0.09168200
Ag       4.23836000       4.25615000      18.80263000  F       0.03870800       0.04646500      -0.09585300
Ag       5.68170000       1.77312000      18.78784000  F       0.00132900      -0.01072700      -0.03651800
Ag       7.12083000       4.26159000      18.79046000  F       0.01532100       0.02507400       0.10211400
Ag       8.55609000       1.77426000      18.79188000  F       0.01749600      -0.02059100       0.02145600
Ag       5.68442000       6.75789000      18.80009000  F      -0.01484700       0.03338100      -0.01079200
Ag      11.43164000       6.75661000      18.81409000  F       0.01410100       0.03288600      -0.09197900
Ag       9.99791000       4.25827000      18.80804000  F      -0.04029300       0.05062600       0.03661400
Ag       8.55456000       6.75729000      18.80130000  F       0.01606600       0.00837800      -0.05179200
Ag       8.55976000       0.10529000      16.41389000  F      -0.00330200      -0.00417600       0.00212000
Ag       2.80704000       0.10706000      16.41111000  F       0.00614200       0.00699500       0.01328500
Ag      10.00004000       2.59747000      16.41325000  F       0.00510300       0.00862800       0.00937900
Ag       4.24456000       2.59721000      16.40971000  F      -0.00071400       0.00578200       0.00243600
Ag       5.68492000       0.10503000      16.41330000  F      -0.00868800       0.00217200       0.00615200
Ag      11.43682000       5.09105000      16.42301000  F       0.00116800      -0.00469100      -0.01301600
Ag       8.56065000       5.08890000      16.41664000  F       0.01192900       0.01255100      -0.01268900
Ag       7.12243000       2.59821000      16.40161000  F      -0.01158500      -0.00270600       0.01414800
Ag       5.68405000       5.08956000      16.41574000  F      -0.01773900      -0.00124700      -0.00923500
44
Lattice="8.629602757 0.0 0.0 4.314801379 7.473454789 0.0 0.0 0.0 23.486801045" Properties=species:S:1:pos:R:3:move_mask:L:1:forces:R:3 stress="0.006507478554264521 2.3898738443006996e-05 0.0002956665288022158 2.3898738443006996e-05 0.006205782727646702 0.0008005484435040385 0.0002956665288022158 0.0008005484435040385 0.0022460070589490904" free_energy=-148.46806714 energy=-148.46973099 pbc="T T T"
O        5.68536000       1.77782000       1.58428000  T      -0.00813600      -0.03383700      -0.00623000
O        2.84208000       1.85211000       1.65380000  T      -0.02843500      -0.01937500      -0.00652800
C        3.58659000       2.30043000       2.77578000  T      -0.01767100      -0.01500200      -0.01465700
C        5.00940000       1.71392000       2.83049000  T      -0.01032800      -0.03055700      -0.00548600
H        3.66078000       3.40879000       2.75854000  T      -0.00663300      -0.01044000      -0.04748800
H        3.06414000       2.02514000       3.71405000  T      -0.00733800      -0.02427400      -0.00526300
H        5.57909000       2.27519000       3.59747000  T      -0.01611400      -0.00520600      -0.01141000
H        4.95499000       0.65927000       3.16048000  T      -0.01402900      -0.04340100      -0.02335900
Ag       4.25908000       2.70198000      23.42144000  T      -0.00056800       0.01348600      -0.01719200
Ag       8.57124000       0.14117000      23.48215000  T       0.00434900       0.01017200       0.02381700
Ag       9.97625000       2.69480000       0.08947000  T      -0.00572800       0.00839800       0.01373100
Ag       2.81791000       0.09203000       0.11384000  T       0.00779400      -0.01818200       0.00776900
Ag       5.69797000       0.08905000       0.04035000  T       0.00240600      -0.01997100      -0.00160300
Ag      11.44914000       5.15923000      23.48130000  T       0.00720500      -0.00108000       0.02898600
Ag       8.56991000       5.14196000       0.02158000  T       0.00343300      -0.00132600       0.03756400
Ag       7.18572000       2.70305000       0.06631000  T       0.01006800       0.00650100       0.02349600
Ag       5.68505000       5.15777000      23.48880000  T       0.00785500       0.00117700       0.03166500
Ag       1.38095000       0.97054000      21.17223000  T       0.00389800       0.00776400       0.01456100
Ag       4.24449000       0.95805000      21.15805000  T       0.00451500       0.00478300       0.01155900
Ag       2.80506000       3.44578000      21.14509000  T       0.00067600       0.00561500       0.01127300
Ag       5.69110000       3.44790000      21.13321000  T       0.00898300       0.00522800       0.01240400
Ag       7.11750000       0.97547000      21.15534000  T       0.00567800       0.00759500       0.01623100
Ag       4.24789000       5.94154000      21.12467000  T       0.00620900       0.00548400       0.01209900
Ag       9.99417000       5.96064000      21.14770000  T       0.00455200       0.00026300       0.01680600
Ag       7.12480000       5.96315000      21.15366000  T       0.00590900       0.00432500       0.02045500
Ag       8.56370000       3.44025000      21.17045000  T       0.00177100       0.00108000       0.02243400
Ag       2.80412000       1.77651000      18.80607000  F      -0.00346000      -0.04990000      -0.08813900
Ag       4.23836000       4.25615000      18.80263000  F       0.03910300       0.04789200      -0.09147100
Ag       5.68170000       1.77312000      18.78784000  F       0.00228200      -0.01011800      -0.03297200
Ag       7.12083000       4.26159000      18.79046000  F       0.01602800       0.02569800       0.10711100
Ag       8.55609000       1.77426000      18.79188000  F       0.01760800      -0.01948600       0.02597300
Ag       5.68442000       6.75789000      18.80009000  F      -0.01438200       0.03258000      -0.00551400
Ag      11.43164000       6.75661000      18.81409000  F       0.01459400       0.03216200      -0.08648500
Ag       9.99791000       4.25827000      18.80804000  F      -0.04061800       0.05093600       0.04187200
Ag       8.55456000       6.75729000      18.80130000  F       0.01617900       0.00727100      -0.04712700
Ag       8.55976000       0.10529000      16.41389000  F      -0.00328200      -0.00414400       0.00200600
Ag       2.80704000       0.10706000      16.41111000  F       0.00605000       0.00699800       0.01308500
Ag      10.00004000       2.59747000      16.41325000  F       0.00510000       0.00865400       0.00914400
Ag       4.24456000       2.59721000      16.40971000  F      -0.00074100       0.00582500       0.00221500
Ag       5.68492000       0.10503000      16.41330000  F      -0.00861700       0.00220400       0.00598700
Ag      11.43682000       5.09105000      16.42301000  F       0.00116000      -0.00460200      -0.01315300
Ag       8.56065000       5.08890000      16.41664000  F       0.01191200       0.01259800      -0.01282700
Ag       7.12243000       2.59821000      16.40161000  F      -0.01153800      -0.00267400       0.01396200
Ag       5.68405000       5.08956000      16.41574000  F      -0.01769700      -0.00111300      -0.00929900
44
Lattice="8.629602757 0.0 0.0 4.314801379 7.473454789 0.0 0.0 0.0 23.486801045" Properties=species:S:1:pos:R:3:move_mask:L:1:forces:R:3 stress="0.00649407803417125 3.059587773507973e-05 0.00029536069485504757 3.059587773507973e-05 0.006196301875284486 0.0007953991984751847 0.00029536069485504757 0.0007953991984751847 0.002247111806064372" free_energy=-148.46918214 energy=-148.47085483 pbc="T T T"
O        5.68478000       1.77667000       1.58353000  T      -0.00659700      -0.03414500      -0.00354300
O        2.84124000       1.85078000       1.65318000  T      -0.02734100      -0.01551100      -0.00228900
C        3.58615000       2.29938000       2.77459000  T      -0.01575900      -0.01310800      -0.00838300
C        5.00866000       1.71276000       2.82948000  T      -0.01113100      -0.02908300      -0.00052500
H        3.66135000       3.40771000       2.75707000  T      -0.01166100      -0.01077900      -0.04732000
H        3.06476000       2.02410000       3.71343000  T      -0.01216000      -0.02114200      -0.00480700
H        5.57734000       2.27495000       3.59651000  T      -0.01116300      -0.00874500      -0.00956600
H        4.95357000       0.65823000       3.15991000  T      -0.00912600      -0.04235900      -0.02391000
Ag       4.25912000       2.70257000      23.42150000  T      -0.00054900       0.01125500      -0.01884100
Ag       8.57150000       0.14126000      23.48347000  T       0.00371400       0.01100800       0.02114300
Ag       9.97607000       2.69520000       0.09057000  T      -0.00528300       0.00751100       0.01101700
Ag       2.81809000       0.09155000       0.11475000  T       0.00842200      -0.01821500       0.00489200
Ag       5.69813000       0.08823000       0.04085000  T       0.00198900      -0.01852600      -0.00421000
Ag      11.44965000       5.15942000      23.48285000  T       0.00584500      -0.00214000       0.02594600
Ag       8.57014000       5.14171000       0.02357000  T       0.00309100      -0.00050500       0.03342600
Ag       7.18585000       2.70327000       0.06798000  T       0.01017500       0.00592800       0.01954200
Ag       5.68524000       5.15806000      23.49048000  T       0.00798100      -0.00022600       0.02818500
Ag       1.38108000       0.97071000      21.17280000  T       0.00387700       0.00786900       0.01412300
Ag       4.24471000       0.95822000      21.15834000  T       0.00418000       0.00439900       0.01172900
Ag       2.80529000       3.44618000      21.14560000  T      -0.00082700       0.00480400       0.00980100
Ag       5.69135000       3.44826000      21.13379000  T       0.00952400       0.00446300       0.01087100
Ag       7.11778000       0.97560000      21.15598000  T       0.00505000       0.00779400       0.01551300
Ag       4.24817000       5.94182000      21.12557000  T       0.00588500       0.00510000       0.01000600
Ag       9.99438000       5.96068000      21.14857000  T       0.00423200      -0.00025700       0.01488900
Ag       7.12511000       5.96330000      21.15470000  T       0.00499100       0.00389900       0.01813000
Ag       8.56378000       3.44054000      21.17153000  T       0.00183500      -0.00002400       0.01969200
Ag       2.80412000       1.77651000      18.80607000  F      -0.00359400      -0.04968200      -0.08637200
Ag       4.23836000       4.25615000      18.80263000  F       0.03930100       0.04842500      -0.08935900
Ag       5.68170000       1.77312000      18.78784000  F       0.00274600      -0.00994300      -0.03116100
Ag       7.12083000       4.26159000      18.79046000  F       0.01639000       0.02590300       0.10956500
Ag       8.55609000       1.77426000      18.79188000  F       0.01761300      -0.01905400       0.02815600
Ag       5.68442000       6.75789000      18.80009000  F      -0.01413000       0.03219500      -0.00299600
Ag      11.43164000       6.75661000      18.81409000  F       0.01477500       0.03186500      -0.08381300
Ag       9.99791000       4.25827000      18.80804000  F      -0.04081100       0.05102400       0.04439200
Ag       8.55456000       6.75729000      18.80130000  F       0.01624800       0.00671100      -0.04479000
Ag       8.55976000       0.10529000      16.41389000  F      -0.00327600      -0.00419600       0.00198500
Ag       2.80704000       0.10706000      16.41111000  F       0.00600600       0.00693500       0.01301200
Ag      10.00004000       2.59747000      16.41325000  F       0.00508000       0.00860000       0.00909700
Ag       4.24456000       2.59721000      16.40971000  F      -0.00076000       0.00575500       0.00215800
Ag       5.68492000       0.10503000      16.41330000  F      -0.00860800       0.00216900       0.00594800
Ag      11.43682000       5.09105000      16.42301000  F       0.00114100      -0.00465000      -0.01317600
Ag       8.56065000       5.08890000      16.41664000  F       0.01188400       0.01253300      -0.01282100
Ag       7.12243000       2.59821000      16.40161000  F      -0.01152600      -0.00272600       0.01393700
Ag       5.68405000       5.08956000      16.41574000  F      -0.01767600      -0.00112700      -0.00927400
44
Lattice="8.629602757 0.0 0.0 4.314801379 7.473454789 0.0 0.0 0.0 23.486801045" Properties=species:S:1:pos:R:3:move_mask:L:1:forces:R:3 stress="0.006514637565231909 5.000697111657666e-05 0.0002936317968271779 5.000697111657666e-05 0.006228776447266456 0.0007793897275672943 0.0002936317968271779 0.0007793897275672943 0.002355458162980579" free_energy=-148.47064958 energy=-148.47235347 pbc="T T T"
O        5.68317000       1.77315000       1.58151000  T      -0.00271100      -0.03139600       0.00413800
O        2.83869000       1.84705000       1.65158000  T      -0.02601300      -0.00757100       0.00469500
C        3.58482000       2.29640000       2.77138000  T      -0.01008100      -0.01217300       0.00226100
C        5.00649000       1.70932000       2.82682000  T      -0.01332200      -0.02373300       0.00602000
H        3.66268000       3.40465000       2.75257000  T      -0.02392800      -0.01246200      -0.04465000
H        3.06621000       2.02112000       3.71170000  T      -0.02443300      -0.01084300      -0.00424700
H        5.57253000       2.27410000       3.59383000  T       0.00059900      -0.02064900      -0.00645300
H        4.94967000       0.65499000       3.15811000  T       0.00286300      -0.03757800      -0.02417200
Ag       4.25923000       2.70425000      23.42143000  T       0.00004300       0.00496600      -0.02079000
Ag       8.57222000       0.14163000      23.48724000  T       0.00214100       0.01250200       0.01469100
Ag       9.97555000       2.69637000       0.09362000  T      -0.00359900       0.00517200       0.00422300
Ag       2.81867000       0.09004000       0.11722000  T       0.00968600      -0.01761600      -0.00288200
Ag       5.69859000       0.08584000       0.04210000  T       0.00151100      -0.01499200      -0.01106100
Ag      11.45109000       5.15991000      23.48730000  T       0.00394600      -0.00468100       0.01950900
Ag       8.57080000       5.14105000       0.02926000  T       0.00200900       0.00079500       0.02492100
Ag       7.18629000       2.70393000       0.07267000  T       0.00904600       0.00414900       0.01084500
Ag       5.68587000       5.15882000      23.49529000  T       0.00719900      -0.00416600       0.02134900
Ag       1.38146000       0.97125000      21.17450000  T       0.00392800       0.00798800       0.01219500
Ag       4.24534000       0.95870000      21.15924000  T       0.00355300       0.00359300       0.01067400
Ag       2.80588000       3.44729000      21.14708000  T      -0.00445800       0.00333200       0.00500500
Ag       5.69215000       3.44928000      21.13545000  T       0.01073000       0.00354600       0.00594200
Ag       7.11859000       0.97604000      21.15785000  T       0.00425100       0.00841600       0.01320200
Ag       4.24901000       5.94263000      21.12810000  T       0.00511600       0.00408000       0.00509100
Ag       9.99496000       5.96076000      21.15105000  T       0.00398200      -0.00150800       0.00886800
Ag       7.12598000       5.96373000      21.15770000  T       0.00323500       0.00326900       0.01261400
Ag       8.56403000       3.44129000      21.17463000  T       0.00243500      -0.00155500       0.01365200
Ag       2.80412000       1.77651000      18.80607000  F      -0.00400300      -0.04919700      -0.08091100
Ag       4.23836000       4.25615000      18.80263000  F       0.03975000       0.04973700      -0.08283600
Ag       5.68170000       1.77312000      18.78784000  F       0.00380400      -0.00957800      -0.02573300
Ag       7.12083000       4.26159000      18.79046000  F       0.01738700       0.02654100       0.11682400
Ag       8.55609000       1.77426000      18.79188000  F       0.01764500      -0.01799800       0.03462700
Ag       5.68442000       6.75789000      18.80009000  F      -0.01336000       0.03113300       0.00463100
Ag      11.43164000       6.75661000      18.81409000  F       0.01513900       0.03095500      -0.07577200
Ag       9.99791000       4.25827000      18.80804000  F      -0.04149300       0.05119800       0.05192900
Ag       8.55456000       6.75729000      18.80130000  F       0.01628800       0.00511300      -0.03763200
Ag       8.55976000       0.10529000      16.41389000  F      -0.00337800      -0.00441700       0.00183800
Ag       2.80704000       0.10706000      16.41111000  F       0.00577600       0.00665900       0.01274500
Ag      10.00004000       2.59747000      16.41325000  F       0.00492300       0.00834700       0.00886000
Ag       4.24456000       2.59721000      16.40971000  F      -0.00092000       0.00548900       0.00193100
Ag       5.68492000       0.10503000      16.41330000  F      -0.00867500       0.00195400       0.00575200
Ag      11.43682000       5.09105000      16.42301000  F       0.00099200      -0.00485400      -0.01336500
Ag       8.56065000       5.08890000      16.41664000  F       0.01171700       0.01227100      -0.01294600
Ag       7.12243000       2.59821000      16.40161000  F      -0.01158600      -0.00297700       0.01374100
Ag       5.68405000       5.08956000      16.41574000  F      -0.01773700      -0.00126200      -0.00932300
44
Lattice="8.629602757 0.0 0.0 4.314801379 7.473454789 0.0 0.0 0.0 23.486801045" Properties=species:S:1:pos:R:3:move_mask:L:1:forces:R:3 stress="0.006535209579310822 5.382677470161722e-05 0.0002926768459309178 5.382677470161722e-05 0.006250053751876593 0.0007713256977766531 0.0002926768459309178 0.0007713256977766531 0.0024376713211867137" free_energy=-148.47136877 energy=-148.47309066 pbc="T T T"
O        5.68257000       1.77157000       1.58084000  T      -0.00534800      -0.03140300       0.00645000
O        2.83751000       1.84564000       1.65106000  T      -0.02427400      -0.00884600       0.00628000
C        3.58426000       2.29519000       2.77026000  T      -0.00991700      -0.01623800      -0.00020400
C        5.00556000       1.70785000       2.82593000  T      -0.01603000      -0.02480300       0.00151000
H        3.66289000       3.40340000       2.75050000  T      -0.02647900      -0.01424500      -0.04180300
H        3.06646000       2.01996000       3.71102000  T      -0.02724800      -0.00669600      -0.00509500
H        5.57081000       2.27354000       3.59280000  T       0.00365000      -0.02540900      -0.00451300
H        4.94831000       0.65346000       3.15721000  T       0.00510600      -0.03398400      -0.02367000
Ag       4.25927000       2.70489000      23.42120000  T       0.00039700       0.00162300      -0.01908900
Ag       8.57250000       0.14189000      23.48874000  T       0.00217900       0.01250000       0.01213200
Ag       9.97533000       2.69684000       0.09476000  T      -0.00188600       0.00415300       0.00132600
Ag       2.81899000       0.08932000       0.11807000  T       0.00980000      -0.01578100      -0.00556300
Ag       5.69877000       0.08483000       0.04243000  T       0.00170400      -0.01264600      -0.01294600
Ag      11.45165000       5.16003000      23.48909000  T       0.00360300      -0.00459000       0.01640600
Ag       8.57105000       5.14082000       0.03156000  T       0.00198000       0.00112800       0.02135100
Ag       7.18653000       2.70421000       0.07446000  T       0.00766900       0.00349300       0.00772300
Ag       5.68617000       5.15905000      23.49724000  T       0.00661800      -0.00472400       0.01807700
Ag       1.38164000       0.97153000      21.17523000  T       0.00416400       0.00789300       0.01139200
Ag       4.24561000       0.95891000      21.15966000  T       0.00349300       0.00332900       0.00962300
Ag       2.80604000       3.44773000      21.14765000  T      -0.00520000       0.00342000       0.00299000
Ag       5.69255000       3.44969000      21.13610000  T       0.01121000       0.00390900       0.00424000
Ag       7.11892000       0.97629000      21.15866000  T       0.00409300       0.00846700       0.01195000
Ag       4.24936000       5.94297000      21.12906000  T       0.00495100       0.00389300       0.00380100
Ag       9.99521000       5.96077000      21.15203000  T       0.00402900      -0.00157700       0.00660100
Ag       7.12633000       5.96392000      21.15889000  T       0.00273900       0.00308700       0.01015200
Ag       8.56414000       3.44155000      21.17587000  T       0.00273000      -0.00126000       0.01121400
Ag       2.80412000       1.77651000      18.80607000  F      -0.00394300      -0.04864800      -0.07798100
Ag       4.23836000       4.25615000      18.80263000  F       0.04015200       0.05059900      -0.07933300
Ag       5.68170000       1.77312000      18.78784000  F       0.00443900      -0.00908300      -0.02271700
Ag       7.12083000       4.26159000      18.79046000  F       0.01806200       0.02719400       0.12061600
Ag       8.55609000       1.77426000      18.79188000  F       0.01781000      -0.01723600       0.03811900
Ag       5.68442000       6.75789000      18.80009000  F      -0.01283500       0.03114400       0.00864100
Ag      11.43164000       6.75661000      18.81409000  F       0.01546600       0.03106400      -0.07156000
Ag       9.99791000       4.25827000      18.80804000  F      -0.04168800       0.05165800       0.05574800
Ag       8.55456000       6.75729000      18.80130000  F       0.01650600       0.00486800      -0.03382300
Ag       8.55976000       0.10529000      16.41389000  F      -0.00322300      -0.00414500       0.00219900
Ag       2.80704000       0.10706000      16.41111000  F       0.00584300       0.00686700       0.01301000
Ag      10.00004000       2.59747000      16.41325000  F       0.00501600       0.00861300       0.00911300
Ag       4.24456000       2.59721000      16.40971000  F      -0.00080900       0.00577700       0.00221800
Ag       5.68492000       0.10503000      16.41330000  F      -0.00851500       0.00218000       0.00606000
Ag      11.43682000       5.09105000      16.42301000  F       0.00112000      -0.00451300      -0.01303700
Ag       8.56065000       5.08890000      16.41664000  F       0.01183600       0.01255900      -0.01267300
Ag       7.12243000       2.59821000      16.40161000  F      -0.01138400      -0.00269900       0.01401900
Ag       5.68405000       5.08956000      16.41574000  F      -0.01758500      -0.00089200      -0.00895700
44
Lattice="8.629602757 0.0 0.0 4.314801379 7.473454789 0.0 0.0 0.0 23.486801045" Properties=species:S:1:pos:R:3:move_mask:L:1:forces:R:3 stress="0.006535946077387675 5.641075947973289e-05 0.0002921400761460918 5.641075947973289e-05 0.006253436649822821 0.0007631618038399978 0.0002921400761460918 0.0007631618038399978 0.0024341011779667084" free_energy=-148.4719059 energy=-148.47363623 pbc="T T T"
O        5.68194000       1.76983000       1.58030000  T      -0.00428600      -0.02838500       0.00253500
O        2.83621000       1.84425000       1.65067000  T      -0.02441300      -0.01170500       0.00219400
C        3.58366000       2.29390000       2.76921000  T      -0.01267100      -0.01451900       0.00044400
C        5.00453000       1.70625000       2.82509000  T      -0.01213200      -0.02331800       0.00282100
H        3.66281000       3.40210000       2.74823000  T      -0.02705100      -0.01606500      -0.03675900
H        3.06640000       2.01887000       3.71035000  T      -0.02899600      -0.00248600      -0.00487200
H        5.56931000       2.27275000       3.59183000  T       0.00431600      -0.03068500      -0.00375200
H        4.94714000       0.65176000       3.15617000  T       0.00579100      -0.03121100      -0.02101600
Ag       4.25932000       2.70546000      23.42082000  T       0.00103400      -0.00224700      -0.01527300
Ag       8.57278000       0.14225000      23.49020000  T       0.00194900       0.01132200       0.01020100
Ag       9.97512000       2.69730000       0.09578000  T       0.00008800       0.00312400       0.00009800
Ag       2.81937000       0.08853000       0.11877000  T       0.00972400      -0.01297600      -0.00619700
Ag       5.69895000       0.08380000       0.04259000  T       0.00188000      -0.00940300      -0.01336900
Ag      11.45219000       5.16010000      23.49086000  T       0.00383900      -0.00482000       0.01394400
Ag       8.57131000       5.14062000       0.03384000  T       0.00193400       0.00070400       0.01873700
Ag       7.18682000       2.70449000       0.07614000  T       0.00495300       0.00225700       0.00686400
Ag       5.68650000       5.15920000      23.49916000  T       0.00515000      -0.00547000       0.01551100
Ag       1.38184000       0.97186000      21.17600000  T       0.00411500       0.00724600       0.01036500
Ag       4.24588000       0.95913000      21.16014000  T       0.00322400       0.00278700       0.00791700
Ag       2.80613000       3.44816000      21.14819000  T      -0.00534100       0.00333400       0.00086300
Ag       5.69303000       3.45010000      21.13672000  T       0.01097900       0.00403000       0.00239000
Ag       7.11926000       0.97660000      21.15950000  T       0.00400800       0.00788100       0.01059600
Ag       4.24973000       5.94331000      21.12996000  T       0.00469900       0.00371400       0.00335200
Ag       9.99548000       5.96077000      21.15296000  T       0.00391000      -0.00182700       0.00456900
Ag       7.12667000       5.96412000      21.16006000  T       0.00236300       0.00274800       0.00835200
Ag       8.56427000       3.44177000      21.17709000  T       0.00282100      -0.00079100       0.00889600
Ag       2.80412000       1.77651000      18.80607000  F      -0.00395600      -0.04848800      -0.07593800
Ag       4.23836000       4.25615000      18.80263000  F       0.04041800       0.05113000      -0.07689400
Ag       5.68170000       1.77312000      18.78784000  F       0.00490700      -0.00893200      -0.02061900
Ag       7.12083000       4.26159000      18.79046000  F       0.01862200       0.02761200       0.12311000
Ag       8.55609000       1.77426000      18.79188000  F       0.01788200      -0.01685100       0.04050800
Ag       5.68442000       6.75789000      18.80009000  F      -0.01242700       0.03102200       0.01145700
Ag      11.43164000       6.75661000      18.81409000  F       0.01567100       0.03104600      -0.06853200
Ag       9.99791000       4.25827000      18.80804000  F      -0.04198900       0.05188200       0.05820700
Ag       8.55456000       6.75729000      18.80130000  F       0.01658600       0.00445200      -0.03106400
Ag       8.55976000       0.10529000      16.41389000  F      -0.00320500      -0.00412300       0.00203400
Ag       2.80704000       0.10706000      16.41111000  F       0.00583000       0.00689400       0.01279700
Ag      10.00004000       2.59747000      16.41325000  F       0.00503300       0.00863400       0.00893500
Ag       4.24456000       2.59721000      16.40971000  F      -0.00081500       0.00576700       0.00203400
Ag       5.68492000       0.10503000      16.41330000  F      -0.00849000       0.00222700       0.00587300
Ag      11.43682000       5.09105000      16.42301000  F       0.00111200      -0.00451500      -0.01324300
Ag       8.56065000       5.08890000      16.41664000  F       0.01183200       0.01255400      -0.01282000
Ag       7.12243000       2.59821000      16.40161000  F      -0.01136400      -0.00268200       0.01385000
Ag       5.68405000       5.08956000      16.41574000  F      -0.01753600      -0.00086300      -0.00910800
44
Lattice="8.629602757 0.0 0.0 4.314801379 7.473454789 0.0 0.0 0.0 23.486801045" Properties=species:S:1:pos:R:3:move_mask:L:1:forces:R:3 stress="0.006560868423327328 6.033666871991347e-05 0.0002923710119837495 6.033666871991347e-05 0.00627088790933879 0.0007467903254028059 0.0002923710119837495 0.0007467903254028059 0.0025068147592832483" free_energy=-148.4729875 energy=-148.4747385 pbc="T T T"
O        5.68062000       1.76597000       1.57914000  T      -0.00479500      -0.01870100      -0.00034000
O        2.83326000       1.84119000       1.64978000  T      -0.01734400      -0.01408500       0.00149700
C        3.58221000       2.29109000       2.76705000  T      -0.01679200      -0.01177500       0.00086700
C        5.00235000       1.70274000       2.82339000  T      -0.00352300      -0.01893500       0.00268700
H        3.66236000       3.39921000       2.74324000  T      -0.02706600      -0.01697100      -0.02488800
H        3.06596000       2.01665000       3.70890000  T      -0.03215900       0.00610200      -0.00257500
H        5.56622000       2.27069000       3.58979000  T       0.00626700      -0.04004100      -0.00082400
H        4.94477000       0.64798000       3.15384000  T       0.00629100      -0.02487100      -0.01371600
Ag       4.25943000       2.70656000      23.41995000  T       0.00219900      -0.00984500      -0.00824600
Ag       8.57337000       0.14308000      23.49332000  T       0.00135100       0.00820900       0.00499000
Ag       9.97474000       2.69827000       0.09790000  T       0.00356300       0.00088500      -0.00344600
Ag       2.82026000       0.08680000       0.12016000  T       0.00868600      -0.00756500      -0.00833100
Ag       5.69935000       0.08164000       0.04278000  T       0.00220100      -0.00369900      -0.01448700
Ag      11.45336000       5.16020000      23.49463000  T       0.00355100      -0.00512200       0.00704700
Ag       8.57185000       5.14020000       0.03871000  T       0.00178400      -0.00059300       0.01086600
Ag       7.18741000       2.70507000       0.07970000  T      -0.00025100      -0.00025200       0.00302400
Ag       5.68720000       5.15946000      23.50327000  T       0.00197600      -0.00749800       0.00890100
Ag       1.38231000       0.97260000      21.17769000  T       0.00395600       0.00481400       0.00682700
Ag       4.24648000       0.95961000      21.16117000  T       0.00274600       0.00138000       0.00329600
Ag       2.80626000       3.44910000      21.14926000  T      -0.00538400       0.00279400      -0.00385300
Ag       5.69412000       3.45099000      21.13799000  T       0.00954700       0.00376100      -0.00199800
Ag       7.12001000       0.97730000      21.16133000  T       0.00323300       0.00575800       0.00626900
Ag       4.25054000       5.94405000      21.13186000  T       0.00376600       0.00255300       0.00123300
Ag       9.99608000       5.96074000      21.15491000  T       0.00330100      -0.00256800      -0.00080300
Ag       7.12738000       5.96455000      21.16255000  T       0.00119700       0.00170400       0.00280900
Ag       8.56458000       3.44224000      21.17968000  T       0.00268600       0.00010300       0.00297200
Ag       2.80412000       1.77651000      18.80607000  F      -0.00407400      -0.04850600      -0.07133000
Ag       4.23836000       4.25615000      18.80263000  F       0.04081000       0.05185600      -0.07146400
Ag       5.68170000       1.77312000      18.78784000  F       0.00565200      -0.00898600      -0.01588200
Ag       7.12083000       4.26159000      18.79046000  F       0.01967300       0.02820400       0.12867400
Ag       8.55609000       1.77426000      18.79188000  F       0.01787000      -0.01643200       0.04582800
Ag       5.68442000       6.75789000      18.80009000  F      -0.01170500       0.03057300       0.01772800
Ag      11.43164000       6.75661000      18.81409000  F       0.01592400       0.03080500      -0.06181200
Ag       9.99791000       4.25827000      18.80804000  F      -0.04280600       0.05206700       0.06364300
Ag       8.55456000       6.75729000      18.80130000  F       0.01658200       0.00338500      -0.02494300
Ag       8.55976000       0.10529000      16.41389000  F      -0.00332900      -0.00436300       0.00200600
Ag       2.80704000       0.10706000      16.41111000  F       0.00563300       0.00660500       0.01263900
Ag      10.00004000       2.59747000      16.41325000  F       0.00485100       0.00837400       0.00886700
Ag       4.24456000       2.59721000      16.40971000  F      -0.00098700       0.00545600       0.00195300
Ag       5.68492000       0.10503000      16.41330000  F      -0.00861500       0.00199600       0.00578500
Ag      11.43682000       5.09105000      16.42301000  F       0.00093800      -0.00478900      -0.01335200
Ag       8.56065000       5.08890000      16.41664000  F       0.01165000       0.01223300      -0.01282900
Ag       7.12243000       2.59821000      16.40161000  F      -0.01144200      -0.00294600       0.01379600
Ag       5.68405000       5.08956000      16.41574000  F      -0.01761000      -0.00107300      -0.00908500
44
Lattice="8.629602757 0.0 0.0 4.314801379 7.473454789 0.0 0.0 0.0 23.486801045" Properties=species:S:1:pos:R:3:move_mask:L:1:forces:R:3 stress="0.006596557372509127 5.7147257556587115e-05 0.00029117888374070573 5.7147257556587115e-05 0.006295835221314946 0.0007358115108503774 0.00029117888374070573 0.0007358115108503774 0.002601741871578807" free_energy=-148.4735772 energy=-148.47534361 pbc="T T T"
O        5.67988000       1.76384000       1.57851000  T      -0.00787400      -0.01649800       0.00025900
O        2.83161000       1.83946000       1.64933000  T      -0.01482200      -0.01787700       0.00113600
C        3.58128000       2.28954000       2.76595000  T      -0.01659100      -0.01654000      -0.00286600
C        5.00123000       1.70075000       2.82254000  T      -0.00709000      -0.02084400      -0.00383500
H        3.66186000       3.39754000       2.74048000  T      -0.02623700      -0.01676200      -0.01905200
H        3.06541000       2.01561000       3.70814000  T      -0.03284800       0.00937200      -0.00254500
H        5.56469000       2.26919000       3.58874000  T       0.00832200      -0.04243700       0.00284300
H        4.94361000       0.64581000       3.15254000  T       0.00529700      -0.02159500      -0.01089300
Ag       4.25952000       2.70699000      23.41946000  T       0.00256700      -0.01285200      -0.00519000
Ag       8.57368000       0.14358000      23.49495000  T       0.00126500       0.00665500       0.00191600
Ag       9.97459000       2.69877000       0.09894000  T       0.00514500       0.00018800      -0.00560100
Ag       2.82079000       0.08586000       0.12078000  T       0.00802300      -0.00483500      -0.00956400
Ag       5.69958000       0.08052000       0.04274000  T       0.00242700      -0.00135600      -0.01559800
Ag      11.45400000       5.16020000      23.49662000  T       0.00391000      -0.00444600       0.00315300
Ag       8.57215000       5.13998000       0.04130000  T       0.00214900      -0.00104300       0.00700400
Ag       7.18769000       2.70535000       0.08156000  T      -0.00219700      -0.00094600       0.00113300
Ag       5.68757000       5.15951000      23.50545000  T       0.00077200      -0.00768500       0.00518300
Ag       1.38259000       0.97302000      21.17861000  T       0.00380800       0.00381300       0.00488300
Ag       4.24681000       0.95987000      21.16172000  T       0.00260800       0.00104700       0.00023700
Ag       2.80627000       3.44960000      21.14976000  T      -0.00439600       0.00316700      -0.00599500
Ag       5.69478000       3.45149000      21.13861000  T       0.00846800       0.00420300      -0.00400200
Ag       7.12043000       0.97771000      21.16232000  T       0.00328100       0.00473100       0.00373000
Ag       4.25099000       5.94446000      21.13284000  T       0.00341500       0.00227000       0.00022300
Ag       9.99642000       5.96069000      21.15589000  T       0.00327900      -0.00252900      -0.00362300
Ag       7.12776000       5.96479000      21.16384000  T       0.00090600       0.00145300      -0.00012100
Ag       8.56477000       3.44249000      21.18102000  T       0.00277700       0.00114900       0.00002400
Ag       2.80412000       1.77651000      18.80607000  F      -0.00389700      -0.04815500      -0.06833300
Ag       4.23836000       4.25615000      18.80263000  F       0.04129100       0.05263200      -0.06788300
Ag       5.68170000       1.77312000      18.78784000  F       0.00630900      -0.00863900      -0.01271000
Ag       7.12083000       4.26159000      18.79046000  F       0.02054200       0.02892700       0.13228800
Ag       8.55609000       1.77426000      18.79188000  F       0.01808000      -0.01586400       0.04944700
Ag       5.68442000       6.75789000      18.80009000  F      -0.01109500       0.03076200       0.02188100
Ag      11.43164000       6.75661000      18.81409000  F       0.01633400       0.03112600      -0.05742200
Ag       9.99791000       4.25827000      18.80804000  F      -0.04311800       0.05254700       0.06708600
Ag       8.55456000       6.75729000      18.80130000  F       0.01680400       0.00322000      -0.02100700
Ag       8.55976000       0.10529000      16.41389000  F      -0.00316100      -0.00412100       0.00252200
Ag       2.80704000       0.10706000      16.41111000  F       0.00572200       0.00677500       0.01303000
Ag      10.00004000       2.59747000      16.41325000  F       0.00495100       0.00860500       0.00927500
Ag       4.24456000       2.59721000      16.40971000  F      -0.00087000       0.00569400       0.00239100
Ag       5.68492000       0.10503000      16.41330000  F      -0.00845600       0.00218700       0.00622400
Ag      11.43682000       5.09105000      16.42301000  F       0.00107400      -0.00450300      -0.01288400
Ag       8.56065000       5.08890000      16.41664000  F       0.01177600       0.01245900      -0.01241300
Ag       7.12243000       2.59821000      16.40161000  F      -0.01121600      -0.00270100       0.01423000
Ag       5.68405000       5.08956000      16.41574000  F      -0.01743600      -0.00075300      -0.00856000
44
Lattice="8.629602757 0.0 0.0 4.314801379 7.473454789 0.0 0.0 0.0 23.486801045" Properties=species:S:1:pos:R:3:move_mask:L:1:forces:R:3 stress="0.006568451856915276 5.4950246344276196e-05 0.0002918155176715459 5.4950246344276196e-05 0.006264727539831544 0.0007379398654623035 0.0002918155176715459 0.0007379398654623035 0.002517674985162285" free_energy=-148.47336542 energy=-148.47512459 pbc="T T T"
O        5.68001000       1.76424000       1.57868000  T      -0.00621900      -0.01616800      -0.00226000
O        2.83190000       1.83976000       1.64946000  T      -0.01443900      -0.01721200       0.00117000
C        3.58137000       2.28980000       2.76622000  T      -0.01490400      -0.01422900       0.00030000
C        5.00146000       1.70108000       2.82275000  T      -0.00690500      -0.01943300      -0.00021100
H        3.66174000       3.39782000       2.74101000  T      -0.02522000      -0.01596600      -0.01993000
H        3.06524000       2.01597000       3.70832000  T      -0.03167100       0.00765900      -0.00265500
H        5.56517000       2.26919000       3.58903000  T       0.00759200      -0.04014500       0.00263500
H        4.94397000       0.64617000       3.15277000  T       0.00443800      -0.02247900      -0.01148900
Ag       4.25952000       2.70676000      23.41953000  T       0.00236300      -0.01205800      -0.00520200
Ag       8.57361000       0.14351000      23.49454000  T       0.00116500       0.00646800       0.00217300
Ag       9.97468000       2.69864000       0.09862000  T       0.00488900       0.00015200      -0.00486700
Ag       2.82073000       0.08606000       0.12053000  T       0.00777900      -0.00516800      -0.00903800
Ag       5.69954000       0.08080000       0.04260000  T       0.00231700      -0.00151700      -0.01477500
Ag      11.45387000       5.16015000      23.49613000  T       0.00358700      -0.00470400       0.00362700
Ag       8.57209000       5.14003000       0.04069000  T       0.00194900      -0.00109300       0.00702800
Ag       7.18760000       2.70527000       0.08108000  T      -0.00210300      -0.00111800       0.00182700
Ag       5.68749000       5.15942000      23.50493000  T       0.00086400      -0.00760000       0.00557000
Ag       1.38255000       0.97295000      21.17842000  T       0.00349600       0.00362000       0.00518900
Ag       4.24675000       0.95981000      21.16158000  T       0.00252600       0.00096800       0.00082700
Ag       2.80623000       3.44950000      21.14958000  T      -0.00418100       0.00279600      -0.00485300
Ag       5.69469000       3.45140000      21.13841000  T       0.00806800       0.00379200      -0.00327100
Ag       7.12035000       0.97765000      21.16210000  T       0.00319200       0.00459600       0.00405500
Ag       4.25091000       5.94437000      21.13259000  T       0.00326200       0.00205100       0.00081000
Ag       9.99636000       5.96068000      21.15560000  T       0.00308900      -0.00252500      -0.00269100
Ag       7.12767000       5.96474000      21.16350000  T       0.00078300       0.00130900       0.00068400
Ag       8.56474000       3.44243000      21.18067000  T       0.00254300       0.00075400       0.00083500
Ag       2.80412000       1.77651000      18.80607000  F      -0.00398000      -0.04840800      -0.06928900
Ag       4.23836000       4.25615000      18.80263000  F       0.04114000       0.05237500      -0.06907000
Ag       5.68170000       1.77312000      18.78784000  F       0.00611200      -0.00886600      -0.01370100
Ag       7.12083000       4.26159000      18.79046000  F       0.02032200       0.02869700       0.13095700
Ag       8.55609000       1.77426000      18.79188000  F       0.01799500      -0.01615300       0.04828900
Ag       5.68442000       6.75789000      18.80009000  F      -0.01131500       0.03069000       0.02053300
Ag      11.43164000       6.75661000      18.81409000  F       0.01623400       0.03104500      -0.05880800
Ag       9.99791000       4.25827000      18.80804000  F      -0.04311600       0.05237000       0.06571900
Ag       8.55456000       6.75729000      18.80130000  F       0.01669600       0.00319100      -0.02225600
Ag       8.55976000       0.10529000      16.41389000  F      -0.00325500      -0.00426300       0.00230300
Ag       2.80704000       0.10706000      16.41111000  F       0.00567500       0.00667700       0.01285500
Ag      10.00004000       2.59747000      16.41325000  F       0.00490100       0.00847100       0.00911800
Ag       4.24456000       2.59721000      16.40971000  F      -0.00094200       0.00553000       0.00220500
Ag       5.68492000       0.10503000      16.41330000  F      -0.00855100       0.00209000       0.00603800
Ag      11.43682000       5.09105000      16.42301000  F       0.00098500      -0.00470100      -0.01310000
Ag       8.56065000       5.08890000      16.41664000  F       0.01170000       0.01230700      -0.01256500
Ag       7.12243000       2.59821000      16.40161000  F      -0.01134600      -0.00285000       0.01406700
Ag       5.68405000       5.08956000      16.41574000  F      -0.01751500      -0.00095300      -0.00878500
44
Lattice="8.629602757 0.0 0.0 4.314801379 7.473454789 0.0 0.0 0.0 23.486801045" Properties=species:S:1:pos:R:3:move_mask:L:1:forces:R:3 stress="0.006576871652726091 4.3309831824503925e-05 0.000291060295067314 4.3309831824503925e-05 0.006257400008117758 0.0007459227556343082 0.000291060295067314 0.0007459227556343082 0.002512463325042173" free_energy=-148.47322833 energy=-148.47497548 pbc="T T T"
O        5.68060000       1.76592000       1.57930000  T      -0.00877000      -0.01803000       0.00239200
O        2.83309000       1.84097000       1.65007000  T      -0.01512800      -0.01697200       0.00230600
C        3.58169000       2.29097000       2.76762000  T      -0.01061700      -0.01522100      -0.00204500
C        5.00249000       1.70246000       2.82384000  T      -0.01070600      -0.02064500      -0.00116400
H        3.66098000       3.39897000       2.74321000  T      -0.02017700      -0.01297600      -0.02400600
H        3.06422000       2.01760000       3.70909000  T      -0.02618000       0.00001400      -0.00252800
H        5.56740000       2.26887000       3.59040000  T       0.00370900      -0.03089900       0.00064400
H        4.94562000       0.64755000       3.15369000  T      -0.00045200      -0.02624500      -0.01439900
Ag       4.25954000       2.70562000      23.41981000  T       0.00088300      -0.00591800      -0.00952100
Ag       8.57329000       0.14328000      23.49272000  T       0.00216300       0.00597800       0.00568300
Ag       9.97510000       2.69805000       0.09712000  T       0.00174500       0.00150400      -0.00210000
Ag       2.82051000       0.08688000       0.11930000  T       0.00679500      -0.00867700      -0.00685900
Ag       5.69939000       0.08205000       0.04188000  T       0.00276200      -0.00645300      -0.01295300
Ag      11.45329000       5.15990000      23.49398000  T       0.00419200      -0.00386500       0.00685100
Ag       8.57183000       5.14025000       0.03799000  T       0.00215400      -0.00148800       0.01073900
Ag       7.18717000       2.70487000       0.07896000  T       0.00151800       0.00054400       0.00454400
Ag       5.68710000       5.15896000      23.50264000  T       0.00196100      -0.00499400       0.00901100
Ag       1.38241000       0.97265000      21.17761000  T       0.00326400       0.00396200       0.00565300
Ag       4.24649000       0.95956000      21.16101000  T       0.00284000       0.00175800       0.00154900
Ag       2.80597000       3.44903000      21.14874000  T      -0.00200700       0.00269300      -0.00139300
Ag       5.69434000       3.45100000      21.13752000  T       0.00704400       0.00348000      -0.00036700
Ag       7.12002000       0.97742000      21.16116000  T       0.00352700       0.00481600       0.00501800
Ag       4.25054000       5.94400000      21.13145000  T       0.00361000       0.00258600       0.00259900
Ag       9.99612000       5.96060000      21.15431000  T       0.00311500      -0.00171700       0.00083700
Ag       7.12726000       5.96453000      21.16202000  T       0.00188500       0.00145800       0.00417500
Ag       8.56466000       3.44216000      21.17914000  T       0.00208500       0.00057600       0.00440500
Ag       2.80412000       1.77651000      18.80607000  F      -0.00401400      -0.04883700      -0.07205800
Ag       4.23836000       4.25615000      18.80263000  F       0.04081300       0.05173700      -0.07233900
Ag       5.68170000       1.77312000      18.78784000  F       0.00554400      -0.00922300      -0.01646400
Ag       7.12083000       4.26159000      18.79046000  F       0.01980600       0.02828600       0.12727100
Ag       8.55609000       1.77426000      18.79188000  F       0.01792600      -0.01684300       0.04521100
Ag       5.68442000       6.75789000      18.80009000  F      -0.01186200       0.03099000       0.01688100
Ag      11.43164000       6.75661000      18.81409000  F       0.01608500       0.03124800      -0.06271600
Ag       9.99791000       4.25827000      18.80804000  F      -0.04297600       0.05209000       0.06181300
Ag       8.55456000       6.75729000      18.80130000  F       0.01650600       0.00369000      -0.02591200
Ag       8.55976000       0.10529000      16.41389000  F      -0.00334400      -0.00433000       0.00196500
Ag       2.80704000       0.10706000      16.41111000  F       0.00564400       0.00659100       0.01257600
Ag      10.00004000       2.59747000      16.41325000  F       0.00482000       0.00839300       0.00881000
Ag       4.24456000       2.59721000      16.40971000  F      -0.00100500       0.00548700       0.00192400
Ag       5.68492000       0.10503000      16.41330000  F      -0.00865900       0.00197500       0.00572100
Ag      11.43682000       5.09105000      16.42301000  F       0.00092200      -0.00478700      -0.01341700
Ag       8.56065000       5.08890000      16.41664000  F       0.01164700       0.01226300      -0.01293200
Ag       7.12243000       2.59821000      16.40161000  F      -0.01143400      -0.00293100       0.01375800
Ag       5.68405000       5.08956000      16.41574000  F      -0.01763400      -0.00106900      -0.00916300
44
Lattice="8.629602757 0.0 0.0 4.314801379 7.473454789 0.0 0.0 0.0 23.486801045" Properties=species:S:1:pos:R:3:move_mask:L:1:forces:R:3 stress="0.006568751449353317 4.161214134226368e-05 0.00029055473282811747 4.161214134226368e-05 0.006250259721677747 0.0007448741821011598 0.00029055473282811747 0.0007448741821011598 0.0024635486180226256" free_energy=-148.47316922 energy=-148.47491262 pbc="T T T"
O        5.68057000       1.76590000       1.57939000  T      -0.00799100      -0.01850300      -0.00023100
O        2.83306000       1.84092000       1.65015000  T      -0.01780100      -0.01894600      -0.00185600
C        3.58162000       2.29093000       2.76773000  T      -0.01049500      -0.01615800      -0.00351400
C        5.00248000       1.70238000       2.82393000  T      -0.01204700      -0.02123000      -0.00157300
H        3.66072000       3.39896000       2.74318000  T      -0.01868400      -0.01331800      -0.02352500
H        3.06388000       2.01774000       3.70914000  T      -0.02474300      -0.00071500      -0.00277600
H        5.56764000       2.26856000       3.59053000  T       0.00213600      -0.03035400       0.00001400
H        4.94577000       0.64742000       3.15364000  T      -0.00180700      -0.02673000      -0.01405100
Ag       4.25955000       2.70547000      23.41974000  T       0.00064900      -0.00598400      -0.00795900
Ag       8.57329000       0.14331000      23.49261000  T       0.00234100       0.00575100       0.00602200
Ag       9.97515000       2.69801000       0.09697000  T       0.00226100       0.00141600      -0.00121000
Ag       2.82055000       0.08687000       0.11912000  T       0.00676400      -0.00779600      -0.00577300
Ag       5.69940000       0.08210000       0.04169000  T       0.00283000      -0.00576900      -0.01175700
Ag      11.45327000       5.15984000      23.49384000  T       0.00436200      -0.00366500       0.00715300
Ag       8.57183000       5.14025000       0.03784000  T       0.00229900      -0.00157700       0.01102800
Ag       7.18715000       2.70484000       0.07881000  T       0.00130800       0.00046000       0.00512900
Ag       5.68708000       5.15887000      23.50252000  T       0.00201600      -0.00468100       0.00930500
Ag       1.38242000       0.97266000      21.17759000  T       0.00327400       0.00389800       0.00583500
Ag       4.24649000       0.95955000      21.16097000  T       0.00295000       0.00187500       0.00165200
Ag       2.80593000       3.44901000      21.14865000  T      -0.00149700       0.00278800      -0.00074900
Ag       5.69438000       3.45099000      21.13743000  T       0.00668500       0.00349500       0.00025900
Ag       7.12002000       0.97744000      21.16112000  T       0.00363600       0.00474300       0.00518300
Ag       4.25054000       5.94399000      21.13138000  T       0.00358000       0.00263600       0.00323200
Ag       9.99613000       5.96057000      21.15421000  T       0.00315300      -0.00149700       0.00135300
Ag       7.12724000       5.96452000      21.16193000  T       0.00207500       0.00153600       0.00465200
Ag       8.56467000       3.44214000      21.17904000  T       0.00218400       0.00091200       0.00482200
Ag       2.80412000       1.77651000      18.80607000  F      -0.00389000      -0.04876500      -0.07237000
Ag       4.23836000       4.25615000      18.80263000  F       0.04091400       0.05185600      -0.07268800
Ag       5.68170000       1.77312000      18.78784000  F       0.00563500      -0.00910900      -0.01674600
Ag       7.12083000       4.26159000      18.79046000  F       0.01991200       0.02844400       0.12679600
Ag       8.55609000       1.77426000      18.79188000  F       0.01803700      -0.01676000       0.04490600
Ag       5.68442000       6.75789000      18.80009000  F      -0.01177700       0.03122900       0.01653600
Ag      11.43164000       6.75661000      18.81409000  F       0.01621800       0.03149400      -0.06306700
Ag       9.99791000       4.25827000      18.80804000  F      -0.04288500       0.05223000       0.06128000
Ag       8.55456000       6.75729000      18.80130000  F       0.01659600       0.00390500      -0.02629700
Ag       8.55976000       0.10529000      16.41389000  F      -0.00325800      -0.00419200       0.00216000
Ag       2.80704000       0.10706000      16.41111000  F       0.00575000       0.00677900       0.01276600
Ag      10.00004000       2.59747000      16.41325000  F       0.00494000       0.00855400       0.00902000
Ag       4.24456000       2.59721000      16.40971000  F      -0.00091200       0.00561200       0.00209800
Ag       5.68492000       0.10503000      16.41330000  F      -0.00856500       0.00216300       0.00590500
Ag      11.43682000       5.09105000      16.42301000  F       0.00100700      -0.00467800      -0.01323100
Ag       8.56065000       5.08890000      16.41664000  F       0.01173800       0.01238000      -0.01271300
Ag       7.12243000       2.59821000      16.40161000  F      -0.01136900      -0.00277400       0.01395400
Ag       5.68405000       5.08956000      16.41574000  F      -0.01752800      -0.00095600      -0.00897500
44
Lattice="8.629602757 0.0 0.0 4.314801379 7.473454789 0.0 0.0 0.0 23.486801045" Properties=species:S:1:pos:R:3:move_mask:L:1:forces:R:3 stress="0.006568177230513736 4.2130186599712e-05 0.00029081063470227865 4.2130186599712e-05 0.006249460808509634 0.0007444060689167186 0.00029081063470227865 0.0007444060689167186 0.0024666381650399376" free_energy=-148.47314002 energy=-148.47488431 pbc="T T T"
O        5.68051000       1.76574000       1.57935000  T      -0.00838300      -0.01858800      -0.00037400
O        2.83293000       1.84078000       1.65010000  T      -0.01718100      -0.01918100      -0.00134000
C        3.58156000       2.29081000       2.76763000  T      -0.01084300      -0.01605300      -0.00312900
C        5.00238000       1.70223000       2.82386000  T      -0.01183500      -0.02088000      -0.00129600
H        3.66069000       3.39884000       2.74297000  T      -0.01864600      -0.01382400      -0.02287100
H        3.06385000       2.01765000       3.70909000  T      -0.02456700      -0.00019800      -0.00293600
H        5.56751000       2.26846000       3.59045000  T       0.00194000      -0.03099400       0.00012000
H        4.94567000       0.64724000       3.15354000  T      -0.00182500      -0.02625400      -0.01359400
Ag       4.25955000       2.70551000      23.41970000  T       0.00070300      -0.00637000      -0.00723700
Ag       8.57331000       0.14335000      23.49274000  T       0.00231900       0.00559300       0.00598700
Ag       9.97513000       2.69805000       0.09705000  T       0.00244200       0.00125700      -0.00100700
Ag       2.82059000       0.08680000       0.11917000  T       0.00668700      -0.00736700      -0.00539000
Ag       5.69942000       0.08200000       0.04169000  T       0.00277300      -0.00529800      -0.01126000
Ag      11.45332000       5.15984000      23.49400000  T       0.00421300      -0.00363800       0.00697600
Ag       8.57185000       5.14024000       0.03804000  T       0.00230900      -0.00143800       0.01083200
Ag       7.18718000       2.70487000       0.07896000  T       0.00117800       0.00034800       0.00502000
Ag       5.68711000       5.15888000      23.50269000  T       0.00183400      -0.00469200       0.00901800
Ag       1.38244000       0.97269000      21.17766000  T       0.00324200       0.00375400       0.00553300
Ag       4.24651000       0.95957000      21.16101000  T       0.00289300       0.00177500       0.00137600
Ag       2.80594000       3.44905000      21.14870000  T      -0.00150400       0.00271100      -0.00106800
Ag       5.69442000       3.45103000      21.13748000  T       0.00656000       0.00343300      -0.00009400
Ag       7.12005000       0.97747000      21.16119000  T       0.00356400       0.00452900       0.00477400
Ag       4.25058000       5.94402000      21.13145000  T       0.00349500       0.00255200       0.00289000
Ag       9.99615000       5.96057000      21.15429000  T       0.00311600      -0.00148100       0.00091900
Ag       7.12727000       5.96454000      21.16203000  T       0.00194600       0.00152900       0.00410200
Ag       8.56468000       3.44216000      21.17915000  T       0.00216500       0.00086600       0.00428200
Ag       2.80412000       1.77651000      18.80607000  F      -0.00384900      -0.04872700      -0.07235300
Ag       4.23836000       4.25615000      18.80263000  F       0.04097300       0.05192400      -0.07262900
Ag       5.68170000       1.77312000      18.78784000  F       0.00571200      -0.00907700      -0.01672100
Ag       7.12083000       4.26159000      18.79046000  F       0.01998900       0.02850200       0.12685400
Ag       8.55609000       1.77426000      18.79188000  F       0.01808000      -0.01672000       0.04495300
Ag       5.68442000       6.75789000      18.80009000  F      -0.01171100       0.03124000       0.01662300
Ag      11.43164000       6.75661000      18.81409000  F       0.01628000       0.03151700      -0.06296000
Ag       9.99791000       4.25827000      18.80804000  F      -0.04285800       0.05227400       0.06133800
Ag       8.55456000       6.75729000      18.80130000  F       0.01664300       0.00389500      -0.02622400
Ag       8.55976000       0.10529000      16.41389000  F      -0.00321700      -0.00416900       0.00215000
Ag       2.80704000       0.10706000      16.41111000  F       0.00578200       0.00679300       0.01274900
Ag      10.00004000       2.59747000      16.41325000  F       0.00496800       0.00857600       0.00900500
Ag       4.24456000       2.59721000      16.40971000  F      -0.00087400       0.00563100       0.00208400
Ag       5.68492000       0.10503000      16.41330000  F      -0.00852200       0.00218400       0.00589600
Ag      11.43682000       5.09105000      16.42301000  F       0.00104400      -0.00465200      -0.01324300
Ag       8.56065000       5.08890000      16.41664000  F       0.01177200       0.01239600      -0.01271600
Ag       7.12243000       2.59821000      16.40161000  F      -0.01132100      -0.00275300       0.01394200
Ag       5.68405000       5.08956000      16.41574000  F      -0.01748300      -0.00092400      -0.00897800
44
Lattice="8.629602757 0.0 0.0 4.314801379 7.473454789 0.0 0.0 0.0 23.486801045" Properties=species:S:1:pos:R:3:move_mask:L:1:forces:R:3 stress="0.006600895221351616 4.380291104544871e-05 0.00029169692899815405 4.380291104544871e-05 0.0062787272448009005 0.0007370910202211834 0.00029169692899815405 0.0007370910202211834 0.0025547121003152763" free_energy=-148.47374034 energy=-148.47549685 pbc="T T T"
O        5.67982000       1.76405000       1.57896000  T      -0.00880000      -0.01470600      -0.00154600
O        2.83159000       1.83931000       1.64974000  T      -0.01394300      -0.02007900      -0.00055600
C        3.58089000       2.28951000       2.76677000  T      -0.01606300      -0.01505900      -0.00451100
C        5.00135000       1.70063000       2.82322000  T      -0.00742700      -0.02197100      -0.00244400
H        3.66031000       3.39759000       2.74087000  T      -0.01808000      -0.01696700      -0.01853900
H        3.06337000       2.01681000       3.70853000  T      -0.02424700       0.00299000      -0.00386400
H        5.56638000       2.26726000       3.58972000  T       0.00048600      -0.03524100       0.00009000
H        4.94471000       0.64545000       3.15251000  T      -0.00273500      -0.02270300      -0.01076200
Ag       4.25958000       2.70581000      23.41931000  T       0.00146200      -0.00863400      -0.00482500
Ag       8.57358000       0.14370000      23.49397000  T       0.00203700       0.00417700       0.00344100
Ag       9.97503000       2.69841000       0.09783000  T       0.00343600       0.00088200      -0.00301300
Ag       2.82099000       0.08608000       0.11963000  T       0.00613100      -0.00579300      -0.00678100
Ag       5.69961000       0.08115000       0.04164000  T       0.00306100      -0.00358900      -0.01210200
Ag      11.45381000       5.15983000      23.49545000  T       0.00448700      -0.00330700       0.00431500
Ag       8.57209000       5.14007000       0.03994000  T       0.00248200      -0.00195400       0.00793400
Ag       7.18743000       2.70508000       0.08031000  T      -0.00097600      -0.00064600       0.00331800
Ag       5.68739000       5.15893000      23.50428000  T       0.00069400      -0.00528600       0.00614000
Ag       1.38266000       0.97300000      21.17831000  T       0.00313400       0.00292500       0.00406600
Ag       4.24678000       0.95978000      21.16136000  T       0.00279800       0.00119400      -0.00062200
Ag       2.80600000       3.44942000      21.14908000  T      -0.00137100       0.00288900      -0.00291600
Ag       5.69488000       3.45139000      21.13794000  T       0.00598700       0.00363800      -0.00157300
Ag       7.12038000       0.97778000      21.16188000  T       0.00349300       0.00355300       0.00308200
Ag       4.25092000       5.94432000      21.13217000  T       0.00328500       0.00222500       0.00199100
Ag       9.99641000       5.96055000      21.15499000  T       0.00297600      -0.00165300      -0.00103800
Ag       7.12757000       5.96472000      21.16297000  T       0.00169800       0.00137300       0.00193400
Ag       8.56482000       3.44234000      21.18012000  T       0.00230500       0.00163500       0.00193700
Ag       2.80412000       1.77651000      18.80607000  F      -0.00378900      -0.04855000      -0.07013000
Ag       4.23836000       4.25615000      18.80263000  F       0.04124600       0.05236900      -0.06997000
Ag       5.68170000       1.77312000      18.78784000  F       0.00613100      -0.00891200      -0.01441300
Ag       7.12083000       4.26159000      18.79046000  F       0.02054400       0.02891800       0.12962700
Ag       8.55609000       1.77426000      18.79188000  F       0.01819800      -0.01639800       0.04761100
Ag       5.68442000       6.75789000      18.80009000  F      -0.01130500       0.03127000       0.01968700
Ag      11.43164000       6.75661000      18.81409000  F       0.01651200       0.03161800      -0.05975400
Ag       9.99791000       4.25827000      18.80804000  F      -0.04309500       0.05249900       0.06402400
Ag       8.55456000       6.75729000      18.80130000  F       0.01674500       0.00365700      -0.02334400
Ag       8.55976000       0.10529000      16.41389000  F      -0.00316300      -0.00409700       0.00248400
Ag       2.80704000       0.10706000      16.41111000  F       0.00578800       0.00681500       0.01299900
Ag      10.00004000       2.59747000      16.41325000  F       0.00497600       0.00863100       0.00928000
Ag       4.24456000       2.59721000      16.40971000  F      -0.00085700       0.00569200       0.00237500
Ag       5.68492000       0.10503000      16.41330000  F      -0.00847500       0.00221700       0.00617500
Ag      11.43682000       5.09105000      16.42301000  F       0.00108000      -0.00456400      -0.01294900
Ag       8.56065000       5.08890000      16.41664000  F       0.01179900       0.01244500      -0.01245200
Ag       7.12243000       2.59821000      16.40161000  F      -0.01122200      -0.00268800       0.01422400
Ag       5.68405000       5.08956000      16.41574000  F      -0.01742500      -0.00081500      -0.00863100
44
Lattice="8.629602757 0.0 0.0 4.314801379 7.473454789 0.0 0.0 0.0 23.486801045" Properties=species:S:1:pos:R:3:move_mask:L:1:forces:R:3 stress="0.006594591297134474 4.1755696052159e-05 0.0002924583931115118 4.1755696052159e-05 0.00626919021885655 0.0007342823411145359 0.0002924583931115118 0.0007342823411145359 0.0025099729629009452" free_energy=-148.47418037 energy=-148.4759355 pbc="T T T"
O        5.67956000       1.76347000       1.57884000  T      -0.00729200      -0.01367400      -0.00549000
O        2.83112000       1.83872000       1.64964000  T      -0.01392100      -0.02086400      -0.00230500
C        3.58055000       2.28902000       2.76649000  T      -0.01460000      -0.01465500      -0.00312300
C        5.00102000       1.70000000       2.82303000  T      -0.00831600      -0.02034600      -0.00159900
H        3.66004000       3.39709000       2.74015000  T      -0.01726300      -0.01692700      -0.01719400
H        3.06301000       2.01663000       3.70834000  T      -0.02400500       0.00307000      -0.00402000
H        5.56609000       2.26659000       3.58953000  T       0.00017200      -0.03509200       0.00071700
H        4.94443000       0.64476000       3.15214000  T      -0.00362700      -0.02244300      -0.01001500
Ag       4.25961000       2.70581000      23.41917000  T       0.00153200      -0.00939100      -0.00325700
Ag       8.57367000       0.14383000      23.49432000  T       0.00188800       0.00373000       0.00312900
Ag       9.97504000       2.69851000       0.09799000  T       0.00400300       0.00053000      -0.00279900
Ag       2.82115000       0.08584000       0.11969000  T       0.00598000      -0.00515000      -0.00662800
Ag       5.69970000       0.08090000       0.04150000  T       0.00306000      -0.00267500      -0.01170500
Ag      11.45398000       5.15979000      23.49586000  T       0.00447100      -0.00351100       0.00380300
Ag       8.57218000       5.14000000       0.04051000  T       0.00246200      -0.00228100       0.00729200
Ag       7.18749000       2.70513000       0.08069000  T      -0.00200800      -0.00125700       0.00406300
Ag       5.68746000       5.15889000      23.50475000  T       0.00039900      -0.00536700       0.00575400
Ag       1.38275000       0.97311000      21.17852000  T       0.00298400       0.00251100       0.00390900
Ag       4.24687000       0.95984000      21.16144000  T       0.00264600       0.00104500      -0.00116200
Ag       2.80601000       3.44954000      21.14914000  T      -0.00103400       0.00286000      -0.00278900
Ag       5.69506000       3.45152000      21.13804000  T       0.00564700       0.00359000      -0.00149800
Ag       7.12050000       0.97789000      21.16209000  T       0.00357700       0.00322500       0.00293300
Ag       4.25104000       5.94443000      21.13237000  T       0.00314200       0.00218100       0.00246700
Ag       9.99651000       5.96053000      21.15516000  T       0.00291900      -0.00170200      -0.00090600
Ag       7.12766000       5.96478000      21.16322000  T       0.00163100       0.00122400       0.00202700
Ag       8.56488000       3.44241000      21.18039000  T       0.00217700       0.00173400       0.00193500
Ag       2.80412000       1.77651000      18.80607000  F      -0.00386300      -0.04860700      -0.07000300
Ag       4.23836000       4.25615000      18.80263000  F       0.04125400       0.05250800      -0.06976700
Ag       5.68170000       1.77312000      18.78784000  F       0.00622700      -0.00895900      -0.01427100
Ag       7.12083000       4.26159000      18.79046000  F       0.02068700       0.02902600       0.12969100
Ag       8.55609000       1.77426000      18.79188000  F       0.01820900      -0.01639200       0.04781300
Ag       5.68442000       6.75789000      18.80009000  F      -0.01127500       0.03123500       0.01994600
Ag      11.43164000       6.75661000      18.81409000  F       0.01657300       0.03159900      -0.05940600
Ag       9.99791000       4.25827000      18.80804000  F      -0.04322400       0.05253100       0.06404700
Ag       8.55456000       6.75729000      18.80130000  F       0.01671400       0.00348800      -0.02309500
Ag       8.55976000       0.10529000      16.41389000  F      -0.00321700      -0.00413600       0.00225300
Ag       2.80704000       0.10706000      16.41111000  F       0.00574900       0.00680000       0.01276800
Ag      10.00004000       2.59747000      16.41325000  F       0.00495000       0.00859400       0.00907100
Ag       4.24456000       2.59721000      16.40971000  F      -0.00090700       0.00562600       0.00215200
Ag       5.68492000       0.10503000      16.41330000  F      -0.00852400       0.00221100       0.00594700
Ag      11.43682000       5.09105000      16.42301000  F       0.00101800      -0.00465000      -0.01319500
Ag       8.56065000       5.08890000      16.41664000  F       0.01174800       0.01238300      -0.01264600
Ag       7.12243000       2.59821000      16.40161000  F      -0.01129400      -0.00273400       0.01401800
Ag       5.68405000       5.08956000      16.41574000  F      -0.01745200      -0.00088700      -0.00886300
44
Lattice="8.629602757 0.0 0.0 4.314801379 7.473454789 0.0 0.0 0.0 23.486801045" Properties=species:S:1:pos:R:3:move_mask:L:1:forces:R:3 stress="0.006625368178634204 3.680617931533358e-05 0.0002914160610874893 3.680617931533358e-05 0.006282965229497375 0.000726848703745609 0.0002914160610874893 0.000726848703745609 0.0025774311935334916" free_energy=-148.47443122 energy=-148.4761952 pbc="T T T"
O        5.67883000       1.76185000       1.57837000  T      -0.01007700      -0.01081300      -0.00186100
O        2.82973000       1.83696000       1.64931000  T      -0.01128100      -0.02153000      -0.00125800
C        3.57954000       2.28762000       2.76578000  T      -0.01194600      -0.01779400      -0.00510400
C        5.00006000       1.69818000       2.82253000  T      -0.00991500      -0.01887200      -0.00526700
H        3.65918000       3.39561000       2.73812000  T      -0.01468000      -0.01621600      -0.01355300
H        3.06184000       2.01618000       3.70781000  T      -0.02274100       0.00295500      -0.00328800
H        5.56530000       2.26451000       3.58905000  T      -0.00120900      -0.03501100       0.00151300
H        4.94363000       0.64276000       3.15110000  T      -0.00620400      -0.02109500      -0.00826400
Ag       4.25969000       2.70567000      23.41880000  T       0.00121800      -0.00973900      -0.00188800
Ag       8.57391000       0.14420000      23.49526000  T       0.00199600       0.00185900       0.00123200
Ag       9.97512000       2.69877000       0.09842000  T       0.00416300       0.00013800      -0.00392300
Ag       2.82164000       0.08518000       0.11976000  T       0.00478300      -0.00427200      -0.00708000
Ag       5.69994000       0.08022000       0.04105000  T       0.00331900      -0.00210000      -0.01157500
Ag      11.45447000       5.15966000      23.49698000  T       0.00460300      -0.00303800       0.00128800
Ag       8.57243000       5.13980000       0.04206000  T       0.00247600      -0.00274700       0.00444000
Ag       7.18758000       2.70523000       0.08175000  T      -0.00233000      -0.00148700       0.00257900
Ag       5.68765000       5.15873000      23.50604000  T      -0.00021800      -0.00506600       0.00334500
Ag       1.38300000       0.97340000      21.17910000  T       0.00249300       0.00153100       0.00202600
Ag       4.24714000       0.96001000      21.16164000  T       0.00257600       0.00065200      -0.00328300
Ag       2.80602000       3.44989000      21.14930000  T       0.00020800       0.00252700      -0.00342400
Ag       5.69557000       3.45190000      21.13829000  T       0.00412800       0.00314100      -0.00230700
Ag       7.12085000       0.97821000      21.16265000  T       0.00338300       0.00237600       0.00092400
Ag       4.25138000       5.94471000      21.13295000  T       0.00287000       0.00185300       0.00165600
Ag       9.99679000       5.96046000      21.15560000  T       0.00245600      -0.00147700      -0.00256400
Ag       7.12792000       5.96495000      21.16393000  T       0.00146500       0.00084700       0.00035300
Ag       8.56505000       3.44260000      21.18111000  T       0.00202800       0.00206300       0.00003300
Ag       2.80412000       1.77651000      18.80607000  F      -0.00375900      -0.04857300      -0.06849300
Ag       4.23836000       4.25615000      18.80263000  F       0.04160100       0.05290000      -0.06790200
Ag       5.68170000       1.77312000      18.78784000  F       0.00669200      -0.00887400      -0.01261300
Ag       7.12083000       4.26159000      18.79046000  F       0.02128200       0.02941700       0.13148900
Ag       8.55609000       1.77426000      18.79188000  F       0.01840000      -0.01624700       0.04980800
Ag       5.68442000       6.75789000      18.80009000  F      -0.01090500       0.03136600       0.02224700
Ag      11.43164000       6.75661000      18.81409000  F       0.01695700       0.03182700      -0.05703800
Ag       9.99791000       4.25827000      18.80804000  F      -0.04342900       0.05270400       0.06556700
Ag       8.55456000       6.75729000      18.80130000  F       0.01682500       0.00332100      -0.02112700
Ag       8.55976000       0.10529000      16.41389000  F      -0.00312500      -0.00408900       0.00249500
Ag       2.80704000       0.10706000      16.41111000  F       0.00580300       0.00679700       0.01291800
Ag      10.00004000       2.59747000      16.41325000  F       0.00499700       0.00862500       0.00926000
Ag       4.24456000       2.59721000      16.40971000  F      -0.00085500       0.00565300       0.00235300
Ag       5.68492000       0.10503000      16.41330000  F      -0.00844200       0.00222100       0.00612700
Ag      11.43682000       5.09105000      16.42301000  F       0.00108900      -0.00461200      -0.01299400
Ag       8.56065000       5.08890000      16.41664000  F       0.01181300       0.01239200      -0.01246600
Ag       7.12243000       2.59821000      16.40161000  F      -0.01115300      -0.00269700       0.01422300
Ag       5.68405000       5.08956000      16.41574000  F      -0.01735000      -0.00081700      -0.00860300
44
Lattice="8.629602757 0.0 0.0 4.314801379 7.473454789 0.0 0.0 0.0 23.486801045" Properties=species:S:1:pos:R:3:move_mask:L:1:forces:R:3 stress="0.00664705742284665 3.133237581193396e-05 0.00029024889888094917 3.133237581193396e-05 0.0062920903158394164 0.0007174614740202805 0.00029024889888094917 0.0007174614740202805 0.002570465669349006" free_energy=-148.47474913 energy=-148.47651706 pbc="T T T"
O        5.67795000       1.76009000       1.57790000  T      -0.00953600      -0.00828000      -0.00485200
O        2.82820000       1.83492000       1.64896000  T      -0.01217600      -0.02400500      -0.00516100
C        3.57840000       2.28596000       2.76497000  T      -0.00952300      -0.01761900      -0.00461900
C        4.99894000       1.69611000       2.82192000  T      -0.01225500      -0.01830800      -0.00492500
H        3.65816000       3.39392000       2.73592000  T      -0.01165600      -0.01686500      -0.01002800
H        3.06042000       2.01575000       3.70723000  T      -0.02059700       0.00205500      -0.00367500
H        5.56446000       2.26200000       3.58858000  T      -0.00335700      -0.03406500       0.00205800
H        4.94272000       0.64048000       3.14995000  T      -0.00932700      -0.01974200      -0.00726700
Ag       4.25978000       2.70543000      23.41841000  T       0.00091200      -0.01024200       0.00074500
Ag       8.57419000       0.14458000      23.49623000  T       0.00208200       0.00026600      -0.00004000
Ag       9.97524000       2.69905000       0.09881000  T       0.00480200      -0.00039900      -0.00401700
Ag       2.82217000       0.08446000       0.11977000  T       0.00389000      -0.00338400      -0.00728200
Ag       5.70023000       0.07951000       0.04047000  T       0.00367500      -0.00115900      -0.01093000
Ag      11.45503000       5.15950000      23.49813000  T       0.00489900      -0.00277200      -0.00031100
Ag       8.57271000       5.13956000       0.04369000  T       0.00265100      -0.00326500       0.00274200
Ag       7.18765000       2.70532000       0.08287000  T      -0.00322800      -0.00234800       0.00272300
Ag       5.68785000       5.15851000      23.50739000  T      -0.00065100      -0.00488900       0.00177800
Ag       1.38328000       0.97372000      21.17971000  T       0.00203500       0.00066900       0.00082900
Ag       4.24745000       0.96019000      21.16178000  T       0.00258100       0.00041800      -0.00493400
Ag       2.80604000       3.45028000      21.14941000  T       0.00170800       0.00208500      -0.00323400
Ag       5.69613000       3.45232000      21.13852000  T       0.00279700       0.00266400      -0.00241800
Ag       7.12124000       0.97855000      21.16323000  T       0.00338100       0.00174800      -0.00048200
Ag       4.25176000       5.94502000      21.13355000  T       0.00275700       0.00164500       0.00181400
Ag       9.99710000       5.96037000      21.15602000  T       0.00223300      -0.00125600      -0.00303000
Ag       7.12820000       5.96512000      21.16464000  T       0.00160500       0.00062700      -0.00007500
Ag       8.56525000       3.44283000      21.18185000  T       0.00183000       0.00251800      -0.00083000
Ag       2.80412000       1.77651000      18.80607000  F      -0.00380700      -0.04853200      -0.06753900
Ag       4.23836000       4.25615000      18.80263000  F       0.04188300       0.05349900      -0.06660200
Ag       5.68170000       1.77312000      18.78784000  F       0.00718900      -0.00876000      -0.01152600
Ag       7.12083000       4.26159000      18.79046000  F       0.02187800       0.02994000       0.13253700
Ag       8.55609000       1.77426000      18.79188000  F       0.01857700      -0.01606000       0.05124800
Ag       5.68442000       6.75789000      18.80009000  F      -0.01063500       0.03153400       0.02393700
Ag      11.43164000       6.75661000      18.81409000  F       0.01736900       0.03209000      -0.05522700
Ag       9.99791000       4.25827000      18.80804000  F      -0.04371400       0.05296500       0.06632700
Ag       8.55456000       6.75729000      18.80130000  F       0.01686400       0.00309800      -0.01976700
Ag       8.55976000       0.10529000      16.41389000  F      -0.00311900      -0.00399700       0.00237100
Ag       2.80704000       0.10706000      16.41111000  F       0.00580800       0.00689700       0.01273600
Ag      10.00004000       2.59747000      16.41325000  F       0.00502400       0.00871500       0.00912600
Ag       4.24456000       2.59721000      16.40971000  F      -0.00087100       0.00570800       0.00221200
Ag       5.68492000       0.10503000      16.41330000  F      -0.00842700       0.00233000       0.00596100
Ag      11.43682000       5.09105000      16.42301000  F       0.00107500      -0.00458800      -0.01316700
Ag       8.56065000       5.08890000      16.41664000  F       0.01181200       0.01243700      -0.01258600
Ag       7.12243000       2.59821000      16.40161000  F      -0.01113700      -0.00261300       0.01410400
Ag       5.68405000       5.08956000      16.41574000  F      -0.01729900      -0.00075700      -0.00872200
44
Lattice="8.629602757 0.0 0.0 4.314801379 7.473454789 0.0 0.0 0.0 23.486801045" Properties=species:S:1:pos:R:3:move_mask:L:1:forces:R:3 stress="0.006645022690871611 2.92664362912666e-05 0.00029207141954570707 2.92664362912666e-05 0.006278696037255271 0.0007146777609501366 0.00029207141954570707 0.0007146777609501366 0.0025692548165785842" free_energy=-148.47501878 energy=-148.47678873 pbc="T T T"
O        5.67744000       1.75919000       1.57761000  T      -0.01050800      -0.00701300      -0.00401000
O        2.82737000       1.83372000       1.64873000  T      -0.00884900      -0.02287400      -0.00182100
C        3.57778000       2.28501000       2.76454000  T      -0.00953100      -0.01683100      -0.00431900
C        4.99828000       1.69497000       2.82159000  T      -0.01142800      -0.01742300      -0.00374300
H        3.65759000       3.39296000       2.73481000  T      -0.01003800      -0.01689800      -0.00887300
H        3.05956000       2.01556000       3.70692000  T      -0.01889000       0.00107100      -0.00417600
H        5.56402000       2.26049000       3.58837000  T      -0.00480000      -0.03317200       0.00217600
H        4.94218000       0.63923000       3.14934000  T      -0.01088900      -0.01889900      -0.00731800
Ag       4.25983000       2.70522000      23.41825000  T       0.00082700      -0.00986400       0.00105500
Ag       8.57434000       0.14475000      23.49668000  T       0.00197100      -0.00080800      -0.00122400
Ag       9.97534000       2.69917000       0.09896000  T       0.00436200      -0.00084500      -0.00457000
Ag       2.82246000       0.08409000       0.11970000  T       0.00302600      -0.00324000      -0.00766200
Ag       5.70040000       0.07917000       0.04010000  T       0.00369700      -0.00097700      -0.01024000
Ag      11.45534000       5.15940000      23.49866000  T       0.00438400      -0.00234000      -0.00215000
Ag       8.57288000       5.13941000       0.04448000  T       0.00256800      -0.00346000       0.00046600
Ag       7.18764000       2.70533000       0.08342000  T      -0.00301500      -0.00259700       0.00172500
Ag       5.68793000       5.15837000      23.50803000  T      -0.00078500      -0.00462500       0.00017500
Ag       1.38343000       0.97387000      21.17999000  T       0.00162600       0.00003100      -0.00012300
Ag       4.24762000       0.96028000      21.16179000  T       0.00235700       0.00016000      -0.00568000
Ag       2.80608000       3.45048000      21.14944000  T       0.00237200       0.00150700      -0.00302600
Ag       5.69641000       3.45254000      21.13861000  T       0.00176400       0.00201200      -0.00247000
Ag       7.12146000       0.97873000      21.16349000  T       0.00301900       0.00113600      -0.00150800
Ag       4.25197000       5.94518000      21.13385000  T       0.00250200       0.00122300       0.00126000
Ag       9.99727000       5.96031000      21.15618000  T       0.00197500      -0.00117800      -0.00337900
Ag       7.12835000       5.96521000      21.16498000  T       0.00144300       0.00022700      -0.00058500
Ag       8.56536000       3.44296000      21.18218000  T       0.00148500       0.00238200      -0.00146800
Ag       2.80412000       1.77651000      18.80607000  F      -0.00384600      -0.04859200      -0.06700400
Ag       4.23836000       4.25615000      18.80263000  F       0.04201300       0.05370700      -0.06587900
Ag       5.68170000       1.77312000      18.78784000  F       0.00744500      -0.00879100      -0.01092700
Ag       7.12083000       4.26159000      18.79046000  F       0.02215200       0.03009100       0.13317700
Ag       8.55609000       1.77426000      18.79188000  F       0.01866000      -0.01607300       0.05205900
Ag       5.68442000       6.75789000      18.80009000  F      -0.01052800       0.03149500       0.02488600
Ag      11.43164000       6.75661000      18.81409000  F       0.01760500       0.03210700      -0.05421200
Ag       9.99791000       4.25827000      18.80804000  F      -0.04383000       0.05297600       0.06680000
Ag       8.55456000       6.75729000      18.80130000  F       0.01686700       0.00287200      -0.01905200
Ag       8.55976000       0.10529000      16.41389000  F      -0.00311800      -0.00404700       0.00234300
Ag       2.80704000       0.10706000      16.41111000  F       0.00580000       0.00682000       0.01265400
Ag      10.00004000       2.59747000      16.41325000  F       0.00500300       0.00865400       0.00907800
Ag       4.24456000       2.59721000      16.40971000  F      -0.00088800       0.00562600       0.00216500
Ag       5.68492000       0.10503000      16.41330000  F      -0.00843800       0.00227300       0.00590500
Ag      11.43682000       5.09105000      16.42301000  F       0.00105500      -0.00467800      -0.01321600
Ag       8.56065000       5.08890000      16.41664000  F       0.01179900       0.01235200      -0.01263000
Ag       7.12243000       2.59821000      16.40161000  F      -0.01111800      -0.00268300       0.01407600
Ag       5.68405000       5.08956000      16.41574000  F      -0.01728100      -0.00081600      -0.00873500
44
Lattice="8.629602757 0.0 0.0 4.314801379 7.473454789 0.0 0.0 0.0 23.486801045" Properties=species:S:1:pos:R:3:move_mask:L:1:forces:R:3 stress="0.006686872009560658 1.639644447369532e-05 0.0002917156535255317 1.639644447369532e-05 0.006270538384827741 0.0006921271884783205 0.0002917156535255317 0.0006921271884783205 0.002600075388642196" free_energy=-148.47612082 energy=-148.47790438 pbc="T T T"
O        5.67450000       1.75453000       1.57614000  T      -0.01112800      -0.00022200       0.00031200
O        2.82304000       1.82700000       1.64769000  T      -0.00384500      -0.01870000      -0.00026400
C        3.57438000       2.27975000       2.76229000  T      -0.00667700      -0.01320900      -0.00120100
C        4.99466000       1.68868000       2.81986000  T      -0.01084000      -0.01660700      -0.00202900
H        3.65451000       3.38756000       2.72893000  T      -0.00141800      -0.01491900      -0.00334700
H        3.05478000       2.01450000       3.70519000  T      -0.01086600      -0.00494600      -0.00358800
H        5.56148000       2.25193000       3.58740000  T      -0.01077700      -0.02640900       0.00399600
H        4.93898000       0.63232000       3.14602000  T      -0.01846500      -0.01558000      -0.00788100
Ag       4.26009000       2.70389000      23.41747000  T      -0.00076700      -0.00798000       0.00216700
Ag       8.57516000       0.14553000      23.49887000  T       0.00162300      -0.00502000      -0.00495900
Ag       9.97598000       2.69973000       0.09954000  T       0.00331700      -0.00273600      -0.00582200
Ag       2.82394000       0.08210000       0.11911000  T       0.00017000      -0.00402500      -0.00921700
Ag       5.70140000       0.07738000       0.03794000  T       0.00407100      -0.00058500      -0.00756700
Ag      11.45703000       5.15884000      23.50119000  T       0.00317700      -0.00255700      -0.00685200
Ag       8.57377000       5.13853000       0.04835000  T       0.00229600      -0.00521200      -0.00645000
Ag       7.18757000       2.70530000       0.08624000  T      -0.00203100      -0.00411600      -0.00120000
Ag       5.68832000       5.15750000      23.51122000  T      -0.00159600      -0.00442600      -0.00480700
Ag       1.38421000       0.97459000      21.18138000  T       0.00033800      -0.00191600      -0.00474100
Ag       4.24854000       0.96072000      21.16163000  T       0.00155800      -0.00071200      -0.00899400
Ag       2.80638000       3.45151000      21.14950000  T       0.00537300      -0.00075200      -0.00204900
Ag       5.69783000       3.45367000      21.13898000  T      -0.00189000      -0.00047100      -0.00182800
Ag       7.12263000       0.97961000      21.16470000  T       0.00226300      -0.00086400      -0.00583900
Ag       4.25307000       5.94601000      21.13540000  T       0.00129500       0.00008700      -0.00076300
Ag       9.99816000       5.96001000      21.15691000  T       0.00118300      -0.00076000      -0.00479300
Ag       7.12914000       5.96564000      21.16664000  T       0.00126500      -0.00092600      -0.00301300
Ag       8.56594000       3.44369000      21.18381000  T       0.00038300       0.00140300      -0.00380800
Ag       2.80412000       1.77651000      18.80607000  F      -0.00427500      -0.04881300      -0.06520200
Ag       4.23836000       4.25615000      18.80263000  F       0.04258800       0.05491800      -0.06308400
Ag       5.68170000       1.77312000      18.78784000  F       0.00869800      -0.00879600      -0.00892500
Ag       7.12083000       4.26159000      18.79046000  F       0.02347900       0.03103600       0.13551000
Ag       8.55609000       1.77426000      18.79188000  F       0.01911000      -0.01599800       0.05534700
Ag       5.68442000       6.75789000      18.80009000  F      -0.01001800       0.03146700       0.02887400
Ag      11.43164000       6.75661000      18.81409000  F       0.01878600       0.03228900      -0.05007100
Ag       9.99791000       4.25827000      18.80804000  F      -0.04451700       0.05304600       0.06829300
Ag       8.55456000       6.75729000      18.80130000  F       0.01669600       0.00178300      -0.01650300
Ag       8.55976000       0.10529000      16.41389000  F      -0.00326500      -0.00421500       0.00225100
Ag       2.80704000       0.10706000      16.41111000  F       0.00563700       0.00658500       0.01236100
Ag      10.00004000       2.59747000      16.41325000  F       0.00483800       0.00843900       0.00893200
Ag       4.24456000       2.59721000      16.40971000  F      -0.00111600       0.00532500       0.00200100
Ag       5.68492000       0.10503000      16.41330000  F      -0.00859800       0.00209000       0.00567900
Ag      11.43682000       5.09105000      16.42301000  F       0.00084500      -0.00503900      -0.01341200
Ag       8.56065000       5.08890000      16.41664000  F       0.01161500       0.01202300      -0.01276400
Ag       7.12243000       2.59821000      16.40161000  F      -0.01118600      -0.00292300       0.01399800
Ag       5.68405000       5.08956000      16.41574000  F      -0.01732700      -0.00105700      -0.00874600
