108
Lattice="12.515153631 0.0 0.0 0.0 12.515153631 0.0 0.0 0.0 25.30973" Properties=species:S:1:pos:R:3:move_mask:L:1:forces:R:3 stress="0.00809715972108136 1.2919923890578342e-06 -7.43363736892696e-05 1.2919923890578342e-06 0.008131425606182458 1.8537282103873276e-06 -7.43363736892696e-05 1.8537282103873276e-06 0.0027991545637213685" free_energy=-444.84874691 energy=-444.84516238 pbc="T T T"
Cu       1.25152000       1.25152000      10.00000000  F      -0.00539500      -0.01412900      -0.07619900
Cu       3.75455000       1.25152000      10.00000000  F       0.01692800       0.00261200      -0.07478600
Cu       6.25758000       1.25152000      10.00000000  F      -0.01773800       0.01579700      -0.06045800
Cu       8.76061000       1.25152000      10.00000000  F       0.00940500       0.01952300      -0.05120300
Cu      11.26364000       1.25152000      10.00000000  F      -0.00318600       0.01195200      -0.07427500
Cu       1.25152000       3.75455000      10.00000000  F      -0.00960300       0.01001400      -0.07077400
Cu       3.75455000       3.75455000      10.00000000  F       0.01673800      -0.01271100      -0.05829300
Cu       6.25758000       3.75455000      10.00000000  F      -0.01849900      -0.01567600      -0.07677200
Cu       8.76061000       3.75455000      10.00000000  F       0.01881900      -0.02117400      -0.08476200
Cu      11.26364000       3.75455000      10.00000000  F      -0.00906700      -0.00561600      -0.05005400
Cu       1.25152000       6.25758000      10.00000000  F      -0.00996400      -0.00848300      -0.07241400
Cu       3.75455000       6.25758000      10.00000000  F       0.01800400       0.01348000      -0.05884500
Cu       6.25758000       6.25758000      10.00000000  F      -0.01850900       0.01773400      -0.07983200
Cu       8.76061000       6.25758000      10.00000000  F       0.01753800       0.02197500      -0.08538000
Cu      11.26364000       6.25758000      10.00000000  F      -0.00868600       0.00713600      -0.05172100
Cu       1.25152000       8.76061000      10.00000000  F      -0.00511100       0.01084600      -0.07502700
Cu       3.75455000       8.76061000      10.00000000  F       0.01620000      -0.00489900      -0.07390100
Cu       6.25758000       8.76061000      10.00000000  F      -0.01774500      -0.01977100      -0.05842400
Cu       8.76061000       8.76061000      10.00000000  F       0.01012100      -0.02182700      -0.05027600
Cu      11.26364000       8.76061000      10.00000000  F      -0.00345500      -0.01522500      -0.07305700
Cu       1.25152000      11.26364000      10.00000000  F      -0.00887800       0.00182600      -0.01313300
Cu       3.75455000      11.26364000      10.00000000  F      -0.00460900       0.00159800      -0.07218300
Cu       6.25758000      11.26364000      10.00000000  F      -0.00956500       0.00199300      -0.07476200
Cu       8.76061000      11.26364000      10.00000000  F       0.00016000       0.00162800      -0.06017400
Cu      11.26364000      11.26364000      10.00000000  F       0.02212700       0.00188600      -0.07229900
Cu       0.00000000       0.00000000      11.76991000  F      -0.01011000       0.04448700       0.11074100
Cu       2.50303000       0.00000000      11.76991000  F       0.04250600       0.01218900       0.13663300
Cu       5.00606000       0.00000000      11.76991000  F      -0.00137800       0.07960500       0.10926000
Cu       7.50909000       0.00000000      11.76991000  F      -0.02082700       0.04568900       0.08290200
Cu      10.01212000       0.00000000      11.76991000  F      -0.03342000       0.07873400       0.10648300
Cu       0.00000000       2.50303000      11.76991000  F      -0.05583500       0.02852400       0.10700500
Cu       2.50303000       2.50303000      11.76991000  F       0.05280900       0.03398800       0.12035900
Cu       5.00606000       2.50303000      11.76991000  F      -0.03966700      -0.06179200       0.07168900
Cu       7.50909000       2.50303000      11.76991000  F       0.00647900       0.03399600       0.17682100
Cu      10.01212000       2.50303000      11.76991000  F       0.00909600      -0.01050800       0.13116000
Cu       0.00000000       5.00606000      11.76991000  F      -0.06113900       0.00199200       0.07478000
Cu       2.50303000       5.00606000      11.76991000  F       0.08355200       0.00139800       0.12712200
Cu       5.00606000       5.00606000      11.76991000  F      -0.05982300       0.00189700       0.11930200
Cu       7.50909000       5.00606000      11.76991000  F       0.04101100       0.00212100       0.23175600
Cu      10.01212000       5.00606000      11.76991000  F      -0.01467600       0.00156000       0.22378700
Cu       0.00000000       7.50909000      11.76991000  F      -0.05575100      -0.03182600       0.10866000
Cu       2.50303000       7.50909000      11.76991000  F       0.05238900      -0.03597400       0.12060000
Cu       5.00606000       7.50909000      11.76991000  F      -0.03872600       0.05788400       0.07251300
Cu       7.50909000       7.50909000      11.76991000  F       0.00598200      -0.03784200       0.17796700
Cu      10.01212000       7.50909000      11.76991000  F       0.00974500       0.00822700       0.13211500
Cu       0.00000000      10.01212000      11.76991000  F      -0.01004800      -0.04184900       0.10765200
Cu       2.50303000      10.01212000      11.76991000  F       0.04367500      -0.01078800       0.13569700
Cu       5.00606000      10.01212000      11.76991000  F      -0.00188500      -0.07785400       0.10706800
Cu       7.50909000      10.01212000      11.76991000  F      -0.02013800      -0.04399300       0.08088200
Cu      10.01212000      10.01212000      11.76991000  F      -0.03443900      -0.07757400       0.10587700
Cu       1.25293000       1.24246000      13.58783000  T      -0.00513900      -0.01014600      -0.00535400
Cu       3.76322000       1.26177000      13.61917000  T      -0.00732000      -0.01684100      -0.01260700
Cu       6.24529000       1.26942000      13.61285000  T      -0.00055300      -0.00197300       0.00391300
Cu       8.73580000       1.27395000      13.60510000  T      -0.00546700      -0.00498300       0.00171300
Cu      11.25166000       1.25950000      13.60015000  T       0.01437100      -0.01332000      -0.01550600
Cu       1.24606000       3.75437000      13.58032000  T       0.00326100      -0.00264900      -0.00140700
Cu       3.77566000       3.74472000      13.61048000  T      -0.01610000      -0.00421600      -0.00333100
Cu       6.26528000       3.76481000      13.57270000  T       0.00016200      -0.00912400      -0.06117200
Cu       8.76087000       3.78140000      13.61001000  T       0.00564100      -0.00187800      -0.04213800
Cu      11.24447000       3.77180000      13.61474000  T       0.00962300       0.00333800       0.00203000
Cu       1.24617000       6.25810000      13.58027000  T       0.00251700       0.00352800       0.00016700
Cu       3.77575000       6.26716000      13.61046000  T      -0.01678900       0.00723800      -0.00449800
Cu       6.26530000       6.24712000      13.57271000  T       0.00081900       0.00689300      -0.05943000
Cu       8.76091000       6.23062000      13.61008000  T       0.00592000       0.00014800      -0.04099100
Cu      11.24464000       6.24038000      13.61477000  T       0.00952000      -0.00737500       0.00060300
Cu       1.25304000       8.77009000      13.58775000  T      -0.00497000       0.00682600      -0.00512000
Cu       3.76328000       8.75025000      13.61900000  T      -0.00740800       0.01670900      -0.01203400
Cu       6.24539000       8.74270000      13.61261000  T      -0.00067500       0.00478400       0.00588200
Cu       8.73592000       8.73821000      13.60505000  T      -0.00603100       0.00736100       0.00265400
Cu      11.25179000       8.75277000      13.60011000  T       0.01457500       0.01305600      -0.01488700
Cu       1.25631000      11.26387000      13.61193000  T      -0.00090600       0.00178100      -0.00990100
Cu       3.74856000      11.26360000      13.59220000  T      -0.01445500       0.00104600      -0.00816300
Cu       6.25423000      11.26365000      13.57501000  T      -0.00899300       0.00224700      -0.00346900
Cu       8.76444000      11.26368000      13.57433000  T      -0.00153900       0.00169000      -0.00677700
Cu      11.27965000      11.26371000      13.58078000  T       0.02596700       0.00140000      -0.00527600
Cu       0.00133000       0.00033000      15.40071000  T      -0.00248900       0.01134000      -0.08905500
Cu       2.51480000       0.00626000      15.40405000  T      -0.00964600       0.00843700      -0.08214000
Cu       5.01055000      12.48854000      15.38782000  T       0.02080600       0.00903500      -0.05678300
Cu       7.51028000      12.48937000      15.35925000  T      -0.00145400       0.00376300      -0.05412400
Cu      10.02004000      12.48395000      15.36590000  T      -0.01735800       0.00046000      -0.05449500
Cu       0.00948000       2.48782000      15.36890000  T       0.00439000       0.02112800      -0.05708000
Cu       2.47182000       2.50772000      15.37808000  T      -0.00204100       0.00723600      -0.03804900
Cu       4.93471000       2.42867000      15.52069000  T      -0.04344600      -0.07620300      -0.09524800
Cu       7.41687000       2.47499000      15.44940000  T      -0.04944200      -0.10665100      -0.14172200
Cu      10.05741000       2.42193000      15.41121000  T       0.05980700      -0.05307100      -0.07866100
Cu       0.08476000       5.00634000      15.40228000  T       0.01503900       0.00125700      -0.05480800
Cu       2.48570000       5.00624000      15.36196000  T       0.00292200       0.00140400      -0.05857700
Pd       4.99282000       5.00588000      15.53403000  T      -0.00346700      -0.00224700      -0.08616900
Y        7.56975000       5.00601000      17.27449000  T       0.03264900      -0.00038900       0.08673500
Cu      10.22955000       5.00565000      15.66360000  T       0.01963800       0.00222000      -0.03775100
Cu       0.00987000       7.52517000      15.36874000  T       0.00587600      -0.01812400      -0.05656900
Cu       2.47204000       7.50476000      15.37795000  T      -0.00192900      -0.01321900      -0.03775800
Cu       4.93477000       7.58262000      15.52025000  T      -0.04160600       0.07294800      -0.09371400
Cu       7.41665000       7.53766000      15.44921000  T      -0.05073600       0.10940600      -0.14174500
Cu      10.05772000       7.58994000      15.41103000  T       0.06044400       0.05293900      -0.08080500
Cu       0.00137000      10.01259000      15.40070000  T      -0.00234800      -0.01121800      -0.08921500
Cu       2.51485000      10.00626000      15.40395000  T      -0.00962900      -0.00749700      -0.08201000
Cu       5.01064000      10.03794000      15.38767000  T       0.02123200      -0.01208000      -0.05626400
Cu       7.51031000      10.03826000      15.35919000  T      -0.00213000      -0.00989900      -0.05476000
Cu      10.02007000      10.04313000      15.36586000  T      -0.01729900      -0.00215500      -0.05487400
O        6.07769000       3.45101000      16.69506000  T      -0.06664700       0.01050600       0.13150200
O        6.07757000       6.56068000      16.69491000  T      -0.06541800      -0.00882000       0.13231700
O        8.79742000       6.47725000      16.28961000  T       0.11036900      -0.00663600      -0.03078600
O        8.79801000       3.53425000      16.29130000  T       0.10996000       0.00710400      -0.03106300
C       10.72750000       5.00891000      17.59747000  T       0.59420100       0.00250500       0.39357000
O       12.02036000       5.01462000      18.08309000  T      -0.70270100      -0.00319900      -0.42867000
O        9.79073000       5.00812000      18.42849000  T       0.17390100       0.00131900       0.01952900
H       11.98598000       5.01799000      19.06506000  T      -0.02289400       0.00007400       0.32451100
108
Lattice="12.515153631 0.0 0.0 0.0 12.515153631 0.0 0.0 0.0 25.30973" Properties=species:S:1:pos:R:3:move_mask:L:1:forces:R:3 stress="0.007886539995628428 7.052905312248082e-07 -0.0001060619645761342 7.052905312248082e-07 0.008130870111870254 1.5541357723449315e-06 -0.0001060619645761342 1.5541357723449315e-06 0.00277690982519672" free_energy=-444.87029368 energy=-444.8666972 pbc="T T T"
Cu       1.25152000       1.25152000      10.00000000  F      -0.00526900      -0.01372300      -0.07681400
Cu       3.75455000       1.25152000      10.00000000  F       0.01710500       0.00305200      -0.07529300
Cu       6.25758000       1.25152000      10.00000000  F      -0.01772400       0.01603500      -0.06096000
Cu       8.76061000       1.25152000      10.00000000  F       0.00936900       0.01986000      -0.05183900
Cu      11.26364000       1.25152000      10.00000000  F      -0.00295100       0.01210800      -0.07474500
Cu       1.25152000       3.75455000      10.00000000  F      -0.00935000       0.00991800      -0.07135700
Cu       3.75455000       3.75455000      10.00000000  F       0.01691800      -0.01259700      -0.05869600
Cu       6.25758000       3.75455000      10.00000000  F      -0.01860300      -0.01554600      -0.07726400
Cu       8.76061000       3.75455000      10.00000000  F       0.01887200      -0.02105000      -0.08598800
Cu      11.26364000       3.75455000      10.00000000  F      -0.00888500      -0.00564300      -0.05096700
Cu       1.25152000       6.25758000      10.00000000  F      -0.00971000      -0.00844400      -0.07297200
Cu       3.75455000       6.25758000      10.00000000  F       0.01817500       0.01330300      -0.05920500
Cu       6.25758000       6.25758000      10.00000000  F      -0.01861100       0.01754300      -0.08029300
Cu       8.76061000       6.25758000      10.00000000  F       0.01759600       0.02178500      -0.08658000
Cu      11.26364000       6.25758000      10.00000000  F      -0.00850400       0.00711000      -0.05260200
Cu       1.25152000       8.76061000      10.00000000  F      -0.00498200       0.01039200      -0.07558800
Cu       3.75455000       8.76061000      10.00000000  F       0.01637000      -0.00538500      -0.07435500
Cu       6.25758000       8.76061000      10.00000000  F      -0.01774000      -0.02005900      -0.05887400
Cu       8.76061000       8.76061000      10.00000000  F       0.01009400      -0.02222100      -0.05087100
Cu      11.26364000       8.76061000      10.00000000  F      -0.00321500      -0.01543700      -0.07346400
Cu       1.25152000      11.26364000      10.00000000  F      -0.00897100       0.00179400      -0.01325100
Cu       3.75455000      11.26364000      10.00000000  F      -0.00437800       0.00156500      -0.07169000
Cu       6.25758000      11.26364000      10.00000000  F      -0.00961400       0.00196700      -0.07483100
Cu       8.76061000      11.26364000      10.00000000  F       0.00033500       0.00160500      -0.06028400
Cu      11.26364000      11.26364000      10.00000000  F       0.02234200       0.00185700      -0.07293800
Cu       0.00000000       0.00000000      11.76991000  F      -0.00932700       0.04448200       0.10556700
Cu       2.50303000       0.00000000      11.76991000  F       0.04224100       0.01214900       0.13268300
Cu       5.00606000       0.00000000      11.76991000  F      -0.00118000       0.07962100       0.10657300
Cu       7.50909000       0.00000000      11.76991000  F      -0.02130500       0.04532900       0.08082400
Cu      10.01212000       0.00000000      11.76991000  F      -0.03328200       0.07849400       0.10452000
Cu       0.00000000       2.50303000      11.76991000  F      -0.05478000       0.02893800       0.10484300
Cu       2.50303000       2.50303000      11.76991000  F       0.05263000       0.03380600       0.11787000
Cu       5.00606000       2.50303000      11.76991000  F      -0.04187000      -0.06361600       0.06740900
Cu       7.50909000       2.50303000      11.76991000  F       0.00722600       0.03151800       0.17171000
Cu      10.01212000       2.50303000      11.76991000  F       0.01019700      -0.01124600       0.12975900
Cu       0.00000000       5.00606000      11.76991000  F      -0.06035400       0.00191800       0.07380300
Cu       2.50303000       5.00606000      11.76991000  F       0.08344200       0.00143100       0.12501900
Cu       5.00606000       5.00606000      11.76991000  F      -0.06358400       0.00193800       0.11431500
Cu       7.50909000       5.00606000      11.76991000  F       0.04229500       0.00214100       0.22394300
Cu      10.01212000       5.00606000      11.76991000  F      -0.01202500       0.00143600       0.22061200
Cu       0.00000000       7.50909000      11.76991000  F      -0.05477400      -0.03236200       0.10651100
Cu       2.50303000       7.50909000      11.76991000  F       0.05215500      -0.03580700       0.11797500
Cu       5.00606000       7.50909000      11.76991000  F      -0.04066600       0.05974100       0.06846800
Cu       7.50909000       7.50909000      11.76991000  F       0.00666100      -0.03541700       0.17329200
Cu      10.01212000       7.50909000      11.76991000  F       0.01077200       0.00892700       0.13097100
Cu       0.00000000      10.01212000      11.76991000  F      -0.00921200      -0.04191000       0.10278500
Cu       2.50303000      10.01212000      11.76991000  F       0.04334500      -0.01081700       0.13199200
Cu       5.00606000      10.01212000      11.76991000  F      -0.00166000      -0.07786900       0.10459500
Cu       7.50909000      10.01212000      11.76991000  F      -0.02066800      -0.04356700       0.07899000
Cu      10.01212000      10.01212000      11.76991000  F      -0.03428100      -0.07732700       0.10412200
Cu       1.25274000       1.24213000      13.58749000  T      -0.00203300      -0.00477500      -0.01377500
Cu       3.76291000       1.26113000      13.61853000  T      -0.00735900      -0.01301100      -0.02117300
Cu       6.24520000       1.26927000      13.61273000  T      -0.00513500      -0.00565500      -0.01396200
Cu       8.73564000       1.27375000      13.60499000  T      -0.00229300      -0.00487500      -0.01062000
Cu      11.25221000       1.25898000      13.59939000  T       0.01175400      -0.01126700      -0.02458700
Cu       1.24618000       3.75426000      13.58012000  T       0.00400300      -0.00277200      -0.01160000
Cu       3.77507000       3.74454000      13.61023000  T      -0.01032300      -0.00471700      -0.01096700
Cu       6.26526000       3.76448000      13.57042000  T      -0.00223600      -0.00598500      -0.04709400
Cu       8.76110000       3.78131000      13.60847000  T       0.00448100      -0.00227600      -0.03064800
Cu      11.24483000       3.77192000      13.61470000  T       0.00704000       0.00264800      -0.00645700
Cu       1.24626000       6.25824000      13.58013000  T       0.00327400       0.00325100      -0.01076100
Cu       3.77514000       6.26746000      13.61016000  T      -0.01048800       0.00679500      -0.01179100
Cu       6.26531000       6.24737000      13.57050000  T      -0.00151200       0.00414100      -0.04563800
Cu       8.76114000       6.23064000      13.60858000  T       0.00462100       0.00115900      -0.02979200
Cu      11.24499000       6.24012000      13.61468000  T       0.00703500      -0.00574000      -0.00753500
Cu       1.25287000       8.77031000      13.58742000  T      -0.00169800       0.00268000      -0.01351500
Cu       3.76296000       8.75089000      13.61839000  T      -0.00760300       0.01293200      -0.02047800
Cu       6.24530000       8.74295000      13.61256000  T      -0.00547700       0.00746000      -0.01290000
Cu       8.73574000       8.73850000      13.60497000  T      -0.00258700       0.00648500      -0.01030700
Cu      11.25235000       8.75327000      13.59937000  T       0.01198600       0.01082300      -0.02432000
Cu       1.25628000      11.26393000      13.61142000  T       0.00077500       0.00090300      -0.01809000
Cu       3.74805000      11.26364000      13.59180000  T      -0.00875900       0.00057400      -0.01302500
Cu       6.25390000      11.26373000      13.57475000  T      -0.00740600       0.00168600      -0.01190300
Cu       8.76441000      11.26374000      13.57396000  T      -0.00077500       0.00122400      -0.01438100
Cu      11.28056000      11.26376000      13.58047000  T       0.01614800       0.00089300      -0.01265300
Cu       0.00120000       0.00078000      15.39733000  T      -0.00387800       0.01029800      -0.07313200
Cu       2.51445000       0.00658000      15.40092000  T      -0.00609100       0.00679600      -0.06819900
Cu       5.01131000      12.48877000      15.38564000  T       0.01530800       0.00013000      -0.04859200
Cu       7.51024000      12.48939000      15.35720000  T      -0.00076600      -0.00471400      -0.04477700
Cu      10.01940000      12.48390000      15.36380000  T      -0.01347900      -0.00402400      -0.04711200
Cu       0.00972000       2.48863000      15.36669000  T       0.00875200       0.01808800      -0.04858500
Cu       2.47165000       2.50800000      15.37663000  T      -0.00522200       0.00574200      -0.03268200
Cu       4.93343000       2.42626000      15.51745000  T      -0.01134600      -0.03111700      -0.05435700
Cu       7.41536000       2.47170000      15.44465000  T      -0.01890500      -0.03879700      -0.07634600
Cu      10.05952000       2.42013000      15.40834000  T       0.03879400      -0.03128800      -0.05814900
Cu       0.08526000       5.00639000      15.40001000  T       0.00986800       0.00114100      -0.05155300
Cu       2.48579000       5.00628000      15.35974000  T       0.00432200       0.00070000      -0.04813600
Pd       4.99309000       5.00580000      15.53116000  T       0.02277200      -0.00138600      -0.04512800
Y        7.57141000       5.00600000      17.27751000  T       0.04264100       0.00009000       0.03900500
Cu      10.23038000       5.00572000      15.66308000  T       0.02169500       0.00153100       0.01164400
Cu       0.01017000       7.52446000      15.36653000  T       0.00975200      -0.01607600      -0.04903300
Cu       2.47189000       7.50425000      15.37651000  T      -0.00480600      -0.01048600      -0.03235400
Cu       4.93356000       7.58492000      15.51704000  T      -0.01043700       0.02933100      -0.05451800
Cu       7.41511000       7.54104000      15.44446000  T      -0.01904800       0.04026200      -0.07627300
Cu      10.05982000       7.59172000      15.40810000  T       0.03831000       0.03097700      -0.05911600
Cu       0.00125000      10.01216000      15.39729000  T      -0.00368700      -0.00964600      -0.07403100
Cu       2.51449000      10.00597000      15.40082000  T      -0.00621100      -0.00637000      -0.06880200
Cu       5.01142000      10.03759000      15.38552000  T       0.01565300      -0.00291500      -0.04829800
Cu       7.51025000      10.03802000      15.35711000  T      -0.00120500       0.00046700      -0.04536600
Cu      10.01943000      10.04312000      15.36375000  T      -0.01335900       0.00282400      -0.04759500
O        6.07512000       3.45120000      16.69955000  T      -0.05865300      -0.00097000       0.07853000
O        6.07506000       6.56056000      16.69944000  T      -0.05743100       0.00208100       0.07964800
O        8.80121000       6.47718000      16.28805000  T       0.06094000       0.00583000      -0.04960000
O        8.80178000       3.53435000      16.28974000  T       0.06041300      -0.00450900      -0.04929700
C       10.73817000       5.00896000      17.60524000  T      -0.01028400       0.00047700       0.02643300
O       12.00627000       5.01459000      18.08012000  T       0.00655500       0.00095500       0.07383500
O        9.79589000       5.00817000      18.43056000  T       0.03668700       0.00110500       0.08748700
H       11.98514000       5.01796000      19.06963000  T      -0.03375400      -0.00082400       0.06499300
108
Lattice="12.515153631 0.0 0.0 0.0 12.515153631 0.0 0.0 0.0 25.30973" Properties=species:S:1:pos:R:3:move_mask:L:1:forces:R:3 stress="0.007879555746916565 9.86158441889555e-07 -7.22142605864693e-05 9.86158441889555e-07 0.008098564060634682 5.180452574483105e-07 -7.22142605864693e-05 5.180452574483105e-07 0.002670423438000026" free_energy=-444.88038454 energy=-444.87679125 pbc="T T T"
Cu       1.25152000       1.25152000      10.00000000  F      -0.00537000      -0.01386200      -0.07650100
Cu       3.75455000       1.25152000      10.00000000  F       0.01723200       0.00278500      -0.07527300
Cu       6.25758000       1.25152000      10.00000000  F      -0.01747100       0.01568500      -0.06065900
Cu       8.76061000       1.25152000      10.00000000  F       0.00956600       0.01954500      -0.05146800
Cu      11.26364000       1.25152000      10.00000000  F      -0.00287500       0.01207200      -0.07422300
Cu       1.25152000       3.75455000      10.00000000  F      -0.00952100       0.00951300      -0.07125700
Cu       3.75455000       3.75455000      10.00000000  F       0.01698300      -0.01291200      -0.05864500
Cu       6.25758000       3.75455000      10.00000000  F      -0.01833200      -0.01561500      -0.07698100
Cu       8.76061000       3.75455000      10.00000000  F       0.01927000      -0.02102000      -0.08660300
Cu      11.26364000       3.75455000      10.00000000  F      -0.00883800      -0.00577800      -0.05074100
Cu       1.25152000       6.25758000      10.00000000  F      -0.00987800      -0.00800900      -0.07291700
Cu       3.75455000       6.25758000      10.00000000  F       0.01823100       0.01363000      -0.05915500
Cu       6.25758000       6.25758000      10.00000000  F      -0.01832900       0.01764400      -0.08000500
Cu       8.76061000       6.25758000      10.00000000  F       0.01799900       0.02178600      -0.08719100
Cu      11.26364000       6.25758000      10.00000000  F      -0.00846500       0.00728900      -0.05238200
Cu       1.25152000       8.76061000      10.00000000  F      -0.00509900       0.01057400      -0.07530500
Cu       3.75455000       8.76061000      10.00000000  F       0.01649000      -0.00507000      -0.07436400
Cu       6.25758000       8.76061000      10.00000000  F      -0.01748300      -0.01967500      -0.05857200
Cu       8.76061000       8.76061000      10.00000000  F       0.01030600      -0.02188200      -0.05051600
Cu      11.26364000       8.76061000      10.00000000  F      -0.00313700      -0.01536900      -0.07294200
Cu       1.25152000      11.26364000      10.00000000  F      -0.00908300       0.00180800      -0.01309600
Cu       3.75455000      11.26364000      10.00000000  F      -0.00429400       0.00158900      -0.07103900
Cu       6.25758000      11.26364000      10.00000000  F      -0.00956400       0.00199600      -0.07446600
Cu       8.76061000      11.26364000      10.00000000  F       0.00062600       0.00162900      -0.05961500
Cu      11.26364000      11.26364000      10.00000000  F       0.02246500       0.00187400      -0.07241700
Cu       0.00000000       0.00000000      11.76991000  F      -0.00783700       0.04393100       0.09349300
Cu       2.50303000       0.00000000      11.76991000  F       0.04145900       0.01150300       0.12230200
Cu       5.00606000       0.00000000      11.76991000  F      -0.00147900       0.07822400       0.09755200
Cu       7.50909000       0.00000000      11.76991000  F      -0.02145300       0.04485600       0.07395300
Cu      10.01212000       0.00000000      11.76991000  F      -0.03349100       0.07768600       0.09765200
Cu       0.00000000       2.50303000      11.76991000  F      -0.05452200       0.02996600       0.09787600
Cu       2.50303000       2.50303000      11.76991000  F       0.05220200       0.03319900       0.10988300
Cu       5.00606000       2.50303000      11.76991000  F      -0.04515200      -0.06655300       0.05772200
Cu       7.50909000       2.50303000      11.76991000  F       0.00927300       0.02767700       0.16193900
Cu      10.01212000       2.50303000      11.76991000  F       0.01189900      -0.01163800       0.12510800
Cu       0.00000000       5.00606000      11.76991000  F      -0.06016900       0.00178700       0.06850800
Cu       2.50303000       5.00606000      11.76991000  F       0.08337700       0.00154300       0.11922400
Cu       5.00606000       5.00606000      11.76991000  F      -0.06961400       0.00205900       0.10444100
Cu       7.50909000       5.00606000      11.76991000  F       0.04610800       0.00222200       0.21069200
Cu      10.01212000       5.00606000      11.76991000  F      -0.00845100       0.00126300       0.21361900
Cu       0.00000000       7.50909000      11.76991000  F      -0.05462300      -0.03346700       0.09949500
Cu       2.50303000       7.50909000      11.76991000  F       0.05165300      -0.03510500       0.10974800
Cu       5.00606000       7.50909000      11.76991000  F      -0.04349500       0.06280500       0.05917300
Cu       7.50909000       7.50909000      11.76991000  F       0.00856400      -0.03160100       0.16420500
Cu      10.01212000       7.50909000      11.76991000  F       0.01235300       0.00932800       0.12667700
Cu       0.00000000      10.01212000      11.76991000  F      -0.00762400      -0.04132800       0.09114600
Cu       2.50303000      10.01212000      11.76991000  F       0.04248000      -0.01016100       0.12196800
Cu       5.00606000      10.01212000      11.76991000  F      -0.00191200      -0.07629900       0.09592500
Cu       7.50909000      10.01212000      11.76991000  F      -0.02093200      -0.04279300       0.07243400
Cu      10.01212000      10.01212000      11.76991000  F      -0.03446100      -0.07632600       0.09756400
Cu       1.25256000       1.24174000      13.58595000  T       0.00133800       0.00288500      -0.02338200
Cu       3.76219000       1.25994000      13.61631000  T      -0.00378900      -0.00369800      -0.02567800
Cu       6.24468000       1.26869000      13.61112000  T      -0.00578000      -0.00523100      -0.02708200
Cu       8.73547000       1.27326000      13.60374000  T       0.00000000      -0.00320100      -0.02234100
Cu      11.25332000       1.25791000      13.59679000  T       0.00558900      -0.00518500      -0.03109300
Cu       1.24656000       3.75399000      13.57877000  T       0.00432400      -0.00105500      -0.02321900
Cu       3.77417000       3.74407000      13.60906000  T       0.00066300      -0.00372800      -0.01484400
Cu       6.26503000       3.76390000      13.56604000  T      -0.00283400      -0.00300000      -0.02214100
Cu       8.76156000       3.78106000      13.60561000  T       0.00348500      -0.00213600      -0.01403000
Cu      11.24547000       3.77218000      13.61391000  T       0.00170000       0.00291400      -0.01487200
Cu       1.24657000       6.25855000      13.57884000  T       0.00378700       0.00106800      -0.02358500
Cu       3.77423000       6.26812000      13.60892000  T       0.00104100       0.00424400      -0.01518100
Cu       6.26515000       6.24777000      13.56626000  T      -0.00213700       0.00197500      -0.02158900
Cu       8.76162000       6.23079000      13.60580000  T       0.00364200       0.00207800      -0.01375000
Cu      11.24564000       6.23957000      13.61379000  T       0.00159100      -0.00424500      -0.01526900
Cu       1.25272000       8.77051000      13.58591000  T       0.00181000      -0.00328700      -0.02302600
Cu       3.76221000       8.75208000      13.61623000  T      -0.00430000       0.00383500      -0.02495500
Cu       6.24473000       8.74369000      13.61103000  T      -0.00640100       0.00536500      -0.02746800
Cu       8.73555000       8.73913000      13.60374000  T       0.00009600       0.00365900      -0.02298100
Cu      11.25348000       8.75430000      13.59678000  T       0.00581500       0.00485000      -0.03188900
Cu       1.25634000      11.26401000      13.60943000  T       0.00141900      -0.00011900      -0.02765200
Cu       3.74726000      11.26369000      13.59038000  T      -0.00021400       0.00004800      -0.01942500
Cu       6.25323000      11.26389000      13.57337000  T      -0.00275200       0.00083900      -0.02299700
Cu       8.76437000      11.26386000      13.57236000  T      -0.00039300       0.00053100      -0.02388500
Cu      11.28198000      11.26384000      13.57904000  T       0.00101400       0.00023700      -0.02208100
Cu       0.00077000       0.00178000      15.39026000  T      -0.00581300       0.00765100      -0.04783700
Cu       2.51387000       0.00722000      15.39434000  T      -0.00199000       0.00361800      -0.04555500
Cu       5.01272000      12.48870000      15.38094000  T       0.00594800      -0.00481600      -0.03408400
Cu       7.51019000      12.48887000      15.35286000  T      -0.00018800      -0.00666600      -0.03082400
Cu      10.01814000      12.48343000      15.35917000  T      -0.00713000      -0.00726000      -0.03590200
Cu       0.01063000       2.49036000      15.36198000  T       0.01050500       0.01199700      -0.03359000
Cu       2.47114000       2.50851000      15.37344000  T      -0.00254600       0.00169800      -0.02454500
Cu       4.93276000       2.42379000      15.51263000  T       0.01854400       0.01314700      -0.01131700
Cu       7.41381000       2.46881000      15.43800000  T       0.00365600       0.02668400      -0.00870900
Cu      10.06309000       2.41728000      15.40277000  T       0.01393500      -0.00833700      -0.03498600
Cu       0.08624000       5.00651000      15.39508000  T       0.00815100       0.00093600      -0.03296900
Cu       2.48633000       5.00634000      15.35511000  T       0.01269100      -0.00055200      -0.03152200
Pd       4.99569000       5.00570000      15.52699000  T       0.04133800       0.00022500      -0.01488500
Y        7.57529000       5.00601000      17.28017000  T       0.01380200       0.00006700      -0.04107100
Cu      10.23257000       5.00586000      15.66437000  T       0.02274600       0.00031800       0.02726300
Cu       0.01116000       7.52291000      15.36176000  T       0.01030300      -0.01158700      -0.03471600
Cu       2.47142000       7.50330000      15.37336000  T      -0.00197200      -0.00429800      -0.02422700
Cu       4.93298000       7.58720000      15.51220000  T       0.01966000      -0.01479200      -0.01166100
Cu       7.41355000       7.54407000      15.43782000  T       0.00406100      -0.02656400      -0.00790600
Cu      10.06334000       7.59454000      15.40246000  T       0.01354100       0.00812800      -0.03471800
Cu       0.00084000      10.01124000      15.39012000  T      -0.00570700      -0.00603000      -0.04999600
Cu       2.51391000      10.00537000      15.39417000  T      -0.00193000      -0.00328400      -0.04649000
Cu       5.01287000      10.03740000      15.38084000  T       0.00622000       0.00307400      -0.03396700
Cu       7.51017000      10.03815000      15.35271000  T      -0.00010700       0.00568100      -0.03145700
Cu      10.01819000      10.04348000      15.35907000  T      -0.00692600       0.00680200      -0.03622900
O        6.06994000       3.45106000      16.70637000  T      -0.01869600      -0.00174100       0.01026600
O        6.06998000       6.56079000      16.70637000  T      -0.01857700       0.00222400       0.01068400
O        8.80603000       6.47779000      16.28311000  T      -0.01237300       0.00600100      -0.04833900
O        8.80658000       3.53386000      16.28480000  T      -0.01086200      -0.00536800      -0.04917500
C       10.73886000       5.00902000      17.60964000  T       0.00426800       0.00081600       0.05487500
O       12.00595000       5.01468000      18.08649000  T       0.03262400       0.00041800       0.05585000
O        9.79888000       5.00825000      18.43830000  T      -0.01773500      -0.00017200       0.04092300
H       11.98170000       5.01788000      19.07613000  T      -0.03373800      -0.00066500       0.05526800
108
Lattice="12.515153631 0.0 0.0 0.0 12.515153631 0.0 0.0 0.0 25.30973" Properties=species:S:1:pos:R:3:move_mask:L:1:forces:R:3 stress="0.007822926534617424 2.0909055571708913e-06 -4.8034654232797556e-05 2.0909055571708913e-06 0.008018329460821453 -6.241509125883259e-09 -4.8034654232797556e-05 -6.241509125883259e-09 0.002501053846360058" free_energy=-444.88775044 energy=-444.88416678 pbc="T T T"
Cu       1.25152000       1.25152000      10.00000000  F      -0.00519400      -0.01317900      -0.07660900
Cu       3.75455000       1.25152000      10.00000000  F       0.01753700       0.00332400      -0.07563800
Cu       6.25758000       1.25152000      10.00000000  F      -0.01746200       0.01581700      -0.06107000
Cu       8.76061000       1.25152000      10.00000000  F       0.00927300       0.01974700      -0.05187300
Cu      11.26364000       1.25152000      10.00000000  F      -0.00299800       0.01264700      -0.07436600
Cu       1.25152000       3.75455000      10.00000000  F      -0.00937400       0.00953500      -0.07136000
Cu       3.75455000       3.75455000      10.00000000  F       0.01707700      -0.01286500      -0.05862900
Cu       6.25758000       3.75455000      10.00000000  F      -0.01841100      -0.01542700      -0.07660000
Cu       8.76061000       3.75455000      10.00000000  F       0.01923900      -0.02072500      -0.08762400
Cu      11.26364000       3.75455000      10.00000000  F      -0.00884700      -0.00556200      -0.05100000
Cu       1.25152000       6.25758000      10.00000000  F      -0.00971600      -0.00807200      -0.07305400
Cu       3.75455000       6.25758000      10.00000000  F       0.01832100       0.01352900      -0.05910200
Cu       6.25758000       6.25758000      10.00000000  F      -0.01839600       0.01741700      -0.07961300
Cu       8.76061000       6.25758000      10.00000000  F       0.01797000       0.02144900      -0.08821900
Cu      11.26364000       6.25758000      10.00000000  F      -0.00848900       0.00703600      -0.05265300
Cu       1.25152000       8.76061000      10.00000000  F      -0.00492900       0.00985900      -0.07543100
Cu       3.75455000       8.76061000      10.00000000  F       0.01678700      -0.00563200      -0.07470000
Cu       6.25758000       8.76061000      10.00000000  F      -0.01746600      -0.01984100      -0.05893300
Cu       8.76061000       8.76061000      10.00000000  F       0.01001600      -0.02213700      -0.05091200
Cu      11.26364000       8.76061000      10.00000000  F      -0.00325600      -0.01598900      -0.07304700
Cu       1.25152000      11.26364000      10.00000000  F      -0.00909600       0.00178000      -0.01334400
Cu       3.75455000      11.26364000      10.00000000  F      -0.00386100       0.00156500      -0.07087700
Cu       6.25758000      11.26364000      10.00000000  F      -0.00954900       0.00197500      -0.07506800
Cu       8.76061000      11.26364000      10.00000000  F       0.00028500       0.00160500      -0.05982700
Cu      11.26364000      11.26364000      10.00000000  F       0.02228500       0.00185500      -0.07275400
Cu       0.00000000       0.00000000      11.76991000  F      -0.00546700       0.04391000       0.07136200
Cu       2.50303000       0.00000000      11.76991000  F       0.04228900       0.01165700       0.10263100
Cu       5.00606000       0.00000000      11.76991000  F      -0.00308200       0.07760200       0.07827600
Cu       7.50909000       0.00000000      11.76991000  F      -0.02250300       0.04620000       0.05660600
Cu      10.01212000       0.00000000      11.76991000  F      -0.03466200       0.07805600       0.07944500
Cu       0.00000000       2.50303000      11.76991000  F      -0.05471300       0.03318100       0.08113200
Cu       2.50303000       2.50303000      11.76991000  F       0.05445800       0.03468700       0.09200200
Cu       5.00606000       2.50303000      11.76991000  F      -0.04778600      -0.06695600       0.03959900
Cu       7.50909000       2.50303000      11.76991000  F       0.01030900       0.02724100       0.14617800
Cu      10.01212000       2.50303000      11.76991000  F       0.01184400      -0.00872600       0.11263800
Cu       0.00000000       5.00606000      11.76991000  F      -0.06082200       0.00152200       0.05435900
Cu       2.50303000       5.00606000      11.76991000  F       0.08740900       0.00157400       0.10556100
Cu       5.00606000       5.00606000      11.76991000  F      -0.07444200       0.00207600       0.08915100
Cu       7.50909000       5.00606000      11.76991000  F       0.04988100       0.00220100       0.19564500
Cu      10.01212000       5.00606000      11.76991000  F      -0.00804800       0.00105000       0.20187700
Cu       0.00000000       7.50909000      11.76991000  F      -0.05484300      -0.03682800       0.08251000
Cu       2.50303000       7.50909000      11.76991000  F       0.05396900      -0.03654900       0.09165800
Cu       5.00606000       7.50909000      11.76991000  F      -0.04586400       0.06317800       0.04135500
Cu       7.50909000       7.50909000      11.76991000  F       0.00945100      -0.03137000       0.14882100
Cu      10.01212000       7.50909000      11.76991000  F       0.01219300       0.00618100       0.11421800
Cu       0.00000000      10.01212000      11.76991000  F      -0.00511500      -0.04134100       0.06923900
Cu       2.50303000      10.01212000      11.76991000  F       0.04332200      -0.01043700       0.10253300
Cu       5.00606000      10.01212000      11.76991000  F      -0.00354600      -0.07558700       0.07702700
Cu       7.50909000      10.01212000      11.76991000  F      -0.02215700      -0.04383000       0.05540200
Cu      10.01212000      10.01212000      11.76991000  F      -0.03564100      -0.07642800       0.07947300
Cu       1.25269000       1.24202000      13.58205000  T       0.00359200       0.00715500      -0.02226300
Cu       3.76152000       1.25914000      13.61203000  T       0.00454500       0.00822900      -0.01469900
Cu       6.24382000       1.26797000      13.60704000  T       0.00072800       0.00383400      -0.01568200
Cu       8.73531000       1.27274000      13.60025000  T      -0.00213200       0.00245100      -0.01805200
Cu      11.25449000       1.25690000      13.59153000  T      -0.00155200       0.00475300      -0.02148500
Cu       1.24738000       3.75383000      13.57500000  T       0.00561500       0.00299000      -0.02221200
Cu       3.77405000       3.74345000      13.60664000  T       0.01168500       0.00069400      -0.00982200
Cu       6.26463000       3.76325000      13.56127000  T       0.00090500      -0.00042700      -0.00114200
Cu       8.76219000       3.78073000      13.60252000  T       0.00045300       0.00077900      -0.00078700
Cu      11.24595000       3.77273000      13.61154000  T      -0.00263400       0.00385600      -0.01424500
Cu       1.24729000       6.25873000      13.57504000  T       0.00556700      -0.00328000      -0.02303600
Cu       3.77416000       6.26887000      13.60643000  T       0.01202700      -0.00160300      -0.00976500
Cu       6.26487000       6.24821000      13.56159000  T       0.00129800       0.00037300      -0.00238600
Cu       8.76227000       6.23108000      13.60277000  T       0.00054700      -0.00010300      -0.00091300
Cu      11.24609000       6.23874000      13.61132000  T      -0.00294200      -0.00324600      -0.01402300
Cu       1.25293000       8.77007000      13.58205000  T       0.00396800      -0.00714300      -0.02234600
Cu       3.76147000       8.75288000      13.61209000  T       0.00432300      -0.00847200      -0.01410200
Cu       6.24379000       8.74447000      13.60693000  T       0.00061400      -0.00527700      -0.01684600
Cu       8.73538000       8.73976000      13.60016000  T      -0.00199500      -0.00308800      -0.01914300
Cu      11.25468000       8.75523000      13.59140000  T      -0.00171300      -0.00516400      -0.02286600
Cu       1.25652000      11.26402000      13.60477000  T       0.00003700      -0.00050000      -0.02465500
Cu       3.74693000      11.26372000      13.58704000  T       0.00576800      -0.00003900      -0.01922500
Cu       6.25262000      11.26406000      13.56958000  T       0.00199900      -0.00008500      -0.02270400
Cu       8.76423000      11.26397000      13.56834000  T      -0.00343100      -0.00014400      -0.02325100
Cu      11.28266000      11.26391000      13.57531000  T      -0.00854300      -0.00003300      -0.02346300
Cu      -0.00019000       0.00326000      15.38072000  T      -0.00457900       0.00394900      -0.02326500
Cu       2.51333000       0.00794000      15.38534000  T      -0.00069400      -0.00066200      -0.02220400
Cu       5.01401000      12.48828000      15.37430000  T      -0.00398800       0.00180200      -0.01863700
Cu       7.51010000      12.48810000      15.34676000  T      -0.00157600       0.00495900      -0.01850200
Cu      10.01668000      12.48236000      15.35223000  T      -0.00091800      -0.00221700      -0.02304200
Cu       0.01235000       2.49269000      15.35535000  T       0.00542700       0.00437400      -0.01868000
Cu       2.47083000       2.50893000      15.36865000  T       0.00756400      -0.00204000      -0.01705300
Cu       4.93461000       2.42411000      15.50862000  T       0.01424500       0.01547100      -0.00138200
Cu       7.41310000       2.47037000      15.43317000  T      -0.00217600       0.02245200      -0.00006600
Cu      10.06647000       2.41502000      15.39558000  T      -0.00265900       0.00802800      -0.01626200
Cu       0.08798000       5.00669000      15.38838000  T       0.01331700       0.00077400      -0.01865900
Cu       2.48854000       5.00628000      15.34883000  T       0.01930300      -0.00147800      -0.01555700
Pd       5.00163000       5.00567000      15.52277000  T       0.01570600       0.00010100      -0.00935000
Y        7.57885000       5.00602000      17.27676000  T      -0.00495100      -0.00006100      -0.03407300
Cu      10.23708000       5.00595000      15.66894000  T       0.03373100      -0.00066000       0.03624900
Cu       0.01289000       7.52071000      15.35496000  T       0.00449400      -0.00471500      -0.01970600
Cu       2.47121000       7.50234000      15.36862000  T       0.00790000       0.00149300      -0.01701800
Cu       4.93496000       7.58663000      15.50811000  T       0.01381700      -0.01578000      -0.00194800
Cu       7.41285000       7.54263000      15.43307000  T      -0.00253600      -0.02213300       0.00019100
Cu      10.06670000       7.59676000      15.39524000  T      -0.00230300      -0.00785900      -0.01568400
Cu      -0.00011000      10.01006000      15.38022000  T      -0.00476300      -0.00120800      -0.02514500
Cu       2.51336000      10.00472000      15.38502000  T      -0.00055300       0.00109000      -0.02243800
Cu       5.01422000      10.03748000      15.37420000  T      -0.00351300      -0.00234400      -0.01929500
Cu       7.51007000      10.03866000      15.34647000  T      -0.00112500      -0.00309500      -0.01929300
Cu      10.01675000      10.04443000      15.35205000  T      -0.00073600       0.00223800      -0.02392700
O        6.06539000       3.45091000      16.71091000  T       0.01670700       0.00252600      -0.01873700
O        6.06550000       6.56101000      16.71104000  T       0.01662900      -0.00315000      -0.01862000
O        8.80740000       6.47837000      16.27442000  T      -0.01329000      -0.01528700      -0.03232500
O        8.80808000       3.53338000      16.27606000  T      -0.01298900       0.01467200      -0.03135100
C       10.74034000       5.00916000      17.61861000  T       0.00771800       0.00045700       0.03064600
O       12.00729000       5.01479000      18.09786000  T      -0.01370800       0.00032100       0.05692700
O        9.79919000       5.00830000      18.44692000  T      -0.01923700      -0.00008500       0.00413600
H       11.97610000       5.01775000      19.08707000  T      -0.01717200      -0.00041900       0.06679500
108
Lattice="12.515153631 0.0 0.0 0.0 12.515153631 0.0 0.0 0.0 25.30973" Properties=species:S:1:pos:R:3:move_mask:L:1:forces:R:3 stress="0.0075770485241123805 2.415464031716821e-06 -3.0745673954100926e-05 2.415464031716821e-06 0.007780989834800616 -1.373132007694317e-07 -3.0745673954100926e-05 -1.373132007694317e-07 0.0021636753120695645" free_energy=-444.89281805 energy=-444.8892387 pbc="T T T"
Cu       1.25152000       1.25152000      10.00000000  F      -0.00538600      -0.01302900      -0.07746700
Cu       3.75455000       1.25152000      10.00000000  F       0.01755100       0.00339900      -0.07677300
Cu       6.25758000       1.25152000      10.00000000  F      -0.01750600       0.01555800      -0.06214600
Cu       8.76061000       1.25152000      10.00000000  F       0.00937000       0.01959300      -0.05270500
Cu      11.26364000       1.25152000      10.00000000  F      -0.00305200       0.01277800      -0.07490800
Cu       1.25152000       3.75455000      10.00000000  F      -0.00958600       0.00936400      -0.07259700
Cu       3.75455000       3.75455000      10.00000000  F       0.01691000      -0.01308800      -0.05977800
Cu       6.25758000       3.75455000      10.00000000  F      -0.01845700      -0.01543500      -0.07720800
Cu       8.76061000       3.75455000      10.00000000  F       0.01948800      -0.02075600      -0.08903100
Cu      11.26364000       3.75455000      10.00000000  F      -0.00877400      -0.00562900      -0.05195500
Cu       1.25152000       6.25758000      10.00000000  F      -0.00992300      -0.00796500      -0.07427600
Cu       3.75455000       6.25758000      10.00000000  F       0.01814300       0.01368200      -0.06026200
Cu       6.25758000       6.25758000      10.00000000  F      -0.01842800       0.01735000      -0.08023900
Cu       8.76061000       6.25758000      10.00000000  F       0.01822400       0.02142000      -0.08967300
Cu      11.26364000       6.25758000      10.00000000  F      -0.00842400       0.00704700      -0.05363400
Cu       1.25152000       8.76061000      10.00000000  F      -0.00513700       0.00969100      -0.07628600
Cu       3.75455000       8.76061000      10.00000000  F       0.01678600      -0.00573500      -0.07584400
Cu       6.25758000       8.76061000      10.00000000  F      -0.01749400      -0.01960400      -0.06001100
Cu       8.76061000       8.76061000      10.00000000  F       0.01012300      -0.02202900      -0.05177800
Cu      11.26364000       8.76061000      10.00000000  F      -0.00330600      -0.01615200      -0.07359700
Cu       1.25152000      11.26364000      10.00000000  F      -0.00943600       0.00176600      -0.01407200
Cu       3.75455000      11.26364000      10.00000000  F      -0.00380300       0.00156000      -0.07131000
Cu       6.25758000      11.26364000      10.00000000  F      -0.00946200       0.00196300      -0.07608800
Cu       8.76061000      11.26364000      10.00000000  F       0.00020400       0.00159500      -0.06051400
Cu      11.26364000      11.26364000      10.00000000  F       0.02228300       0.00183900      -0.07348800
Cu       0.00000000       0.00000000      11.76991000  F      -0.00446400       0.04429100       0.05077700
Cu       2.50303000       0.00000000      11.76991000  F       0.04386400       0.01215900       0.08442600
Cu       5.00606000       0.00000000      11.76991000  F      -0.00411100       0.07842000       0.06030300
Cu       7.50909000       0.00000000      11.76991000  F      -0.02328400       0.04870100       0.03862200
Cu      10.01212000       0.00000000      11.76991000  F      -0.03600700       0.07949100       0.06037500
Cu       0.00000000       2.50303000      11.76991000  F      -0.05598200       0.03564000       0.06391000
Cu       2.50303000       2.50303000      11.76991000  F       0.05811000       0.03615900       0.07422900
Cu       5.00606000       2.50303000      11.76991000  F      -0.04763700      -0.06615600       0.02320300
Cu       7.50909000       2.50303000      11.76991000  F       0.01092100       0.02919100       0.13288100
Cu      10.01212000       2.50303000      11.76991000  F       0.01042800      -0.00526000       0.09971900
Cu       0.00000000       5.00606000      11.76991000  F      -0.06288600       0.00132500       0.03908200
Cu       2.50303000       5.00606000      11.76991000  F       0.09317500       0.00150600       0.09114300
Cu       5.00606000       5.00606000      11.76991000  F      -0.07470100       0.00192700       0.07649300
Cu       7.50909000       5.00606000      11.76991000  F       0.05316800       0.00203800       0.18658000
Cu      10.01212000       5.00606000      11.76991000  F      -0.01058000       0.00095300       0.19211500
Cu       0.00000000       7.50909000      11.76991000  F      -0.05604400      -0.03945000       0.06491200
Cu       2.50303000       7.50909000      11.76991000  F       0.05780200      -0.03805100       0.07377400
Cu       5.00606000       7.50909000      11.76991000  F      -0.04587700       0.06226700       0.02489400
Cu       7.50909000       7.50909000      11.76991000  F       0.01009400      -0.03354400       0.13515000
Cu      10.01212000       7.50909000      11.76991000  F       0.01070000       0.00237100       0.10085500
Cu       0.00000000      10.01212000      11.76991000  F      -0.00396900      -0.04171500       0.04866300
Cu       2.50303000      10.01212000      11.76991000  F       0.04499700      -0.01108500       0.08439900
Cu       5.00606000      10.01212000      11.76991000  F      -0.00468700      -0.07640400       0.05930400
Cu       7.50909000      10.01212000      11.76991000  F      -0.02307000      -0.04611100       0.03751800
Cu      10.01212000      10.01212000      11.76991000  F      -0.03702500      -0.07756900       0.06026800
Cu       1.25309000       1.24286000      13.57772000  T       0.00276600       0.00480800      -0.01056100
Cu       3.76163000       1.25953000      13.60826000  T       0.00829300       0.01008600      -0.00208100
Cu       6.24347000       1.26800000      13.60335000  T       0.00489800       0.00794200      -0.00040700
Cu       8.73500000       1.27272000      13.59660000  T      -0.00227300       0.00570900      -0.00554000
Cu      11.25497000       1.25684000      13.58656000  T      -0.00505700       0.00917200      -0.00419000
Cu       1.24842000       3.75405000      13.57077000  T       0.00603100       0.00356200      -0.00955900
Cu       3.77517000       3.74319000      13.60435000  T       0.01296300       0.00343600      -0.00445900
Cu       6.26455000       3.76287000      13.55849000  T       0.00578200       0.00233300       0.00548100
Cu       8.76257000       3.78064000      13.60072000  T      -0.00173100       0.00335900       0.00509700
Cu      11.24595000       3.77342000      13.60885000  T      -0.00286100       0.00392900      -0.00623400
Cu       1.24827000       6.25850000      13.57072000  T       0.00626100      -0.00401300      -0.00990900
Cu       3.77533000       6.26910000      13.60410000  T       0.01293900      -0.00490500      -0.00412700
Cu       6.26490000       6.24847000      13.55874000  T       0.00585500      -0.00195500       0.00389200
Cu       8.76268000       6.23122000      13.60100000  T      -0.00182000      -0.00268000       0.00491600
Cu      11.24605000       6.23795000      13.60860000  T      -0.00337100      -0.00258400      -0.00580500
Cu       1.25341000       8.76914000      13.57773000  T       0.00270900      -0.00519400      -0.01065700
Cu       3.76152000       8.75247000      13.60845000  T       0.00848600      -0.01055300      -0.00262700
Cu       6.24339000       8.74433000      13.60312000  T       0.00518000      -0.00907000      -0.00136700
Cu       8.73509000       8.73977000      13.59636000  T      -0.00227600      -0.00648400      -0.00599900
Cu      11.25516000       8.75521000      13.58622000  T      -0.00513500      -0.00914300      -0.00534500
Cu       1.25658000      11.26398000      13.59978000  T      -0.00220600      -0.00004900      -0.01114900
Cu       3.74730000      11.26374000      13.58329000  T       0.00547400       0.00004600      -0.01118500
Cu       6.25251000      11.26415000      13.56531000  T       0.00355100      -0.00042000      -0.00907000
Cu       8.76378000      11.26402000      13.56385000  T      -0.00534300      -0.00041800      -0.01049400
Cu      11.28221000      11.26395000      13.57091000  T      -0.00830100       0.00025100      -0.01406100
Cu      -0.00119000       0.00446000      15.37295000  T      -0.00186900       0.00003100      -0.01074800
Cu       2.51291000       0.00826000      15.37801000  T      -0.00218000      -0.00349000      -0.00876100
Cu       5.01432000      12.48830000      15.36867000  T      -0.00725600       0.00576700      -0.00848600
Cu       7.50987000      12.48825000      15.34141000  T      -0.00237700       0.01000900      -0.01108800
Cu      10.01576000      12.48164000      15.34596000  T       0.00129600       0.00489900      -0.01387200
Cu       0.01381000       2.49444000      15.34972000  T      -0.00014500       0.00000100      -0.00939600
Cu       2.47149000       2.50897000      15.36422000  T       0.01139900      -0.00255500      -0.01100300
Cu       4.93687000       2.42558000      15.50606000  T      -0.00145300       0.00032900      -0.00450900
Cu       7.41238000       2.47312000      15.43015000  T      -0.00400200      -0.00180300      -0.00938900
Cu      10.06807000       2.41460000      15.38992000  T      -0.00860200       0.01221100      -0.00420400
Cu       0.09041000       5.00688000      15.38273000  T       0.01988400       0.00049200      -0.00904300
Cu       2.49172000       5.00610000      15.34374000  T       0.01573800      -0.00134500      -0.00490900
Pd       5.00674000       5.00567000      15.51928000  T      -0.00314500      -0.00026100      -0.00481500
Y        7.58051000       5.00603000      17.27174000  T      -0.00541900       0.00004500      -0.00749100
Cu      10.24313000       5.00593000      15.67520000  T       0.03686300      -0.00069600       0.02659700
Cu       0.01426000       7.51902000      15.34913000  T      -0.00116500       0.00029900      -0.00986500
Cu       2.47195000       7.50195000      15.36422000  T       0.01075500       0.00324800      -0.01099600
Cu       4.93725000       7.58497000      15.50545000  T      -0.00184500      -0.00065100      -0.00420900
Cu       7.41210000       7.54000000      15.43012000  T      -0.00412000       0.00205400      -0.00906500
Cu      10.06832000       7.59719000      15.38962000  T      -0.00814100      -0.01112800      -0.00393300
Cu      -0.00111000      10.00930000      15.37208000  T      -0.00203100       0.00192500      -0.01035200
Cu       2.51296000      10.00448000      15.37760000  T      -0.00155200       0.00349700      -0.00796700
Cu       5.01462000      10.03721000      15.36851000  T      -0.00685800      -0.00583900      -0.00940300
Cu       7.50989000      10.03854000      15.34097000  T      -0.00180300      -0.00765300      -0.01149600
Cu      10.01587000      10.04510000      15.34563000  T       0.00181300      -0.00455100      -0.01513700
O        6.06449000       3.45109000      16.71159000  T       0.02744800       0.00131200      -0.02398100
O        6.06462000       6.56081000      16.71181000  T       0.02710700      -0.00207600      -0.02416700
O        8.80737000       6.47708000      16.26637000  T       0.01113900      -0.02449100      -0.01954200
O        8.80813000       3.53466000      16.26806000  T       0.01072700       0.02367100      -0.01922700
C       10.74175000       5.00927000      17.62673000  T      -0.00842300      -0.00001900       0.01535300
O       12.00650000       5.01486000      18.11023000  T      -0.00852000      -0.00023800       0.06481100
O        9.79745000       5.00831000      18.45196000  T      -0.02953100      -0.00005400      -0.01114300
H       11.97114000       5.01764000      19.09969000  T      -0.01838400      -0.00038200       0.04892600
108
Lattice="12.515153631 0.0 0.0 0.0 12.515153631 0.0 0.0 0.0 25.30973" Properties=species:S:1:pos:R:3:move_mask:L:1:forces:R:3 stress="0.007408240668293742 2.690090433255684e-06 -2.408598371678349e-05 2.690090433255684e-06 0.007611482929959878 2.621433832870969e-07 -2.408598371678349e-05 2.621433832870969e-07 0.0019382070364061576" free_energy=-444.8951158 energy=-444.89151275 pbc="T T T"
Cu       1.25152000       1.25152000      10.00000000  F      -0.00534300      -0.01275300      -0.07785900
Cu       3.75455000       1.25152000      10.00000000  F       0.01800300       0.00368900      -0.07701700
Cu       6.25758000       1.25152000      10.00000000  F      -0.01758900       0.01569000      -0.06195000
Cu       8.76061000       1.25152000      10.00000000  F       0.00893100       0.01975400      -0.05255500
Cu      11.26364000       1.25152000      10.00000000  F      -0.00350600       0.01307500      -0.07515000
Cu       1.25152000       3.75455000      10.00000000  F      -0.00948800       0.00947800      -0.07306200
Cu       3.75455000       3.75455000      10.00000000  F       0.01732700      -0.01300700      -0.05988100
Cu       6.25758000       3.75455000      10.00000000  F      -0.01854600      -0.01514000      -0.07681500
Cu       8.76061000       3.75455000      10.00000000  F       0.01902700      -0.02059300      -0.08923200
Cu      11.26364000       3.75455000      10.00000000  F      -0.00915700      -0.00555600      -0.05230200
Cu       1.25152000       6.25758000      10.00000000  F      -0.00981100      -0.00810700      -0.07471500
Cu       3.75455000       6.25758000      10.00000000  F       0.01856700       0.01360000      -0.06033100
Cu       6.25758000       6.25758000      10.00000000  F      -0.01852200       0.01705000      -0.07983800
Cu       8.76061000       6.25758000      10.00000000  F       0.01774900       0.02123600      -0.08989600
Cu      11.26364000       6.25758000      10.00000000  F      -0.00880600       0.00693900      -0.05400200
Cu       1.25152000       8.76061000      10.00000000  F      -0.00507400       0.00940700      -0.07669900
Cu       3.75455000       8.76061000      10.00000000  F       0.01724600      -0.00605100      -0.07605500
Cu       6.25758000       8.76061000      10.00000000  F      -0.01758100      -0.01975600      -0.05978800
Cu       8.76061000       8.76061000      10.00000000  F       0.00966500      -0.02220900      -0.05166400
Cu      11.26364000       8.76061000      10.00000000  F      -0.00375700      -0.01645000      -0.07388600
Cu       1.25152000      11.26364000      10.00000000  F      -0.00943500       0.00175500      -0.01442600
Cu       3.75455000      11.26364000      10.00000000  F      -0.00338600       0.00154100      -0.07125100
Cu       6.25758000      11.26364000      10.00000000  F      -0.00936900       0.00194400      -0.07598300
Cu       8.76061000      11.26364000      10.00000000  F      -0.00040700       0.00159100      -0.06052600
Cu      11.26364000      11.26364000      10.00000000  F       0.02187100       0.00183000      -0.07382200
Cu       0.00000000       0.00000000      11.76991000  F      -0.00493400       0.04578000       0.04403000
Cu       2.50303000       0.00000000      11.76991000  F       0.04590500       0.01333000       0.07862600
Cu       5.00606000       0.00000000      11.76991000  F      -0.00313600       0.08034500       0.05464200
Cu       7.50909000       0.00000000      11.76991000  F      -0.02443700       0.05094500       0.03168800
Cu      10.01212000       0.00000000      11.76991000  F      -0.03791700       0.08155700       0.05320800
Cu       0.00000000       2.50303000      11.76991000  F      -0.05662400       0.03718100       0.05764800
Cu       2.50303000       2.50303000      11.76991000  F       0.06156000       0.03742100       0.06765300
Cu       5.00606000       2.50303000      11.76991000  F      -0.04536600      -0.06462100       0.01745200
Cu       7.50909000       2.50303000      11.76991000  F       0.01034400       0.03165900       0.12819000
Cu      10.01212000       2.50303000      11.76991000  F       0.00829300      -0.00263600       0.09471600
Cu       0.00000000       5.00606000      11.76991000  F      -0.06355000       0.00132700       0.03291300
Cu       2.50303000       5.00606000      11.76991000  F       0.09733800       0.00142000       0.08472300
Cu       5.00606000       5.00606000      11.76991000  F      -0.07193900       0.00175400       0.07157100
Cu       7.50909000       5.00606000      11.76991000  F       0.05439000       0.00187200       0.18431400
Cu      10.01212000       5.00606000      11.76991000  F      -0.01387400       0.00099400       0.18909900
Cu       0.00000000       7.50909000      11.76991000  F      -0.05661100      -0.04110800       0.05846600
Cu       2.50303000       7.50909000      11.76991000  F       0.06133900      -0.03947100       0.06718900
Cu       5.00606000       7.50909000      11.76991000  F      -0.04387700       0.06057400       0.01888500
Cu       7.50909000       7.50909000      11.76991000  F       0.00966900      -0.03607700       0.12989900
Cu      10.01212000       7.50909000      11.76991000  F       0.00852200      -0.00040900       0.09544900
Cu       0.00000000      10.01212000      11.76991000  F      -0.00433100      -0.04314400       0.04188800
Cu       2.50303000      10.01212000      11.76991000  F       0.04702700      -0.01231600       0.07864500
Cu       5.00606000      10.01212000      11.76991000  F      -0.00377500      -0.07832100       0.05364200
Cu       7.50909000      10.01212000      11.76991000  F      -0.02422300      -0.04832200       0.03048000
Cu      10.01212000      10.01212000      11.76991000  F      -0.03896200      -0.07947800       0.05294900
Cu       1.25342000       1.24347000      13.57572000  T       0.00161700       0.00201200      -0.00281000
Cu       3.76236000       1.26045000      13.60707000  T       0.00519200       0.00441400      -0.00091400
Cu       6.24378000       1.26867000      13.60231000  T       0.00201800       0.00431700      -0.00024900
Cu       8.73475000       1.27322000      13.59518000  T      -0.00084700       0.00456000      -0.00150200
Cu      11.25467000       1.25763000      13.58493000  T      -0.00330100       0.00662600       0.00065900
Cu       1.24926000       3.75439000      13.56889000  T       0.00602300       0.00096500      -0.00209900
Cu       3.77657000       3.74343000      13.60333000  T       0.00841700       0.00279300      -0.00362100
Cu       6.26506000       3.76300000      13.55815000  T       0.00546800       0.00321100       0.00144900
Cu       8.76253000       3.78092000      13.60066000  T      -0.00175400       0.00320000       0.00426800
Cu      11.24575000       3.77397000      13.60763000  T      -0.00025400       0.00363200      -0.00130300
Cu       1.24911000       6.25812000      13.56879000  T       0.00623300      -0.00130400      -0.00200400
Cu       3.77674000       6.26873000      13.60310000  T       0.00820400      -0.00375600      -0.00314900
Cu       6.26545000       6.24833000      13.55826000  T       0.00541400      -0.00319600       0.00091800
Cu       8.76263000       6.23101000      13.60094000  T      -0.00187500      -0.00291400       0.00432300
Cu      11.24579000       6.23749000      13.60742000  T      -0.00055500      -0.00263100      -0.00097100
Cu       1.25376000       8.76847000      13.57573000  T       0.00157300      -0.00228100      -0.00256600
Cu       3.76226000       8.75150000      13.60723000  T       0.00545200      -0.00486800      -0.00146200
Cu       6.24371000       8.74354000      13.60197000  T       0.00231300      -0.00463500      -0.00049200
Cu       8.73483000       8.73921000      13.59486000  T      -0.00096300      -0.00492000      -0.00140200
Cu      11.25485000       8.75442000      13.58445000  T      -0.00324800      -0.00594600       0.00048700
Cu       1.25639000      11.26397000      13.59753000  T      -0.00161100      -0.00006100      -0.00366200
Cu       3.74784000      11.26374000      13.58135000  T       0.00230100      -0.00006800      -0.00467200
Cu       6.25275000      11.26414000      13.56348000  T       0.00054900      -0.00017000      -0.00034000
Cu       8.76319000      11.26400000      13.56183000  T      -0.00441300      -0.00014200      -0.00183600
Cu      11.28141000      11.26399000      13.56857000  T      -0.00459000       0.00032000      -0.00583700
Cu      -0.00162000       0.00478000      15.36977000  T      -0.00072900      -0.00089800      -0.00899700
Cu       2.51257000       0.00804000      15.37516000  T      -0.00242900      -0.00249800      -0.00656300
Cu       5.01378000      12.48874000      15.36635000  T      -0.00484500       0.00157200      -0.00560200
Cu       7.50960000      12.48909000      15.33894000  T      -0.00227800       0.00387900      -0.00723700
Cu      10.01559000      12.48189000      15.34297000  T      -0.00042500       0.00478800      -0.01005700
Cu       0.01418000       2.49495000      15.34733000  T      -0.00067500       0.00111800      -0.00558800
Cu       2.47262000       2.50877000      15.36200000  T       0.00648200      -0.00069800      -0.00760200
Cu       4.93732000       2.42595000      15.50494000  T      -0.00163000      -0.00098500      -0.00262900
Cu       7.41202000       2.47367000      15.42849000  T       0.00658400      -0.00037100      -0.00417000
Cu      10.06785000       2.41546000      15.38794000  T      -0.00371800       0.00568800      -0.00347900
Cu       0.09294000       5.00697000      15.38037000  T       0.01990800       0.00026100      -0.00524900
Cu       2.49394000       5.00593000      15.34191000  T       0.01112400      -0.00076700      -0.00217400
Pd       5.00821000       5.00565000      15.51782000  T       0.00514600      -0.00037600      -0.00512000
Y        7.58073000       5.00604000      17.26975000  T       0.00587300       0.00005700      -0.00101700
Cu      10.24814000       5.00587000      15.67915000  T       0.03200700      -0.00026700       0.01691600
Cu       0.01452000       7.51857000      15.34664000  T      -0.00136100      -0.00026000      -0.00581800
Cu       2.47303000       7.50211000      15.36202000  T       0.00568600       0.00124200      -0.00760300
Cu       4.93767000       7.58453000      15.50433000  T      -0.00217300       0.00095100      -0.00280500
Cu       7.41173000       7.53950000      15.42850000  T       0.00681400       0.00077400      -0.00436400
Cu      10.06813000       7.59643000      15.38769000  T      -0.00419500      -0.00541600      -0.00254900
Cu      -0.00155000      10.00927000      15.36886000  T      -0.00062000       0.00171400      -0.00771600
Cu       2.51268000      10.00472000      15.37480000  T      -0.00175200       0.00223300      -0.00601600
Cu       5.01414000      10.03668000      15.36608000  T      -0.00457400      -0.00201900      -0.00640900
Cu       7.50967000      10.03791000      15.33842000  T      -0.00204700      -0.00246500      -0.00756200
Cu      10.01575000      10.04486000      15.34249000  T      -0.00020000      -0.00467000      -0.01092900
O        6.06662000       3.45121000      16.70956000  T       0.02167600      -0.00435400      -0.02498800
O        6.06672000       6.56063000      16.70978000  T       0.02091900       0.00398600      -0.02533600
O        8.80834000       6.47457000      16.26242000  T       0.00856200      -0.01757600      -0.02430900
O        8.80908000       3.53711000      16.26416000  T       0.00853200       0.01781500      -0.02350500
C       10.74186000       5.00930000      17.63078000  T       0.00188600      -0.00022400       0.02605800
O       12.00508000       5.01486000      18.11866000  T      -0.01946400       0.00013500       0.04902400
O        9.79420000       5.00830000      18.45229000  T      -0.02825400      -0.00040800      -0.00524800
H       11.96788000       5.01757000      19.10797000  T      -0.02663200      -0.00033000       0.04816500
108
Lattice="12.515153631 0.0 0.0 0.0 12.515153631 0.0 0.0 0.0 25.30973" Properties=species:S:1:pos:R:3:move_mask:L:1:forces:R:3 stress="0.00725364472875474 3.0146489078016137e-06 -4.312882805985332e-06 3.0146489078016137e-06 0.007472815321710131 7.614641133577575e-07 -4.312882805985332e-06 7.614641133577575e-07 0.0017403574386247844" free_energy=-444.89915661 energy=-444.89550573 pbc="T T T"
Cu       1.25152000       1.25152000      10.00000000  F      -0.00587800      -0.01319400      -0.07792400
Cu       3.75455000       1.25152000      10.00000000  F       0.01751600       0.00338100      -0.07760200
Cu       6.25758000       1.25152000      10.00000000  F      -0.01746600       0.01531800      -0.06232000
Cu       8.76061000       1.25152000      10.00000000  F       0.00981100       0.01935700      -0.05263800
Cu      11.26364000       1.25152000      10.00000000  F      -0.00306600       0.01274500      -0.07502800
Cu       1.25152000       3.75455000      10.00000000  F      -0.00996800       0.00915300      -0.07301100
Cu       3.75455000       3.75455000      10.00000000  F       0.01699500      -0.01337600      -0.06034800
Cu       6.25758000       3.75455000      10.00000000  F      -0.01838400      -0.01516500      -0.07715100
Cu       8.76061000       3.75455000      10.00000000  F       0.01982600      -0.02074700      -0.08988300
Cu      11.26364000       3.75455000      10.00000000  F      -0.00879600      -0.00590200      -0.05217700
Cu       1.25152000       6.25758000      10.00000000  F      -0.01030600      -0.00778500      -0.07464300
Cu       3.75455000       6.25758000      10.00000000  F       0.01821500       0.01394800      -0.06079800
Cu       6.25758000       6.25758000      10.00000000  F      -0.01835400       0.01704600      -0.08020400
Cu       8.76061000       6.25758000      10.00000000  F       0.01856200       0.02137500      -0.09058300
Cu      11.26364000       6.25758000      10.00000000  F      -0.00843200       0.00727000      -0.05387700
Cu       1.25152000       8.76061000      10.00000000  F      -0.00562000       0.00984800      -0.07674200
Cu       3.75455000       8.76061000      10.00000000  F       0.01675000      -0.00574000      -0.07664700
Cu       6.25758000       8.76061000      10.00000000  F      -0.01745300      -0.01937900      -0.06021800
Cu       8.76061000       8.76061000      10.00000000  F       0.01054800      -0.02182000      -0.05176000
Cu      11.26364000       8.76061000      10.00000000  F      -0.00332100      -0.01612700      -0.07372200
Cu       1.25152000      11.26364000      10.00000000  F      -0.00998700       0.00174200      -0.01431900
Cu       3.75455000      11.26364000      10.00000000  F      -0.00404600       0.00154600      -0.07141800
Cu       6.25758000      11.26364000      10.00000000  F      -0.00898800       0.00194500      -0.07663100
Cu       8.76061000      11.26364000      10.00000000  F       0.00025300       0.00159700      -0.06091400
Cu      11.26364000      11.26364000      10.00000000  F       0.02244400       0.00181900      -0.07383800
Cu       0.00000000       0.00000000      11.76991000  F      -0.00572300       0.04805300       0.03488000
Cu       2.50303000       0.00000000      11.76991000  F       0.04705800       0.01483600       0.07011200
Cu       5.00606000       0.00000000      11.76991000  F      -0.00208900       0.08241400       0.04649300
Cu       7.50909000       0.00000000      11.76991000  F      -0.02487400       0.05344200       0.02273500
Cu      10.01212000       0.00000000      11.76991000  F      -0.03901700       0.08444000       0.04383600
Cu       0.00000000       2.50303000      11.76991000  F      -0.05709000       0.03909200       0.04954600
Cu       2.50303000       2.50303000      11.76991000  F       0.06492800       0.03825700       0.05810900
Cu       5.00606000       2.50303000      11.76991000  F      -0.04216400      -0.06296900       0.00864200
Cu       7.50909000       2.50303000      11.76991000  F       0.01127000       0.03465000       0.12102900
Cu      10.01212000       2.50303000      11.76991000  F       0.00732600       0.00124200       0.08801700
Cu       0.00000000       5.00606000      11.76991000  F      -0.06320000       0.00139600       0.02532400
Cu       2.50303000       5.00606000      11.76991000  F       0.10136800       0.00129700       0.07487200
Cu       5.00606000       5.00606000      11.76991000  F      -0.06798100       0.00154400       0.06282100
Cu       7.50909000       5.00606000      11.76991000  F       0.05886900       0.00168000       0.17936600
Cu      10.01212000       5.00606000      11.76991000  F      -0.01670200       0.00111900       0.18524200
Cu       0.00000000       7.50909000      11.76991000  F      -0.05698500      -0.04311600       0.05029400
Cu       2.50303000       7.50909000      11.76991000  F       0.06480400      -0.04060200       0.05771300
Cu       5.00606000       7.50909000      11.76991000  F      -0.04101400       0.05858800       0.00983700
Cu       7.50909000       7.50909000      11.76991000  F       0.01079400      -0.03915200       0.12207200
Cu      10.01212000       7.50909000      11.76991000  F       0.00749200      -0.00438100       0.08835400
Cu       0.00000000      10.01212000      11.76991000  F      -0.00494600      -0.04526600       0.03274600
Cu       2.50303000      10.01212000      11.76991000  F       0.04812400      -0.01392900       0.07021600
Cu       5.00606000      10.01212000      11.76991000  F      -0.00276700      -0.08036700       0.04547600
Cu       7.50909000      10.01212000      11.76991000  F      -0.02462800      -0.05077300       0.02142000
Cu      10.01212000      10.01212000      11.76991000  F      -0.04012400      -0.08207500       0.04344000
Cu       1.25392000       1.24428000      13.57319000  T      -0.00110000      -0.00171900       0.00354300
Cu       3.76358000       1.26172000      13.60541000  T      -0.00163700      -0.00373100      -0.00148000
Cu       6.24424000       1.26975000      13.60092000  T      -0.00102200      -0.00103800      -0.00081200
Cu       8.73447000       1.27422000      13.59332000  T       0.00183400       0.00072100       0.00039200
Cu      11.25414000       1.25912000      13.58304000  T       0.00195900       0.00047400       0.00124300
Cu       1.25091000       3.75474000      13.56658000  T       0.00350800      -0.00240900       0.00312500
Cu       3.77893000       3.74394000      13.60166000  T       0.00032400      -0.00039200      -0.00182900
Cu       6.26627000       3.76348000      13.55759000  T       0.00337000       0.00105000      -0.00366700
Cu       8.76243000       3.78159000      13.60091000  T       0.00247800       0.00160500       0.00044600
Cu      11.24568000       3.77503000      13.60618000  T       0.00442500       0.00239600       0.00305200
Cu       1.25078000       6.25767000      13.56645000  T       0.00341200       0.00240700       0.00356300
Cu       3.77908000       6.26798000      13.60150000  T       0.00022300       0.00014900      -0.00175600
Cu       6.26669000       6.24783000      13.55752000  T       0.00308400      -0.00145700      -0.00282800
Cu       8.76252000       6.23042000      13.60119000  T       0.00237500      -0.00187300       0.00074800
Cu      11.24563000       6.23663000      13.60603000  T       0.00443000      -0.00204000       0.00307600
Cu       1.25427000       8.76756000      13.57324000  T      -0.00107700       0.00183500       0.00364100
Cu       3.76350000       8.75012000      13.60550000  T      -0.00168400       0.00336800      -0.00164500
Cu       6.24421000       8.74233000      13.60044000  T      -0.00077700       0.00172000      -0.00038900
Cu       8.73455000       8.73813000      13.59295000  T       0.00189600      -0.00016900       0.00087700
Cu      11.25432000       8.75304000      13.58240000  T       0.00202900       0.00080500       0.00186000
Cu       1.25599000      11.26395000      13.59455000  T      -0.00087000      -0.00016900       0.00158500
Cu       3.74850000      11.26374000      13.57865000  T      -0.00358600      -0.00018600       0.00118200
Cu       6.25292000      11.26413000      13.56146000  T      -0.00338400       0.00019600       0.00501900
Cu       8.76213000      11.26398000      13.55940000  T      -0.00004400       0.00030200       0.00414400
Cu      11.28017000      11.26406000      13.56534000  T       0.00139100       0.00029800       0.00223700
Cu      -0.00221000       0.00504000      15.36494000  T      -0.00031900      -0.00054800      -0.00355500
Cu       2.51183000       0.00754000      15.37101000  T      -0.00230300      -0.00011300      -0.00172100
Cu       5.01270000      12.48920000      15.36302000  T      -0.00129800      -0.00353800      -0.00006300
Cu       7.50905000      12.49019000      15.33535000  T      -0.00116500      -0.00339400       0.00074600
Cu      10.01530000      12.48263000      15.33840000  T      -0.00155900       0.00084100      -0.00218500
Cu       0.01459000       2.49574000      15.34393000  T       0.00007200       0.00240700       0.00066700
Cu       2.47436000       2.50849000      15.35860000  T      -0.00193700       0.00119900      -0.00123400
Cu       4.93773000       2.42618000      15.50333000  T       0.00102200      -0.00257200      -0.00120700
Cu       7.41279000       2.47420000      15.42611000  T       0.01384600      -0.00279200      -0.00114500
Cu      10.06765000       2.41666000      15.38510000  T       0.00712200      -0.00457900      -0.00193900
Cu       0.09830000       5.00710000      15.37702000  T       0.01693800      -0.00024400       0.00010200
Cu       2.49770000       5.00570000      15.33949000  T       0.00640300       0.00042100       0.00084800
Pd       5.01034000       5.00557000      15.51583000  T       0.00417500      -0.00046500      -0.00034600
Y        7.58183000       5.00605000      17.26742000  T       0.00795300       0.00019400       0.00080500
Cu      10.25793000       5.00579000      15.68559000  T       0.02613100       0.00043000       0.00854100
Cu       0.01473000       7.51797000      15.34310000  T      -0.00009700      -0.00148000       0.00099300
Cu       2.47465000       7.50236000      15.35862000  T      -0.00248900      -0.00131200      -0.00135700
Cu       4.93797000       7.58421000      15.50267000  T       0.00056800       0.00241400      -0.00166500
Cu       7.41251000       7.53908000      15.42612000  T       0.01363900       0.00339600      -0.00167000
Cu      10.06793000       7.59535000      15.38500000  T       0.00690600       0.00456800      -0.00151000
Cu      -0.00211000      10.00939000      15.36416000  T       0.00015600       0.00019700      -0.00185800
Cu       2.51210000      10.00519000      15.37075000  T      -0.00168100      -0.00053700      -0.00147100
Cu       5.01316000      10.03605000      15.36257000  T      -0.00111900       0.00283900      -0.00006300
Cu       7.50922000      10.03718000      15.33472000  T      -0.00132100       0.00367900       0.00098700
Cu      10.01553000      10.04415000      15.33765000  T      -0.00163900      -0.00082600      -0.00184000
O        6.07115000       3.45067000      16.70490000  T       0.00797100      -0.00683300      -0.00812900
O        6.07114000       6.56109000      16.70509000  T       0.00790200       0.00706900      -0.00851700
O        8.81030000       6.46982000      16.25505000  T       0.00472300      -0.01044900      -0.01799300
O        8.81105000       3.54180000      16.25699000  T       0.00549200       0.00915700      -0.01637800
C       10.74195000       5.00931000      17.63852000  T      -0.00784600      -0.00013300       0.01774700
O       12.00150000       5.01488000      18.13440000  T      -0.00994700       0.00045200       0.05140600
O        9.78767000       5.00826000      18.45285000  T      -0.01208500       0.00042500       0.01322000
H       11.96018000       5.01745000      19.12371000  T      -0.03935500      -0.00028400       0.03626500
108
Lattice="12.515153631 0.0 0.0 0.0 12.515153631 0.0 0.0 0.0 25.30973" Properties=species:S:1:pos:R:3:move_mask:L:1:forces:R:3 stress="0.007418695196079596 3.04585645343103e-06 -7.321290204661063e-06 3.04585645343103e-06 0.0076352193891656124 6.303924217142091e-07 -7.321290204661063e-06 6.303924217142091e-07 0.0019313538593859379" free_energy=-444.89754935 energy=-444.89390659 pbc="T T T"
Cu       1.25152000       1.25152000      10.00000000  F      -0.00603600      -0.01300300      -0.07732700
Cu       3.75455000       1.25152000      10.00000000  F       0.01738000       0.00353500      -0.07687200
Cu       6.25758000       1.25152000      10.00000000  F      -0.01761700       0.01548100      -0.06164500
Cu       8.76061000       1.25152000      10.00000000  F       0.00950800       0.01954300      -0.05199000
Cu      11.26364000       1.25152000      10.00000000  F      -0.00333500       0.01294100      -0.07441500
Cu       1.25152000       3.75455000      10.00000000  F      -0.01016100       0.00929600      -0.07223100
Cu       3.75455000       3.75455000      10.00000000  F       0.01680900      -0.01324300      -0.05952300
Cu       6.25758000       3.75455000      10.00000000  F      -0.01854500      -0.01512400      -0.07635800
Cu       8.76061000       3.75455000      10.00000000  F       0.01957700      -0.02064800      -0.08903900
Cu      11.26364000       3.75455000      10.00000000  F      -0.00904700      -0.00575200      -0.05142700
Cu       1.25152000       6.25758000      10.00000000  F      -0.01049300      -0.00792600      -0.07386000
Cu       3.75455000       6.25758000      10.00000000  F       0.01803600       0.01381900      -0.05996300
Cu       6.25758000       6.25758000      10.00000000  F      -0.01851500       0.01701200      -0.07938800
Cu       8.76061000       6.25758000      10.00000000  F       0.01830600       0.02128800      -0.08972400
Cu      11.26364000       6.25758000      10.00000000  F      -0.00868900       0.00711800      -0.05311100
Cu       1.25152000       8.76061000      10.00000000  F      -0.00577400       0.00964000      -0.07615800
Cu       3.75455000       8.76061000      10.00000000  F       0.01661600      -0.00591200      -0.07590900
Cu       6.25758000       8.76061000      10.00000000  F      -0.01760400      -0.01956200      -0.05950200
Cu       8.76061000       8.76061000      10.00000000  F       0.01024400      -0.02202500      -0.05109700
Cu      11.26364000       8.76061000      10.00000000  F      -0.00359200      -0.01633700      -0.07309100
Cu       1.25152000      11.26364000      10.00000000  F      -0.01011400       0.00173100      -0.01388000
Cu       3.75455000      11.26364000      10.00000000  F      -0.00417400       0.00153100      -0.07087500
Cu       6.25758000      11.26364000      10.00000000  F      -0.00919600       0.00193300      -0.07593600
Cu       8.76061000      11.26364000      10.00000000  F      -0.00001700       0.00158000      -0.06025300
Cu      11.26364000      11.26364000      10.00000000  F       0.02215500       0.00181100      -0.07330400
Cu       0.00000000       0.00000000      11.76991000  F      -0.00568500       0.04754400       0.03809400
Cu       2.50303000       0.00000000      11.76991000  F       0.04639400       0.01449200       0.07311300
Cu       5.00606000       0.00000000      11.76991000  F      -0.00254300       0.08178400       0.04945300
Cu       7.50909000       0.00000000      11.76991000  F      -0.02486900       0.05276200       0.02607400
Cu      10.01212000       0.00000000      11.76991000  F      -0.03882700       0.08377600       0.04724200
Cu       0.00000000       2.50303000      11.76991000  F      -0.05709700       0.03875400       0.05257600
Cu       2.50303000       2.50303000      11.76991000  F       0.06368300       0.03803600       0.06138000
Cu       5.00606000       2.50303000      11.76991000  F      -0.04316400      -0.06344400       0.01172100
Cu       7.50909000       2.50303000      11.76991000  F       0.01107200       0.03385600       0.12367200
Cu      10.01212000       2.50303000      11.76991000  F       0.00762800       0.00043400       0.09074700
Cu       0.00000000       5.00606000      11.76991000  F      -0.06332600       0.00138100       0.02824100
Cu       2.50303000       5.00606000      11.76991000  F       0.09987300       0.00132900       0.07821000
Cu       5.00606000       5.00606000      11.76991000  F      -0.06919300       0.00159100       0.06571900
Cu       7.50909000       5.00606000      11.76991000  F       0.05801200       0.00172900       0.18133500
Cu      10.01212000       5.00606000      11.76991000  F      -0.01591400       0.00109000       0.18730600
Cu       0.00000000       7.50909000      11.76991000  F      -0.05702500      -0.04275300       0.05337300
Cu       2.50303000       7.50909000      11.76991000  F       0.06352500      -0.04033300       0.06097300
Cu       5.00606000       7.50909000      11.76991000  F      -0.04190900       0.05912500       0.01299600
Cu       7.50909000       7.50909000      11.76991000  F       0.01054100      -0.03835100       0.12492800
Cu      10.01212000       7.50909000      11.76991000  F       0.00781700      -0.00354400       0.09122700
Cu       0.00000000      10.01212000      11.76991000  F      -0.00495600      -0.04480400       0.03595700
Cu       2.50303000      10.01212000      11.76991000  F       0.04747100      -0.01357700       0.07319100
Cu       5.00606000      10.01212000      11.76991000  F      -0.00320600      -0.07975400       0.04843900
Cu       7.50909000      10.01212000      11.76991000  F      -0.02462500      -0.05011000       0.02479600
Cu      10.01212000      10.01212000      11.76991000  F      -0.03991600      -0.08148500       0.04688800
Cu       1.25378000       1.24406000      13.57381000  T      -0.00019300       0.00002400       0.00097200
Cu       3.76328000       1.26136000      13.60577000  T       0.00044900      -0.00065800      -0.00122900
Cu       6.24415000       1.26947000      13.60122000  T      -0.00019900       0.00093000      -0.00045200
Cu       8.73459000       1.27399000      13.59374000  T       0.00057500       0.00210800      -0.00043200
Cu      11.25429000       1.25878000      13.58349000  T       0.00027900       0.00275300       0.00051200
Cu       1.25057000       3.75463000      13.56715000  T       0.00464500      -0.00105000       0.00091300
Cu       3.77840000       3.74381000      13.60200000  T       0.00324300       0.00052800      -0.00212900
Cu       6.26608000       3.76337000      13.55767000  T       0.00414900       0.00134500      -0.00211700
Cu       8.76252000       3.78145000      13.60086000  T       0.00124000       0.00198000       0.00162900
Cu      11.24577000       3.77482000      13.60655000  T       0.00306800       0.00317000       0.00155400
Cu       1.25043000       6.25781000      13.56703000  T       0.00465300       0.00095100       0.00113500
Cu       3.77855000       6.26816000      13.60183000  T       0.00310500      -0.00107700      -0.00190700
Cu       6.26649000       6.24793000      13.55764000  T       0.00399200      -0.00169900      -0.00180200
Cu       8.76261000       6.23053000      13.60114000  T       0.00112400      -0.00206400       0.00185400
Cu      11.24574000       6.23680000      13.60638000  T       0.00297400      -0.00257200       0.00173300
Cu       1.25412000       8.76780000      13.57385000  T      -0.00023600      -0.00003900       0.00118100
Cu       3.76320000       8.75050000      13.60587000  T       0.00051200       0.00025700      -0.00151700
Cu       6.24411000       8.74264000      13.60078000  T       0.00005800      -0.00063800      -0.00035300
Cu       8.73467000       8.73838000      13.59339000  T       0.00065000      -0.00190400      -0.00015600
Cu      11.25448000       8.75337000      13.58289000  T       0.00029700      -0.00167800       0.00076800
Cu       1.25605000      11.26395000      13.59525000  T      -0.00129100      -0.00013800      -0.00075900
Cu       3.74830000      11.26374000      13.57927000  T      -0.00176900      -0.00015800      -0.00099200
Cu       6.25286000      11.26413000      13.56198000  T      -0.00239900       0.00007900       0.00277000
Cu       8.76239000      11.26399000      13.56001000  T      -0.00200300       0.00014600       0.00161500
Cu      11.28047000      11.26405000      13.56610000  T      -0.00105100       0.00030300      -0.00090300
Cu      -0.00208000       0.00497000      15.36598000  T      -0.00114400      -0.00027900      -0.00663100
Cu       2.51196000       0.00764000      15.37192000  T      -0.00284500      -0.00092000      -0.00454000
Cu       5.01293000      12.48905000      15.36377000  T      -0.00307700      -0.00165500      -0.00262100
Cu       7.50918000      12.48989000      15.33616000  T      -0.00187800      -0.00039300      -0.00256600
Cu      10.01536000      12.48247000      15.33938000  T      -0.00159500       0.00223200      -0.00587300
Cu       0.01449000       2.49558000      15.34469000  T      -0.00012900       0.00287900      -0.00197000
Cu       2.47393000       2.50856000      15.35935000  T       0.00118500       0.00049000      -0.00403100
Cu       4.93764000       2.42606000      15.50368000  T       0.00066300      -0.00181000      -0.00192900
Cu       7.41285000       2.47402000      15.42662000  T       0.01080900      -0.00236700      -0.00313700
Cu      10.06780000       2.41634000      15.38571000  T       0.00452000      -0.00146100      -0.00333700
Cu       0.09733000       5.00706000      15.37777000  T       0.01935100      -0.00004900      -0.00214800
Cu       2.49692000       5.00576000      15.34005000  T       0.00985800      -0.00004300      -0.00078500
Pd       5.01004000       5.00557000      15.51614000  T       0.01614300      -0.00069400      -0.01310500
Y        7.58189000       5.00605000      17.26780000  T       0.00722300       0.00011000      -0.00384800
Cu      10.25613000       5.00582000      15.68426000  T       0.03154700       0.00022800       0.01638400
Cu       0.01467000       7.51810000      15.34390000  T      -0.00056400      -0.00190100      -0.00191000
Cu       2.47424000       7.50230000      15.35936000  T       0.00053600      -0.00047400      -0.00416400
Cu       4.93790000       7.58434000      15.50302000  T       0.00009100       0.00161200      -0.00246900
Cu       7.41256000       7.53925000      15.42662000  T       0.01080900       0.00297600      -0.00362300
Cu      10.06807000       7.59565000      15.38559000  T       0.00434400       0.00173700      -0.00277500
Cu      -0.00199000      10.00937000      15.36519000  T      -0.00067600       0.00046400      -0.00500700
Cu       2.51220000      10.00509000      15.37164000  T      -0.00213400       0.00038100      -0.00409600
Cu       5.01337000      10.03624000      15.36336000  T      -0.00274100       0.00100300      -0.00288100
Cu       7.50932000      10.03740000      15.33555000  T      -0.00185600       0.00128600      -0.00255100
Cu      10.01558000      10.04430000      15.33870000  T      -0.00158700      -0.00209700      -0.00586400
O        6.07034000       3.45065000      16.70582000  T       0.01002700      -0.00507100      -0.00837900
O        6.07035000       6.56113000      16.70601000  T       0.00982700       0.00523500      -0.00876800
O        8.81001000       6.47073000      16.25637000  T       0.00557200      -0.00775300      -0.01512000
O        8.81077000       3.54088000      16.25829000  T       0.00618500       0.00713000      -0.01356100
C       10.74177000       5.00931000      17.63721000  T       0.00183600       0.00003200       0.02087500
O       12.00205000       5.01489000      18.13177000  T      -0.02093000       0.00015900       0.03945000
O        9.78883000       5.00827000      18.45293000  T      -0.01971000       0.00018400       0.01026300
H       11.96105000       5.01747000      19.12109000  T      -0.03501100      -0.00032000       0.03805700
108
Lattice="12.515153631 0.0 0.0 0.0 12.515153631 0.0 0.0 0.0 25.30973" Properties=species:S:1:pos:R:3:move_mask:L:1:forces:R:3 stress="0.007397255612232188 3.0084073986757305e-06 -4.599992225775961e-06 3.0084073986757305e-06 0.007615839503329744 6.366339308400924e-07 -4.599992225775961e-06 6.366339308400924e-07 0.0019095585095183535" free_energy=-444.89788609 energy=-444.89424397 pbc="T T T"
Cu       1.25152000       1.25152000      10.00000000  F      -0.00603900      -0.01289100      -0.07658600
Cu       3.75455000       1.25152000      10.00000000  F       0.01756900       0.00368000      -0.07612200
Cu       6.25758000       1.25152000      10.00000000  F      -0.01743700       0.01562900      -0.06076700
Cu       8.76061000       1.25152000      10.00000000  F       0.00947000       0.01966200      -0.05106400
Cu      11.26364000       1.25152000      10.00000000  F      -0.00344800       0.01304200      -0.07358600
Cu       1.25152000       3.75455000      10.00000000  F      -0.01015900       0.00935600      -0.07144100
Cu       3.75455000       3.75455000      10.00000000  F       0.01703100      -0.01318300      -0.05872000
Cu       6.25758000       3.75455000      10.00000000  F      -0.01838200      -0.01506900      -0.07544800
Cu       8.76061000       3.75455000      10.00000000  F       0.01954800      -0.02057200      -0.08808800
Cu      11.26364000       3.75455000      10.00000000  F      -0.00919000      -0.00566700      -0.05050600
Cu       1.25152000       6.25758000      10.00000000  F      -0.01049100      -0.00799200      -0.07307200
Cu       3.75455000       6.25758000      10.00000000  F       0.01825400       0.01374900      -0.05918200
Cu       6.25758000       6.25758000      10.00000000  F      -0.01835300       0.01694700      -0.07849900
Cu       8.76061000       6.25758000      10.00000000  F       0.01828200       0.02120200      -0.08877300
Cu      11.26364000       6.25758000      10.00000000  F      -0.00883000       0.00703200      -0.05219200
Cu       1.25152000       8.76061000      10.00000000  F      -0.00578200       0.00953900      -0.07541800
Cu       3.75455000       8.76061000      10.00000000  F       0.01680200      -0.00604500      -0.07517600
Cu       6.25758000       8.76061000      10.00000000  F      -0.01742200      -0.01970000      -0.05864500
Cu       8.76061000       8.76061000      10.00000000  F       0.01021200      -0.02213300      -0.05017300
Cu      11.26364000       8.76061000      10.00000000  F      -0.00370600      -0.01643300      -0.07226400
Cu       1.25152000      11.26364000      10.00000000  F      -0.01012500       0.00174100      -0.01318800
Cu       3.75455000      11.26364000      10.00000000  F      -0.00397900       0.00154100      -0.07017600
Cu       6.25758000      11.26364000      10.00000000  F      -0.00902500       0.00194500      -0.07511100
Cu       8.76061000      11.26364000      10.00000000  F      -0.00003000       0.00159100      -0.05937300
Cu      11.26364000      11.26364000      10.00000000  F       0.02203000       0.00181800      -0.07253500
Cu       0.00000000       0.00000000      11.76991000  F      -0.00581000       0.04753600       0.03912100
Cu       2.50303000       0.00000000      11.76991000  F       0.04608300       0.01451000       0.07396200
Cu       5.00606000       0.00000000      11.76991000  F      -0.00232400       0.08153500       0.05045400
Cu       7.50909000       0.00000000      11.76991000  F      -0.02467500       0.05249300       0.02749300
Cu      10.01212000       0.00000000      11.76991000  F      -0.03881900       0.08367000       0.04852500
Cu       0.00000000       2.50303000      11.76991000  F      -0.05708200       0.03883100       0.05378400
Cu       2.50303000       2.50303000      11.76991000  F       0.06346200       0.03793400       0.06248100
Cu       5.00606000       2.50303000      11.76991000  F      -0.04298400      -0.06350400       0.01273600
Cu       7.50909000       2.50303000      11.76991000  F       0.01144800       0.03373500       0.12461600
Cu      10.01212000       2.50303000      11.76991000  F       0.00786700       0.00058700       0.09200200
Cu       0.00000000       5.00606000      11.76991000  F      -0.06301500       0.00140700       0.02968900
Cu       2.50303000       5.00606000      11.76991000  F       0.09955300       0.00134700       0.07935100
Cu       5.00606000       5.00606000      11.76991000  F      -0.06905900       0.00161600       0.06654200
Cu       7.50909000       5.00606000      11.76991000  F       0.05860700       0.00176800       0.18189700
Cu      10.01212000       5.00606000      11.76991000  F      -0.01560600       0.00111400       0.18853700
Cu       0.00000000       7.50909000      11.76991000  F      -0.05703400      -0.04278300       0.05466400
Cu       2.50303000       7.50909000      11.76991000  F       0.06327500      -0.04023800       0.06209500
Cu       5.00606000       7.50909000      11.76991000  F      -0.04166400       0.05917900       0.01409100
Cu       7.50909000       7.50909000      11.76991000  F       0.01089600      -0.03823100       0.12601800
Cu      10.01212000       7.50909000      11.76991000  F       0.00805900      -0.00364400       0.09259800
Cu       0.00000000      10.01212000      11.76991000  F      -0.00509600      -0.04479000       0.03698600
Cu       2.50303000      10.01212000      11.76991000  F       0.04715300      -0.01360800       0.07402300
Cu       5.00606000      10.01212000      11.76991000  F      -0.00296800      -0.07951400       0.04944100
Cu       7.50909000      10.01212000      11.76991000  F      -0.02441600      -0.04983400       0.02624200
Cu      10.01212000      10.01212000      11.76991000  F      -0.03991200      -0.08136500       0.04820300
Cu       1.25371000       1.24397000      13.57407000  T       0.00053800       0.00153100      -0.00209500
Cu       3.76318000       1.26120000      13.60584000  T       0.00195800       0.00184600      -0.00159900
Cu       6.24412000       1.26941000      13.60131000  T       0.00070200       0.00229900      -0.00066900
Cu       8.73466000       1.27398000      13.59387000  T      -0.00036500       0.00253300      -0.00197000
Cu      11.25437000       1.25876000      13.58365000  T      -0.00063300       0.00366800      -0.00177300
Cu       1.25063000       3.75454000      13.56737000  T       0.00500200       0.00024200      -0.00207200
Cu       3.77835000       3.74377000      13.60203000  T       0.00555500       0.00074800      -0.00231700
Cu       6.26619000       3.76338000      13.55760000  T       0.00423200       0.00077700      -0.00089800
Cu       8.76263000       3.78148000      13.60091000  T       0.00092000       0.00195400       0.00236000
Cu      11.24593000       3.77487000      13.60674000  T       0.00162100       0.00340300      -0.00020100
Cu       1.25049000       6.25790000      13.56727000  T       0.00505700      -0.00038400      -0.00199700
Cu       3.77850000       6.26819000      13.60187000  T       0.00540000      -0.00140100      -0.00203200
Cu       6.26659000       6.24792000      13.55760000  T       0.00416100      -0.00097200      -0.00101500
Cu       8.76271000       6.23050000      13.60120000  T       0.00083200      -0.00188400       0.00252400
Cu      11.24590000       6.23676000      13.60658000  T       0.00144900      -0.00270200      -0.00003000
Cu       1.25406000       8.76790000      13.57411000  T       0.00039900      -0.00157400      -0.00193900
Cu       3.76310000       8.75065000      13.60593000  T       0.00203800      -0.00221800      -0.00188100
Cu       6.24409000       8.74273000      13.60088000  T       0.00090000      -0.00238400      -0.00087300
Cu       8.73476000       8.73841000      13.59353000  T      -0.00036700      -0.00250700      -0.00194100
Cu      11.25456000       8.75343000      13.58308000  T      -0.00060000      -0.00294700      -0.00174800
Cu       1.25602000      11.26394000      13.59546000  T      -0.00134100      -0.00015800      -0.00356700
Cu       3.74815000      11.26373000      13.57945000  T      -0.00005000      -0.00012200      -0.00320400
Cu       6.25274000      11.26414000      13.56227000  T      -0.00110500       0.00006100      -0.00071500
Cu       8.76241000      11.26400000      13.56028000  T      -0.00285900       0.00001500      -0.00182800
Cu      11.28054000      11.26406000      13.56633000  T      -0.00272600       0.00024000      -0.00396300
Cu      -0.00209000       0.00493000      15.36608000  T      -0.00186900       0.00058100      -0.00774000
Cu       2.51188000       0.00764000      15.37207000  T      -0.00238400      -0.00087500      -0.00586000
Cu       5.01288000      12.48892000      15.36394000  T      -0.00342200       0.00039900      -0.00401100
Cu       7.50916000      12.48976000      15.33635000  T      -0.00215700       0.00203700      -0.00430500
Cu      10.01533000      12.48249000      15.33949000  T      -0.00164000       0.00212400      -0.00736600
Cu       0.01446000       2.49564000      15.34489000  T       0.00050600       0.00302100      -0.00332500
Cu       2.47382000       2.50859000      15.35947000  T       0.00368000       0.00016400      -0.00502700
Cu       4.93766000       2.42594000      15.50372000  T       0.00223400       0.00000800      -0.00173400
Cu       7.41331000       2.47385000      15.42666000  T       0.00602500      -0.00070800      -0.00379100
Cu      10.06805000       2.41617000      15.38580000  T       0.00215900       0.00151200      -0.00359700
Cu       0.09780000       5.00705000      15.37796000  T       0.01897100       0.00013300      -0.00349000
Cu       2.49707000       5.00578000      15.34023000  T       0.01320900      -0.00033000      -0.00191400
Pd       5.01045000       5.00555000      15.51584000  T       0.00810200      -0.00036300      -0.00507700
Y        7.58225000       5.00606000      17.26772000  T       0.00282700       0.00003100      -0.00387600
Cu      10.25681000       5.00583000      15.68450000  T       0.03088900       0.00002700       0.02070500
Cu       0.01464000       7.51807000      15.34412000  T      -0.00001900      -0.00237300      -0.00345900
Cu       2.47411000       7.50227000      15.35947000  T       0.00312400      -0.00012400      -0.00505700
Cu       4.93790000       7.58446000      15.50304000  T       0.00183800      -0.00055800      -0.00206300
Cu       7.41302000       7.53944000      15.42664000  T       0.00597400       0.00131800      -0.00405500
Cu      10.06832000       7.59582000      15.38568000  T       0.00210700      -0.00106600      -0.00305500
Cu      -0.00197000      10.00938000      15.36535000  T      -0.00153900       0.00009900      -0.00660800
Cu       2.51214000      10.00507000      15.37180000  T      -0.00175900       0.00050900      -0.00542100
Cu       5.01333000      10.03635000      15.36353000  T      -0.00302500      -0.00099900      -0.00440400
Cu       7.50930000      10.03754000      15.33575000  T      -0.00201000      -0.00089100      -0.00448900
Cu      10.01554000      10.04428000      15.33884000  T      -0.00152300      -0.00192500      -0.00761300
O        6.07054000       3.45043000      16.70581000  T       0.01179000      -0.00365500      -0.00971900
O        6.07054000       6.56136000      16.70597000  T       0.01159200       0.00373700      -0.01006600
O        8.81020000       6.47066000      16.25614000  T       0.00755600      -0.01005200      -0.01623400
O        8.81099000       3.54091000      16.25813000  T       0.00791000       0.00938200      -0.01468700
C       10.74160000       5.00931000      17.63774000  T      -0.00502000       0.00014000       0.01922900
O       12.00145000       5.01490000      18.13266000  T      -0.01336700       0.00024100       0.04939300
O        9.78845000       5.00829000      18.45335000  T      -0.02104200       0.00011300       0.00732900
H       11.95971000       5.01746000      19.12200000  T      -0.03317200      -0.00026400       0.03738000
108
Lattice="12.515153631 0.0 0.0 0.0 12.515153631 0.0 0.0 0.0 25.30973" Properties=species:S:1:pos:R:3:move_mask:L:1:forces:R:3 stress="0.007403584502485833 3.0084073986757305e-06 -5.124278992350155e-06 3.0084073986757305e-06 0.00762512686890906 6.428754399659756e-07 -5.124278992350155e-06 6.428754399659756e-07 0.001918202999657702" free_energy=-444.89876149 energy=-444.89511804 pbc="T T T"
Cu       1.25152000       1.25152000      10.00000000  F      -0.00589900      -0.01308400      -0.07708800
Cu       3.75455000       1.25152000      10.00000000  F       0.01758600       0.00355000      -0.07653600
Cu       6.25758000       1.25152000      10.00000000  F      -0.01748500       0.01545300      -0.06129900
Cu       8.76061000       1.25152000      10.00000000  F       0.00953000       0.01942800      -0.05172200
Cu      11.26364000       1.25152000      10.00000000  F      -0.00331300       0.01281500      -0.07422200
Cu       1.25152000       3.75455000      10.00000000  F      -0.00995700       0.00925100      -0.07203300
Cu       3.75455000       3.75455000      10.00000000  F       0.01706400      -0.01328200      -0.05920400
Cu       6.25758000       3.75455000      10.00000000  F      -0.01849200      -0.01516200      -0.07603400
Cu       8.76061000       3.75455000      10.00000000  F       0.01956000      -0.02070800      -0.08893100
Cu      11.26364000       3.75455000      10.00000000  F      -0.00902300      -0.00580900      -0.05129900
Cu       1.25152000       6.25758000      10.00000000  F      -0.01028800      -0.00787800      -0.07366400
Cu       3.75455000       6.25758000      10.00000000  F       0.01828900       0.01385800      -0.05964300
Cu       6.25758000       6.25758000      10.00000000  F      -0.01845900       0.01705400      -0.07906700
Cu       8.76061000       6.25758000      10.00000000  F       0.01829100       0.02134800      -0.08961100
Cu      11.26364000       6.25758000      10.00000000  F      -0.00866500       0.00717700      -0.05298400
Cu       1.25152000       8.76061000      10.00000000  F      -0.00563300       0.00973200      -0.07593000
Cu       3.75455000       8.76061000      10.00000000  F       0.01682300      -0.00591200      -0.07557900
Cu       6.25758000       8.76061000      10.00000000  F      -0.01747300      -0.01952600      -0.05915700
Cu       8.76061000       8.76061000      10.00000000  F       0.01026600      -0.02190000      -0.05082400
Cu      11.26364000       8.76061000      10.00000000  F      -0.00357300      -0.01620500      -0.07290300
Cu       1.25152000      11.26364000      10.00000000  F      -0.01002300       0.00174000      -0.01364500
Cu       3.75455000      11.26364000      10.00000000  F      -0.00397500       0.00153700      -0.07058300
Cu       6.25758000      11.26364000      10.00000000  F      -0.00901300       0.00194100      -0.07558100
Cu       8.76061000      11.26364000      10.00000000  F       0.00002700       0.00158900      -0.05993000
Cu      11.26364000      11.26364000      10.00000000  F       0.02214500       0.00182200      -0.07308200
Cu       0.00000000       0.00000000      11.76991000  F      -0.00561400       0.04744600       0.03871100
Cu       2.50303000       0.00000000      11.76991000  F       0.04619100       0.01447600       0.07363900
Cu       5.00606000       0.00000000      11.76991000  F      -0.00233100       0.08137400       0.05014500
Cu       7.50909000       0.00000000      11.76991000  F      -0.02482800       0.05233200       0.02715900
Cu      10.01212000       0.00000000      11.76991000  F      -0.03880500       0.08350800       0.04807300
Cu       0.00000000       2.50303000      11.76991000  F      -0.05666400       0.03868900       0.05335400
Cu       2.50303000       2.50303000      11.76991000  F       0.06374300       0.03771400       0.06206600
Cu       5.00606000       2.50303000      11.76991000  F      -0.04297900      -0.06364800       0.01237500
Cu       7.50909000       2.50303000      11.76991000  F       0.01134100       0.03349600       0.12398900
Cu      10.01212000       2.50303000      11.76991000  F       0.00802000       0.00046300       0.09142800
Cu       0.00000000       5.00606000      11.76991000  F      -0.06239200       0.00142800       0.02922400
Cu       2.50303000       5.00606000      11.76991000  F       0.09995200       0.00135300       0.07897500
Cu       5.00606000       5.00606000      11.76991000  F      -0.06905700       0.00161700       0.06607400
Cu       7.50909000       5.00606000      11.76991000  F       0.05866500       0.00177700       0.18115100
Cu      10.01212000       5.00606000      11.76991000  F      -0.01550700       0.00113500       0.18794300
Cu       0.00000000       7.50909000      11.76991000  F      -0.05662400      -0.04261600       0.05427700
Cu       2.50303000       7.50909000      11.76991000  F       0.06354300      -0.04003300       0.06170100
Cu       5.00606000       7.50909000      11.76991000  F      -0.04165600       0.05930400       0.01374600
Cu       7.50909000       7.50909000      11.76991000  F       0.01079300      -0.03799600       0.12542300
Cu      10.01212000       7.50909000      11.76991000  F       0.00821800      -0.00349400       0.09205900
Cu       0.00000000      10.01212000      11.76991000  F      -0.00490400      -0.04469700       0.03657700
Cu       2.50303000      10.01212000      11.76991000  F       0.04725300      -0.01358600       0.07370600
Cu       5.00606000      10.01212000      11.76991000  F      -0.00296700      -0.07935200       0.04912900
Cu       7.50909000      10.01212000      11.76991000  F      -0.02456200      -0.04966400       0.02591100
Cu      10.01212000      10.01212000      11.76991000  F      -0.03989800      -0.08118800       0.04775900
Cu       1.25371000       1.24397000      13.57408000  T       0.00073100       0.00099900      -0.00191000
Cu       3.76319000       1.26118000      13.60581000  T       0.00145000       0.00125700      -0.00149500
Cu       6.24412000       1.26942000      13.60130000  T       0.00021300       0.00153200      -0.00075600
Cu       8.73468000       1.27402000      13.59385000  T      -0.00028300       0.00152600      -0.00217900
Cu      11.25438000       1.25882000      13.58364000  T       0.00001900       0.00253900      -0.00212900
Cu       1.25075000       3.75451000      13.56737000  T       0.00489500       0.00007100      -0.00210100
Cu       3.77844000       3.74377000      13.60198000  T       0.00468100       0.00030400      -0.00205400
Cu       6.26630000       3.76339000      13.55755000  T       0.00312400       0.00031200      -0.00095800
Cu       8.76267000       3.78151000      13.60094000  T       0.00119900       0.00130800       0.00153800
Cu      11.24601000       3.77494000      13.60677000  T       0.00211100       0.00266000      -0.00044600
Cu       1.25061000       6.25793000      13.56728000  T       0.00490300      -0.00017100      -0.00202000
Cu       3.77858000       6.26818000      13.60182000  T       0.00458200      -0.00083200      -0.00190800
Cu       6.26669000       6.24790000      13.55756000  T       0.00304200      -0.00046400      -0.00101800
Cu       8.76276000       6.23046000      13.60125000  T       0.00112400      -0.00128200       0.00171700
Cu      11.24598000       6.23671000      13.60662000  T       0.00198800      -0.00204500      -0.00029800
Cu       1.25405000       8.76790000      13.57413000  T       0.00059200      -0.00097300      -0.00175800
Cu       3.76311000       8.75066000      13.60590000  T       0.00151400      -0.00158600      -0.00173000
Cu       6.24410000       8.74272000      13.60087000  T       0.00038500      -0.00158000      -0.00094900
Cu       8.73477000       8.73838000      13.59352000  T      -0.00028100      -0.00146400      -0.00215500
Cu      11.25457000       8.75340000      13.58308000  T       0.00005700      -0.00189700      -0.00206100
Cu       1.25599000      11.26394000      13.59543000  T      -0.00090200      -0.00015100      -0.00321700
Cu       3.74811000      11.26373000      13.57942000  T      -0.00027500      -0.00012400      -0.00274100
Cu       6.25269000      11.26414000      13.56231000  T      -0.00124900       0.00007300      -0.00094700
Cu       8.76237000      11.26400000      13.56030000  T      -0.00245300       0.00002900      -0.00193600
Cu      11.28051000      11.26407000      13.56630000  T      -0.00197200       0.00020000      -0.00357200
Cu      -0.00212000       0.00493000      15.36593000  T      -0.00127000       0.00032500      -0.00535000
Cu       2.51182000       0.00762000      15.37197000  T      -0.00183900      -0.00063700      -0.00398000
Cu       5.01281000      12.48889000      15.36389000  T      -0.00297400      -0.00007000      -0.00263400
Cu       7.50911000      12.48976000      15.33630000  T      -0.00209100       0.00102700      -0.00270100
Cu      10.01529000      12.48253000      15.33937000  T      -0.00136000       0.00117400      -0.00514900
Cu       0.01447000       2.49571000      15.34487000  T       0.00111700       0.00222200      -0.00179000
Cu       2.47387000       2.50860000      15.35939000  T       0.00299000       0.00016800      -0.00357100
Cu       4.93770000       2.42591000      15.50368000  T       0.00241000      -0.00007600      -0.00165000
Cu       7.41353000       2.47379000      15.42659000  T       0.00503600      -0.00117700      -0.00320800
Cu      10.06816000       2.41615000      15.38574000  T       0.00299400       0.00025300      -0.00286200
Cu       0.09828000       5.00705000      15.37793000  T       0.01767700       0.00006500      -0.00215300
Cu       2.49736000       5.00577000      15.34022000  T       0.01186700      -0.00017700      -0.00133000
Pd       5.01062000       5.00554000      15.51572000  T       0.00582800      -0.00042600      -0.00210400
Y        7.58240000       5.00606000      17.26762000  T       0.00240500      -0.00005900      -0.00429800
Cu      10.25756000       5.00584000      15.68494000  T       0.02710000       0.00007000       0.01696300
Cu       0.01464000       7.51802000      15.34409000  T       0.00073100      -0.00166600      -0.00180300
Cu       2.47413000       7.50226000      15.35939000  T       0.00248700      -0.00015800      -0.00363900
Cu       4.93794000       7.58448000      15.50299000  T       0.00199600      -0.00032300      -0.00200400
Cu       7.41324000       7.53952000      15.42656000  T       0.00493000       0.00177100      -0.00344500
Cu      10.06842000       7.59585000      15.38564000  T       0.00291700       0.00021900      -0.00243200
Cu      -0.00199000      10.00939000      15.36525000  T      -0.00093400       0.00011900      -0.00428700
Cu       2.51210000      10.00507000      15.37171000  T      -0.00127700       0.00023300      -0.00368300
Cu       5.01326000      10.03636000      15.36348000  T      -0.00263000      -0.00047600      -0.00294800
Cu       7.50925000      10.03756000      15.33570000  T      -0.00198300      -0.00009500      -0.00280100
Cu      10.01551000      10.04425000      15.33871000  T      -0.00125100      -0.00096200      -0.00524700
O        6.07079000       3.45030000      16.70561000  T       0.01097200      -0.00318900      -0.01082200
O        6.07080000       6.56150000      16.70576000  T       0.01079000       0.00324700      -0.01116500
O        8.81039000       6.47046000      16.25575000  T       0.00670300      -0.01121600      -0.01656200
O        8.81120000       3.54109000      16.25777000  T       0.00695300       0.01055900      -0.01513600
C       10.74152000       5.00931000      17.63829000  T      -0.00993800       0.00017400       0.01853700
O       12.00101000       5.01491000      18.13372000  T      -0.00564400       0.00022400       0.05375300
O        9.78797000       5.00830000      18.45358000  T      -0.01796800       0.00018500       0.00590300
H       11.95877000       5.01745000      19.12306000  T      -0.03318300      -0.00023400       0.03663400
108
Lattice="12.515153631 0.0 0.0 0.0 12.515153631 0.0 0.0 0.0 25.30973" Properties=species:S:1:pos:R:3:move_mask:L:1:forces:R:3 stress="0.007334447305898424 3.02713192605338e-06 -1.8724527377649775e-06 3.02713192605338e-06 0.007553567966780807 6.303924217142091e-07 -1.8724527377649775e-06 6.303924217142091e-07 0.0018405835921682175" free_energy=-444.89797258 energy=-444.89432607 pbc="T T T"
Cu       1.25152000       1.25152000      10.00000000  F      -0.00560000      -0.01313000      -0.07736600
Cu       3.75455000       1.25152000      10.00000000  F       0.01750700       0.00347100      -0.07701600
Cu       6.25758000       1.25152000      10.00000000  F      -0.01756800       0.01540700      -0.06195000
Cu       8.76061000       1.25152000      10.00000000  F       0.00984800       0.01942400      -0.05234400
Cu      11.26364000       1.25152000      10.00000000  F      -0.00274000       0.01281400      -0.07462700
Cu       1.25152000       3.75455000      10.00000000  F      -0.00970800       0.00920900      -0.07239200
Cu       3.75455000       3.75455000      10.00000000  F       0.01699800      -0.01333000      -0.05975300
Cu       6.25758000       3.75455000      10.00000000  F      -0.01851600      -0.01516100      -0.07676300
Cu       8.76061000       3.75455000      10.00000000  F       0.01990500      -0.02068500      -0.08960100
Cu      11.26364000       3.75455000      10.00000000  F      -0.00849100      -0.00581600      -0.05172500
Cu       1.25152000       6.25758000      10.00000000  F      -0.01004000      -0.00783500      -0.07401800
Cu       3.75455000       6.25758000      10.00000000  F       0.01822400       0.01391000      -0.06020600
Cu       6.25758000       6.25758000      10.00000000  F      -0.01848500       0.01705200      -0.07980200
Cu       8.76061000       6.25758000      10.00000000  F       0.01863600       0.02132800      -0.09028600
Cu      11.26364000       6.25758000      10.00000000  F      -0.00813300       0.00718900      -0.05341000
Cu       1.25152000       8.76061000      10.00000000  F      -0.00534000       0.00977700      -0.07620100
Cu       3.75455000       8.76061000      10.00000000  F       0.01674200      -0.00583600      -0.07606200
Cu       6.25758000       8.76061000      10.00000000  F      -0.01755300      -0.01947900      -0.05980700
Cu       8.76061000       8.76061000      10.00000000  F       0.01058500      -0.02189800      -0.05144700
Cu      11.26364000       8.76061000      10.00000000  F      -0.00300000      -0.01620400      -0.07330500
Cu       1.25152000      11.26364000      10.00000000  F      -0.00970100       0.00173700      -0.01387700
Cu       3.75455000      11.26364000      10.00000000  F      -0.00406700       0.00153500      -0.07090600
Cu       6.25758000      11.26364000      10.00000000  F      -0.00911000       0.00193900      -0.07621900
Cu       8.76061000      11.26364000      10.00000000  F       0.00031600       0.00158600      -0.06058400
Cu      11.26364000      11.26364000      10.00000000  F       0.02275000       0.00181500      -0.07347200
Cu       0.00000000       0.00000000      11.76991000  F      -0.00519200       0.04769400       0.03723500
Cu       2.50303000       0.00000000      11.76991000  F       0.04648900       0.01458800       0.07219300
Cu       5.00606000       0.00000000      11.76991000  F      -0.00244300       0.08168700       0.04862500
Cu       7.50909000       0.00000000      11.76991000  F      -0.02480200       0.05269400       0.02544400
Cu      10.01212000       0.00000000      11.76991000  F      -0.03842000       0.08388900       0.04647800
Cu       0.00000000       2.50303000      11.76991000  F      -0.05638500       0.03887100       0.05191800
Cu       2.50303000       2.50303000      11.76991000  F       0.06421000       0.03783600       0.06044700
Cu       5.00606000       2.50303000      11.76991000  F      -0.04280900      -0.06346700       0.01070000
Cu       7.50909000       2.50303000      11.76991000  F       0.01150000       0.03393100       0.12270100
Cu      10.01212000       2.50303000      11.76991000  F       0.00827700       0.00089500       0.09018800
Cu       0.00000000       5.00606000      11.76991000  F      -0.06218600       0.00142200       0.02781000
Cu       2.50303000       5.00606000      11.76991000  F       0.10044600       0.00133500       0.07722800
Cu       5.00606000       5.00606000      11.76991000  F      -0.06878200       0.00158900       0.06449100
Cu       7.50909000       5.00606000      11.76991000  F       0.05911800       0.00174600       0.18025300
Cu      10.01212000       5.00606000      11.76991000  F      -0.01544000       0.00113500       0.18697300
Cu       0.00000000       7.50909000      11.76991000  F      -0.05632300      -0.04283000       0.05279100
Cu       2.50303000       7.50909000      11.76991000  F       0.06403200      -0.04017600       0.06007200
Cu       5.00606000       7.50909000      11.76991000  F      -0.04153700       0.05910100       0.01202300
Cu       7.50909000       7.50909000      11.76991000  F       0.01097400      -0.03843500       0.12401500
Cu      10.01212000       7.50909000      11.76991000  F       0.00846300      -0.00395700       0.09073200
Cu       0.00000000      10.01212000      11.76991000  F      -0.00445500      -0.04492700       0.03510100
Cu       2.50303000      10.01212000      11.76991000  F       0.04755100      -0.01370200       0.07226800
Cu       5.00606000      10.01212000      11.76991000  F      -0.00309400      -0.07966000       0.04761300
Cu       7.50909000      10.01212000      11.76991000  F      -0.02454100      -0.05002300       0.02417700
Cu      10.01212000      10.01212000      11.76991000  F      -0.03951700      -0.08154300       0.04614000
Cu       1.25379000       1.24409000      13.57371000  T       0.00022700      -0.00011800       0.00020900
Cu       3.76335000       1.26137000      13.60559000  T      -0.00004500      -0.00055700      -0.00087100
Cu       6.24416000       1.26956000      13.60110000  T      -0.00013600       0.00037700      -0.00025300
Cu       8.73460000       1.27412000      13.59360000  T       0.00081500       0.00078400      -0.00077500
Cu      11.25430000       1.25897000      13.58337000  T       0.00128300       0.00126300      -0.00052700
Cu       1.25088000       3.75459000      13.56705000  T       0.00373000      -0.00068700      -0.00014100
Cu       3.77867000       3.74384000      13.60180000  T       0.00240000      -0.00011200      -0.00126700
Cu       6.26633000       3.76344000      13.55750000  T       0.00264900       0.00014800      -0.00150000
Cu       8.76260000       3.78157000      13.60093000  T       0.00194300       0.00092200       0.00094000
Cu      11.24593000       3.77502000      13.60654000  T       0.00312200       0.00194600       0.00076200
Cu       1.25074000       6.25784000      13.56694000  T       0.00367800       0.00068100       0.00003200
Cu       3.77882000       6.26809000      13.60164000  T       0.00233800      -0.00024200      -0.00118300
Cu       6.26674000       6.24785000      13.55748000  T       0.00251300      -0.00034200      -0.00130500
Cu       8.76268000       6.23041000      13.60123000  T       0.00187200      -0.00097600       0.00112000
Cu      11.24589000       6.23664000      13.60639000  T       0.00308500      -0.00150200       0.00088900
Cu       1.25414000       8.76777000      13.57377000  T       0.00018900       0.00015500       0.00032100
Cu       3.76327000       8.75046000      13.60568000  T      -0.00003500       0.00026000      -0.00104900
Cu       6.24414000       8.74256000      13.60066000  T       0.00000100      -0.00020200      -0.00023800
Cu       8.73469000       8.73826000      13.59326000  T       0.00088700      -0.00060400      -0.00062400
Cu      11.25449000       8.75324000      13.58278000  T       0.00130800      -0.00057800      -0.00031500
Cu       1.25598000      11.26394000      13.59504000  T      -0.00050400      -0.00013100      -0.00095400
Cu       3.74823000      11.26373000      13.57907000  T      -0.00146000      -0.00012500      -0.00083100
Cu       6.25274000      11.26414000      13.56198000  T      -0.00171400       0.00007500       0.00103200
Cu       8.76225000      11.26400000      13.55994000  T      -0.00078500       0.00012300       0.00035800
Cu      11.28037000      11.26407000      13.56588000  T       0.00000300       0.00018400      -0.00089700
Cu      -0.00217000       0.00498000      15.36543000  T      -0.00043500       0.00003600      -0.00433800
Cu       2.51179000       0.00759000      15.37150000  T      -0.00161400      -0.00048700      -0.00310600
Cu       5.01274000      12.48898000      15.36348000  T      -0.00221700      -0.00101800      -0.00166800
Cu       7.50906000      12.48991000      15.33587000  T      -0.00130500      -0.00024200      -0.00132200
Cu      10.01526000      12.48259000      15.33889000  T      -0.00062900       0.00073000      -0.00362000
Cu       0.01452000       2.49577000      15.34445000  T       0.00108900       0.00186000      -0.00107500
Cu       2.47406000       2.50857000      15.35901000  T       0.00118900       0.00024300      -0.00258700
Cu       4.93773000       2.42599000      15.50349000  T       0.00157700      -0.00102600      -0.00161800
Cu       7.41340000       2.47393000      15.42634000  T       0.00654700      -0.00203400      -0.00271700
Cu      10.06803000       2.41632000      15.38541000  T       0.00433600      -0.00121900      -0.00225500
Cu       0.09855000       5.00707000      15.37751000  T       0.01475900      -0.00004300      -0.00132600
Cu       2.49762000       5.00575000      15.33989000  T       0.00881100       0.00002200      -0.00075000
Pd       5.01068000       5.00554000      15.51567000  T       0.00153200      -0.00009800      -0.00091200
Y        7.58232000       5.00606000      17.26748000  T       0.00552000       0.00008700      -0.00399000
Cu      10.25812000       5.00583000      15.68536000  T       0.02297900       0.00015300       0.01188500
Cu       0.01468000       7.51797000      15.34365000  T       0.00079400      -0.00136100      -0.00100200
Cu       2.47433000       7.50228000      15.35901000  T       0.00077300      -0.00027600      -0.00263900
Cu       4.93797000       7.58439000      15.50281000  T       0.00128400       0.00057400      -0.00188300
Cu       7.41311000       7.53937000      15.42632000  T       0.00643600       0.00251500      -0.00297400
Cu      10.06830000       7.59569000      15.38532000  T       0.00424900       0.00151400      -0.00193800
Cu      -0.00205000      10.00939000      15.36472000  T      -0.00009700       0.00015500      -0.00327000
Cu       2.51207000      10.00511000      15.37125000  T      -0.00111900       0.00005900      -0.00286300
Cu       5.01320000      10.03626000      15.36305000  T      -0.00198200       0.00054500      -0.00176700
Cu       7.50921000      10.03744000      15.33526000  T      -0.00128200       0.00087800      -0.00132000
Cu      10.01548000      10.04419000      15.33820000  T      -0.00058400      -0.00061000      -0.00351400
O        6.07111000       3.45039000      16.70515000  T       0.00859600      -0.00370300      -0.00675000
O        6.07110000       6.56140000      16.70532000  T       0.00853800       0.00378500      -0.00709200
O        8.81042000       6.46998000      16.25511000  T       0.00597200      -0.00797000      -0.01351000
O        8.81121000       3.54158000      16.25712000  T       0.00641000       0.00711300      -0.01211500
C       10.74161000       5.00931000      17.63868000  T      -0.00320300       0.00013000       0.01915600
O       12.00107000       5.01490000      18.13475000  T      -0.01252400       0.00029500       0.03773500
O        9.78763000       5.00828000      18.45342000  T      -0.01477700       0.00036100       0.00819000
H       11.95883000       5.01745000      19.12396000  T      -0.03558000      -0.00022100       0.03954100
108
Lattice="12.515153631 0.0 0.0 0.0 12.515153631 0.0 0.0 0.0 25.30973" Properties=species:S:1:pos:R:3:move_mask:L:1:forces:R:3 stress="0.007348459493886031 3.0333734351792634e-06 5.679773304553765e-07 3.0333734351792634e-06 0.0075683478603909 6.303924217142091e-07 5.679773304553765e-07 6.303924217142091e-07 0.0018498397502019024" free_energy=-444.89897233 energy=-444.89532101 pbc="T T T"
Cu       1.25152000       1.25152000      10.00000000  F      -0.00581100      -0.01290100      -0.07763600
Cu       3.75455000       1.25152000      10.00000000  F       0.01769400       0.00377000      -0.07712700
Cu       6.25758000       1.25152000      10.00000000  F      -0.01745600       0.01569200      -0.06177500
Cu       8.76061000       1.25152000      10.00000000  F       0.00956600       0.01965000      -0.05214800
Cu      11.26364000       1.25152000      10.00000000  F      -0.00321900       0.01302900      -0.07471800
Cu       1.25152000       3.75455000      10.00000000  F      -0.00986900       0.00934600      -0.07256600
Cu       3.75455000       3.75455000      10.00000000  F       0.01722400      -0.01318100      -0.05976600
Cu       6.25758000       3.75455000      10.00000000  F      -0.01843400      -0.01499500      -0.07646800
Cu       8.76061000       3.75455000      10.00000000  F       0.01958400      -0.02054000      -0.08939200
Cu      11.26364000       3.75455000      10.00000000  F      -0.00897700      -0.00569700      -0.05174200
Cu       1.25152000       6.25758000      10.00000000  F      -0.01020000      -0.00797000      -0.07418500
Cu       3.75455000       6.25758000      10.00000000  F       0.01844800       0.01376000      -0.06021100
Cu       6.25758000       6.25758000      10.00000000  F      -0.01840300       0.01688700      -0.07951500
Cu       8.76061000       6.25758000      10.00000000  F       0.01831400       0.02118000      -0.09007800
Cu      11.26364000       6.25758000      10.00000000  F      -0.00861800       0.00707000      -0.05342400
Cu       1.25152000       8.76061000      10.00000000  F      -0.00554700       0.00954700      -0.07646500
Cu       3.75455000       8.76061000      10.00000000  F       0.01692900      -0.00613200      -0.07616800
Cu       6.25758000       8.76061000      10.00000000  F      -0.01744400      -0.01976500      -0.05963600
Cu       8.76061000       8.76061000      10.00000000  F       0.01030400      -0.02212300      -0.05124900
Cu      11.26364000       8.76061000      10.00000000  F      -0.00347900      -0.01642000      -0.07339600
Cu       1.25152000      11.26364000      10.00000000  F      -0.00992700       0.00173800      -0.01415500
Cu       3.75455000      11.26364000      10.00000000  F      -0.00391500       0.00153400      -0.07107100
Cu       6.25758000      11.26364000      10.00000000  F      -0.00896800       0.00193900      -0.07609700
Cu       8.76061000      11.26364000      10.00000000  F       0.00004500       0.00158900      -0.06044000
Cu      11.26364000      11.26364000      10.00000000  F       0.02226600       0.00181800      -0.07364400
Cu       0.00000000       0.00000000      11.76991000  F      -0.00558300       0.04786200       0.03698300
Cu       2.50303000       0.00000000      11.76991000  F       0.04649400       0.01476500       0.07193500
Cu       5.00606000       0.00000000      11.76991000  F      -0.00208700       0.08171500       0.04867400
Cu       7.50909000       0.00000000      11.76991000  F      -0.02497300       0.05275700       0.02578300
Cu      10.01212000       0.00000000      11.76991000  F      -0.03902900       0.08401800       0.04653100
Cu       0.00000000       2.50303000      11.76991000  F      -0.05664900       0.03915300       0.05168200
Cu       2.50303000       2.50303000      11.76991000  F       0.06442800       0.03791800       0.06008700
Cu       5.00606000       2.50303000      11.76991000  F      -0.04233300      -0.06330300       0.01054300
Cu       7.50909000       2.50303000      11.76991000  F       0.01155500       0.03416500       0.12270300
Cu      10.01212000       2.50303000      11.76991000  F       0.00785500       0.00134100       0.09026400
Cu       0.00000000       5.00606000      11.76991000  F      -0.06219900       0.00143600       0.02761400
Cu       2.50303000       5.00606000      11.76991000  F       0.10069400       0.00133600       0.07678800
Cu       5.00606000       5.00606000      11.76991000  F      -0.06823800       0.00158900       0.06416100
Cu       7.50909000       5.00606000      11.76991000  F       0.05952300       0.00176300       0.18011400
Cu      10.01212000       5.00606000      11.76991000  F      -0.01592500       0.00115700       0.18715200
Cu       0.00000000       7.50909000      11.76991000  F      -0.05660400      -0.04307900       0.05260800
Cu       2.50303000       7.50909000      11.76991000  F       0.06423600      -0.04028200       0.05972700
Cu       5.00606000       7.50909000      11.76991000  F      -0.04103100       0.05891500       0.01190300
Cu       7.50909000       7.50909000      11.76991000  F       0.01103000      -0.03867700       0.12409200
Cu      10.01212000       7.50909000      11.76991000  F       0.00803200      -0.00437000       0.09087700
Cu       0.00000000      10.01212000      11.76991000  F      -0.00485500      -0.04507400       0.03484800
Cu       2.50303000      10.01212000      11.76991000  F       0.04755000      -0.01388800       0.07199800
Cu       5.00606000      10.01212000      11.76991000  F      -0.00272600      -0.07968900       0.04766100
Cu       7.50909000      10.01212000      11.76991000  F      -0.02470200      -0.05007100       0.02452700
Cu      10.01212000      10.01212000      11.76991000  F      -0.04013100      -0.08164100       0.04621300
Cu       1.25378000       1.24407000      13.57378000  T      -0.00002800       0.00006700      -0.00015900
Cu       3.76332000       1.26131000      13.60558000  T       0.00040200      -0.00046900      -0.00098900
Cu       6.24415000       1.26955000      13.60112000  T       0.00018700       0.00025600      -0.00036000
Cu       8.73465000       1.27415000      13.59360000  T       0.00021300       0.00066000      -0.00091000
Cu      11.25437000       1.25901000      13.58339000  T       0.00057300       0.00123300      -0.00103900
Cu       1.25104000       3.75454000      13.56709000  T       0.00360000      -0.00056300      -0.00080000
Cu       3.77876000       3.74382000      13.60175000  T       0.00318500      -0.00030000      -0.00148900
Cu       6.26647000       3.76344000      13.55743000  T       0.00294600      -0.00008000      -0.00164500
Cu       8.76271000       3.78161000      13.60097000  T       0.00172800       0.00065300       0.00085000
Cu      11.24609000       3.77511000      13.60661000  T       0.00263300       0.00201000       0.00051400
Cu       1.25090000       6.25789000      13.56699000  T       0.00355000       0.00060300      -0.00063500
Cu       3.77890000       6.26809000      13.60160000  T       0.00311900      -0.00004200      -0.00144500
Cu       6.26686000       6.24784000      13.55742000  T       0.00282800      -0.00010400      -0.00149400
Cu       8.76279000       6.23037000      13.60128000  T       0.00165700      -0.00073800       0.00107300
Cu      11.24605000       6.23657000      13.60646000  T       0.00258900      -0.00154700       0.00062100
Cu       1.25413000       8.76780000      13.57384000  T      -0.00010800       0.00001400      -0.00002400
Cu       3.76324000       8.75051000      13.60566000  T       0.00040300       0.00017800      -0.00114400
Cu       6.24414000       8.74258000      13.60068000  T       0.00030800      -0.00007800      -0.00037900
Cu       8.73474000       8.73825000      13.59327000  T       0.00029500      -0.00044500      -0.00076800
Cu      11.25456000       8.75324000      13.58281000  T       0.00060500      -0.00054300      -0.00078800
Cu       1.25596000      11.26393000      13.59505000  T      -0.00076300      -0.00014000      -0.00113700
Cu       3.74814000      11.26372000      13.57908000  T      -0.00104200      -0.00014100      -0.00093600
Cu       6.25265000      11.26414000      13.56208000  T      -0.00144300       0.00010300       0.00076000
Cu       8.76222000      11.26400000      13.56001000  T      -0.00152100       0.00011000       0.00011800
Cu      11.28038000      11.26408000      13.56591000  T      -0.00101900       0.00017200      -0.00100800
Cu      -0.00219000       0.00497000      15.36531000  T      -0.00123400       0.00028000      -0.00299900
Cu       2.51172000       0.00757000      15.37145000  T      -0.00136600      -0.00037700      -0.00191000
Cu       5.01265000      12.48891000      15.36348000  T      -0.00175900      -0.00084100      -0.00111800
Cu       7.50901000      12.48987000      15.33589000  T      -0.00144900      -0.00008100      -0.00109000
Cu      10.01522000      12.48261000      15.33880000  T      -0.00150700       0.00054600      -0.00290000
Cu       0.01456000       2.49585000      15.34448000  T       0.00056100       0.00213600       0.00000800
Cu       2.47409000       2.50859000      15.35896000  T       0.00150500       0.00035100      -0.00147500
Cu       4.93782000       2.42592000      15.50345000  T       0.00252200      -0.00087200      -0.00154700
Cu       7.41376000       2.47380000      15.42625000  T       0.00616000      -0.00163900      -0.00242200
Cu      10.06827000       2.41623000      15.38536000  T       0.00369500      -0.00087600      -0.00163500
Cu       0.09925000       5.00706000      15.37753000  T       0.01444200      -0.00007300      -0.00077000
Cu       2.49801000       5.00575000      15.33992000  T       0.00959100       0.00002100       0.00014800
Pd       5.01097000       5.00552000      15.51551000  T       0.00488200      -0.00019900      -0.00223800
Y        7.58265000       5.00606000      17.26728000  T       0.00405300      -0.00004500      -0.00311000
Cu      10.25921000       5.00584000      15.68592000  T       0.02335500       0.00020600       0.01410700
Cu       0.01470000       7.51791000      15.34369000  T       0.00028000      -0.00175800       0.00013500
Cu       2.47433000       7.50227000      15.35896000  T       0.00108700      -0.00036500      -0.00154900
Cu       4.93804000       7.58444000      15.50275000  T       0.00211800       0.00033200      -0.00178000
Cu       7.41347000       7.53952000      15.42621000  T       0.00594400       0.00222300      -0.00265800
Cu      10.06853000       7.59579000      15.38529000  T       0.00366600       0.00128000      -0.00137600
Cu      -0.00205000      10.00940000      15.36467000  T      -0.00091400      -0.00008200      -0.00202900
Cu       2.51202000      10.00511000      15.37120000  T      -0.00091900      -0.00005000      -0.00169700
Cu       5.01312000      10.03631000      15.36305000  T      -0.00150600       0.00033200      -0.00121100
Cu       7.50915000      10.03751000      15.33528000  T      -0.00140400       0.00070400      -0.00106800
Cu      10.01545000      10.04417000      15.33812000  T      -0.00143900      -0.00038600      -0.00272400
O        6.07151000       3.45018000      16.70488000  T       0.01280900      -0.00508300      -0.00915200
O        6.07151000       6.56161000      16.70502000  T       0.01268600       0.00521500      -0.00952900
O        8.81074000       6.46963000      16.25449000  T       0.00846800      -0.01050400      -0.01884100
O        8.81156000       3.54188000      16.25658000  T       0.00905300       0.00925600      -0.01700200
C       10.74140000       5.00932000      17.63961000  T      -0.00324200       0.00027700       0.02083500
O       12.00039000       5.01492000      18.13667000  T      -0.01573200       0.00018000       0.04213900
O        9.78690000       5.00831000      18.45386000  T      -0.01929700       0.00055200       0.00718900
H       11.95696000       5.01744000      19.12582000  T      -0.03444500      -0.00016400       0.04008500
108
Lattice="12.515153631 0.0 0.0 0.0 12.515153631 0.0 0.0 0.0 25.30973" Properties=species:S:1:pos:R:3:move_mask:L:1:forces:R:3 stress="0.007332593577688036 3.0021658895498473e-06 1.2483018251766517e-05 3.0021658895498473e-06 0.007557568774130499 7.177735494765747e-07 1.2483018251766517e-05 7.177735494765747e-07 0.001844621848572664" free_energy=-444.8994866 energy=-444.8958274 pbc="T T T"
Cu       1.25152000       1.25152000      10.00000000  F      -0.00574900      -0.01301600      -0.07763900
Cu       3.75455000       1.25152000      10.00000000  F       0.01760900       0.00366400      -0.07721100
Cu       6.25758000       1.25152000      10.00000000  F      -0.01759600       0.01553700      -0.06190300
Cu       8.76061000       1.25152000      10.00000000  F       0.00956500       0.01950100      -0.05226800
Cu      11.26364000       1.25152000      10.00000000  F      -0.00307700       0.01295000      -0.07475300
Cu       1.25152000       3.75455000      10.00000000  F      -0.00986700       0.00929200      -0.07253800
Cu       3.75455000       3.75455000      10.00000000  F       0.01716100      -0.01330800      -0.05987900
Cu       6.25758000       3.75455000      10.00000000  F      -0.01859200      -0.01508500      -0.07664600
Cu       8.76061000       3.75455000      10.00000000  F       0.01967100      -0.02057000      -0.08977600
Cu      11.26364000       3.75455000      10.00000000  F      -0.00885200      -0.00570700      -0.05174600
Cu       1.25152000       6.25758000      10.00000000  F      -0.01019500      -0.00790800      -0.07415500
Cu       3.75455000       6.25758000      10.00000000  F       0.01837800       0.01388900      -0.06031400
Cu       6.25758000       6.25758000      10.00000000  F      -0.01856200       0.01698000      -0.07968600
Cu       8.76061000       6.25758000      10.00000000  F       0.01840300       0.02121500      -0.09045800
Cu      11.26364000       6.25758000      10.00000000  F      -0.00849100       0.00708100      -0.05342100
Cu       1.25152000       8.76061000      10.00000000  F      -0.00547800       0.00965600      -0.07647600
Cu       3.75455000       8.76061000      10.00000000  F       0.01684300      -0.00602400      -0.07624900
Cu       6.25758000       8.76061000      10.00000000  F      -0.01758700      -0.01961500      -0.05975900
Cu       8.76061000       8.76061000      10.00000000  F       0.01030500      -0.02197900      -0.05136600
Cu      11.26364000       8.76061000      10.00000000  F      -0.00334200      -0.01634700      -0.07342500
Cu       1.25152000      11.26364000      10.00000000  F      -0.00984300       0.00173500      -0.01418600
Cu       3.75455000      11.26364000      10.00000000  F      -0.00402200       0.00152900      -0.07109100
Cu       6.25758000      11.26364000      10.00000000  F      -0.00905300       0.00193900      -0.07627700
Cu       8.76061000      11.26364000      10.00000000  F      -0.00002600       0.00159100      -0.06059900
Cu      11.26364000      11.26364000      10.00000000  F       0.02239700       0.00182000      -0.07375900
Cu       0.00000000       0.00000000      11.76991000  F      -0.00527900       0.04795700       0.03657600
Cu       2.50303000       0.00000000      11.76991000  F       0.04619200       0.01494500       0.07133100
Cu       5.00606000       0.00000000      11.76991000  F      -0.00221400       0.08132800       0.04814900
Cu       7.50909000       0.00000000      11.76991000  F      -0.02529600       0.05248200       0.02569400
Cu      10.01212000       0.00000000      11.76991000  F      -0.03896800       0.08401000       0.04636200
Cu       0.00000000       2.50303000      11.76991000  F      -0.05595600       0.03956200       0.05173900
Cu       2.50303000       2.50303000      11.76991000  F       0.06463900       0.03755200       0.05962500
Cu       5.00606000       2.50303000      11.76991000  F      -0.04223400      -0.06369700       0.00997700
Cu       7.50909000       2.50303000      11.76991000  F       0.01206600       0.03386400       0.12212800
Cu      10.01212000       2.50303000      11.76991000  F       0.00864200       0.00203300       0.09060300
Cu       0.00000000       5.00606000      11.76991000  F      -0.06087000       0.00150500       0.02806500
Cu       2.50303000       5.00606000      11.76991000  F       0.10099400       0.00135600       0.07648700
Cu       5.00606000       5.00606000      11.76991000  F      -0.06805500       0.00157900       0.06354600
Cu       7.50909000       5.00606000      11.76991000  F       0.06119700       0.00181000       0.17968000
Cu      10.01212000       5.00606000      11.76991000  F      -0.01512800       0.00124100       0.18797100
Cu       0.00000000       7.50909000      11.76991000  F      -0.05596500      -0.04338000       0.05280700
Cu       2.50303000       7.50909000      11.76991000  F       0.06437100      -0.03996600       0.05930300
Cu       5.00606000       7.50909000      11.76991000  F      -0.04086300       0.05923800       0.01140800
Cu       7.50909000       7.50909000      11.76991000  F       0.01156800      -0.03840900       0.12369300
Cu      10.01212000       7.50909000      11.76991000  F       0.00882500      -0.00496800       0.09141700
Cu       0.00000000      10.01212000      11.76991000  F      -0.00458000      -0.04515500       0.03442200
Cu       2.50303000      10.01212000      11.76991000  F       0.04722300      -0.01412700       0.07135000
Cu       5.00606000      10.01212000      11.76991000  F      -0.00282800      -0.07929600       0.04712400
Cu       7.50909000      10.01212000      11.76991000  F      -0.02498800      -0.04975000       0.02446500
Cu      10.01212000      10.01212000      11.76991000  F      -0.04006700      -0.08157700       0.04608500
Cu       1.25378000       1.24406000      13.57385000  T       0.00013000       0.00053800      -0.00099900
Cu       3.76331000       1.26119000      13.60546000  T       0.00012500       0.00009000      -0.00065600
Cu       6.24416000       1.26955000      13.60107000  T       0.00015200      -0.00026700      -0.00051200
Cu       8.73479000       1.27421000      13.59347000  T       0.00022000      -0.00030200      -0.00135500
Cu      11.25457000       1.25917000      13.58328000  T       0.00091600       0.00062300      -0.00195800
Cu       1.25158000       3.75445000      13.56707000  T       0.00344100       0.00008600      -0.00186300
Cu       3.77913000       3.74375000      13.60156000  T       0.00331200      -0.00061300      -0.00102600
Cu       6.26693000       3.76340000      13.55715000  T       0.00214400      -0.00056500      -0.00110200
Cu       8.76312000       3.78173000      13.60110000  T       0.00249800      -0.00032400       0.00056700
Cu      11.24661000       3.77542000      13.60677000  T       0.00300100       0.00169300       0.00013600
Cu       1.25143000       6.25799000      13.56701000  T       0.00338400       0.00009500      -0.00183900
Cu       3.77926000       6.26812000      13.60141000  T       0.00324400       0.00023700      -0.00101700
Cu       6.26730000       6.24785000      13.55717000  T       0.00213000       0.00060300      -0.00123200
Cu       8.76319000       6.23024000      13.60144000  T       0.00246200       0.00027700       0.00081200
Cu      11.24657000       6.23634000      13.60664000  T       0.00294600      -0.00126400       0.00019800
Cu       1.25411000       8.76782000      13.57393000  T       0.00000600      -0.00046500      -0.00089900
Cu       3.76323000       8.75059000      13.60551000  T       0.00012800      -0.00033700      -0.00080000
Cu       6.24417000       8.74262000      13.60063000  T       0.00019500       0.00028900      -0.00066100
Cu       8.73489000       8.73822000      13.59316000  T       0.00023800       0.00050800      -0.00133200
Cu      11.25477000       8.75318000      13.58275000  T       0.00096100      -0.00025500      -0.00176000
Cu       1.25587000      11.26391000      13.59496000  T      -0.00080300      -0.00012900      -0.00146500
Cu       3.74792000      11.26370000      13.57899000  T      -0.00078200      -0.00012500      -0.00114700
Cu       6.25240000      11.26416000      13.56221000  T      -0.00122600       0.00007200      -0.00088800
Cu       8.76209000      11.26402000      13.56007000  T      -0.00159800       0.00007000      -0.00121800
Cu      11.28035000      11.26410000      13.56584000  T      -0.00120500       0.00008100      -0.00152300
Cu      -0.00231000       0.00501000      15.36493000  T      -0.00154600       0.00086500      -0.00190800
Cu       2.51149000       0.00753000      15.37123000  T      -0.00137200      -0.00017000      -0.00114600
Cu       5.01234000      12.48874000      15.36341000  T      -0.00198600      -0.00033500      -0.00073300
Cu       7.50882000      12.48980000      15.33585000  T      -0.00153100       0.00030900      -0.00081200
Cu      10.01510000      12.48268000      15.33845000  T      -0.00132100      -0.00008900      -0.00210000
Cu       0.01473000       2.49617000      15.34454000  T       0.00171200       0.00242200       0.00077500
Cu       2.47425000       2.50865000      15.35876000  T       0.00228200       0.00025900      -0.00078400
Cu       4.93817000       2.42574000      15.50322000  T       0.00321900      -0.00008500      -0.00175600
Cu       7.41490000       2.47345000      15.42586000  T       0.00437500      -0.00125500      -0.00297600
Cu      10.06906000       2.41600000      15.38512000  T       0.00417400      -0.00042900      -0.00133600
Cu       0.10161000       5.00705000      15.37752000  T       0.01325000       0.00002500       0.00072200
Cu       2.49945000       5.00576000      15.33994000  T       0.00986200      -0.00008100      -0.00014900
Pd       5.01190000       5.00547000      15.51500000  T       0.00923900      -0.00024400      -0.00299100
Y        7.58343000       5.00606000      17.26663000  T       0.00016900      -0.00008900      -0.00412400
Cu      10.26289000       5.00586000      15.68802000  T       0.02215600       0.00038200       0.01754700
Cu       0.01483000       7.51766000      15.34377000  T       0.00151000      -0.00235300       0.00095600
Cu       2.47443000       7.50221000      15.35875000  T       0.00199300      -0.00031400      -0.00066200
Cu       4.93833000       7.58455000      15.50248000  T       0.00302200      -0.00042700      -0.00191500
Cu       7.41459000       7.53996000      15.42578000  T       0.00446800       0.00149900      -0.00282500
Cu      10.06930000       7.59607000      15.38509000  T       0.00376700       0.00094300      -0.00106200
Cu      -0.00211000      10.00937000      15.36445000  T      -0.00127100      -0.00043700      -0.00116500
Cu       2.51186000      10.00508000      15.37102000  T      -0.00097700      -0.00013400      -0.00096600
Cu       5.01285000      10.03639000      15.36296000  T      -0.00176000      -0.00023000      -0.00088200
Cu       7.50896000      10.03767000      15.33525000  T      -0.00142400       0.00029600      -0.00077300
Cu      10.01533000      10.04414000      15.33781000  T      -0.00119300       0.00038100      -0.00192600
O        6.07309000       3.44955000      16.70385000  T       0.00884300      -0.00143900      -0.00499900
O        6.07308000       6.56226000      16.70395000  T       0.00922500       0.00117100      -0.00507600
O        8.81191000       6.46819000      16.25209000  T       0.00551000      -0.00800400      -0.01430300
O        8.81279000       3.54314000      16.25444000  T       0.00595500       0.00696700      -0.01283000
C       10.74048000       5.00936000      17.64299000  T       0.01490400       0.00066300       0.02093700
O       11.99826000       5.01496000      18.14391000  T      -0.02824800      -0.00051600       0.03791100
O        9.78421000       5.00839000      18.45523000  T      -0.02473700       0.00088200       0.00793400
H       11.95041000       5.01741000      19.13301000  T      -0.03071100      -0.00001000       0.03252400
108
Lattice="12.515153631 0.0 0.0 0.0 12.515153631 0.0 0.0 0.0 25.30973" Properties=species:S:1:pos:R:3:move_mask:L:1:forces:R:3 stress="0.007304332024366038 3.0333734351792634e-06 2.35616969502093e-05 3.0333734351792634e-06 0.007540991325892153 9.799169327636717e-07 2.35616969502093e-05 9.799169327636717e-07 0.0018348414037724049" free_energy=-444.90185281 energy=-444.89817416 pbc="T T T"
Cu       1.25152000       1.25152000      10.00000000  F      -0.00555300      -0.01315600      -0.07757000
Cu       3.75455000       1.25152000      10.00000000  F       0.01754900       0.00363500      -0.07713700
Cu       6.25758000       1.25152000      10.00000000  F      -0.01772500       0.01549300      -0.06184900
Cu       8.76061000       1.25152000      10.00000000  F       0.00970600       0.01940400      -0.05224800
Cu      11.26364000       1.25152000      10.00000000  F      -0.00271500       0.01289800      -0.07473100
Cu       1.25152000       3.75455000      10.00000000  F      -0.00970900       0.00923000      -0.07243500
Cu       3.75455000       3.75455000      10.00000000  F       0.01723100      -0.01340700      -0.05984300
Cu       6.25758000       3.75455000      10.00000000  F      -0.01873700      -0.01507500      -0.07657000
Cu       8.76061000       3.75455000      10.00000000  F       0.01986000      -0.02050500      -0.09014900
Cu      11.26364000       3.75455000      10.00000000  F      -0.00858900      -0.00568700      -0.05168600
Cu       1.25152000       6.25758000      10.00000000  F      -0.01003200      -0.00781800      -0.07402000
Cu       3.75455000       6.25758000      10.00000000  F       0.01843700       0.01401000      -0.06024300
Cu       6.25758000       6.25758000      10.00000000  F      -0.01870700       0.01698700      -0.07960800
Cu       8.76061000       6.25758000      10.00000000  F       0.01859500       0.02116600      -0.09082100
Cu      11.26364000       6.25758000      10.00000000  F      -0.00822100       0.00708100      -0.05334500
Cu       1.25152000       8.76061000      10.00000000  F      -0.00526600       0.00977900      -0.07637300
Cu       3.75455000       8.76061000      10.00000000  F       0.01677900      -0.00599800      -0.07615600
Cu       6.25758000       8.76061000      10.00000000  F      -0.01772600      -0.01958600      -0.05969000
Cu       8.76061000       8.76061000      10.00000000  F       0.01045100      -0.02189700      -0.05133300
Cu      11.26364000       8.76061000      10.00000000  F      -0.00298500      -0.01631400      -0.07338400
Cu       1.25152000      11.26364000      10.00000000  F      -0.00963000       0.00172000      -0.01407800
Cu       3.75455000      11.26364000      10.00000000  F      -0.00420200       0.00150700      -0.07093400
Cu       6.25758000      11.26364000      10.00000000  F      -0.00909200       0.00192900      -0.07633300
Cu       8.76061000      11.26364000      10.00000000  F       0.00003000       0.00158600      -0.06066100
Cu      11.26364000      11.26364000      10.00000000  F       0.02278600       0.00181200      -0.07387300
Cu       0.00000000       0.00000000      11.76991000  F      -0.00458800       0.04797400       0.03597400
Cu       2.50303000       0.00000000      11.76991000  F       0.04584900       0.01508500       0.07056900
Cu       5.00606000       0.00000000      11.76991000  F      -0.00242200       0.08074700       0.04765100
Cu       7.50909000       0.00000000      11.76991000  F      -0.02574200       0.05217400       0.02580900
Cu      10.01212000       0.00000000      11.76991000  F      -0.03876100       0.08400400       0.04620300
Cu       0.00000000       2.50303000      11.76991000  F      -0.05476400       0.04002200       0.05138500
Cu       2.50303000       2.50303000      11.76991000  F       0.06535900       0.03673000       0.05849700
Cu       5.00606000       2.50303000      11.76991000  F      -0.04171200      -0.06442200       0.00894000
Cu       7.50909000       2.50303000      11.76991000  F       0.01304000       0.03349900       0.12135800
Cu      10.01212000       2.50303000      11.76991000  F       0.00988900       0.00319500       0.09111600
Cu       0.00000000       5.00606000      11.76991000  F      -0.05869800       0.00161300       0.02806300
Cu       2.50303000       5.00606000      11.76991000  F       0.10201900       0.00138200       0.07523500
Cu       5.00606000       5.00606000      11.76991000  F      -0.06720500       0.00156000       0.06220100
Cu       7.50909000       5.00606000      11.76991000  F       0.06423300       0.00188900       0.17919400
Cu      10.01212000       5.00606000      11.76991000  F      -0.01403700       0.00138900       0.18926100
Cu       0.00000000       7.50909000      11.76991000  F      -0.05486900      -0.04365400       0.05266900
Cu       2.50303000       7.50909000      11.76991000  F       0.06498300      -0.03922800       0.05823400
Cu       5.00606000       7.50909000      11.76991000  F      -0.04024000       0.05985000       0.01046200
Cu       7.50909000       7.50909000      11.76991000  F       0.01261100      -0.03809000       0.12319200
Cu      10.01212000       7.50909000      11.76991000  F       0.01005500      -0.00597800       0.09226000
Cu       0.00000000      10.01212000      11.76991000  F      -0.00394000      -0.04514600       0.03378600
Cu       2.50303000      10.01212000      11.76991000  F       0.04683900      -0.01436700       0.07051600
Cu       5.00606000      10.01212000      11.76991000  F      -0.00299400      -0.07872000       0.04660900
Cu       7.50909000      10.01212000      11.76991000  F      -0.02537800      -0.04937400       0.02462200
Cu      10.01212000      10.01212000      11.76991000  F      -0.03986000      -0.08148600       0.04599700
Cu       1.25380000       1.24408000      13.57392000  T       0.00062300       0.00078200      -0.00238100
Cu       3.76329000       1.26101000      13.60527000  T       0.00029200       0.00054100      -0.00011800
Cu       6.24419000       1.26951000      13.60099000  T       0.00029700      -0.00126300      -0.00060200
Cu       8.73502000       1.27428000      13.59323000  T       0.00005200      -0.00184900      -0.00146300
Cu      11.25493000       1.25943000      13.58305000  T       0.00101100      -0.00057200      -0.00290000
Cu       1.25253000       3.75432000      13.56697000  T       0.00296500       0.00069000      -0.00364400
Cu       3.77982000       3.74362000      13.60124000  T       0.00373700      -0.00110200      -0.00036400
Cu       6.26770000       3.76332000      13.55670000  T       0.00108100      -0.00112900      -0.00002900
Cu       8.76386000       3.78186000      13.60130000  T       0.00277300      -0.00183500       0.00027200
Cu      11.24752000       3.77593000      13.60701000  T       0.00263300       0.00061200      -0.00079600
Cu       1.25236000       6.25815000      13.56694000  T       0.00289300      -0.00044500      -0.00375500
Cu       3.77993000       6.26817000      13.60110000  T       0.00373700       0.00084200      -0.00050700
Cu       6.26805000       6.24791000      13.55676000  T       0.00109800       0.00155600      -0.00041900
Cu       8.76391000       6.23009000      13.60170000  T       0.00282000       0.00189400       0.00055000
Cu      11.24747000       6.23595000      13.60690000  T       0.00264500      -0.00041400      -0.00077200
Cu       1.25410000       8.76783000      13.57403000  T       0.00046300      -0.00078700      -0.00240000
Cu       3.76321000       8.75070000      13.60528000  T       0.00023500      -0.00077800      -0.00015300
Cu       6.24423000       8.74271000      13.60054000  T       0.00022100       0.00096600      -0.00091500
Cu       8.73514000       8.73821000      13.59295000  T       0.00008800       0.00189800      -0.00168100
Cu      11.25514000       8.75310000      13.58260000  T       0.00103900       0.00033200      -0.00287500
Cu       1.25573000      11.26387000      13.59477000  T      -0.00068600      -0.00010100      -0.00179100
Cu       3.74757000      11.26366000      13.57881000  T       0.00008700      -0.00010300      -0.00125400
Cu       6.25201000      11.26419000      13.56236000  T      -0.00044400       0.00000300      -0.00285600
Cu       8.76184000      11.26405000      13.56009000  T      -0.00167400      -0.00002300      -0.00279600
Cu      11.28027000      11.26414000      13.56568000  T      -0.00142400      -0.00008200      -0.00216600
Cu      -0.00254000       0.00511000      15.36431000  T      -0.00188100       0.00153600       0.00009900
Cu       2.51110000       0.00746000      15.37090000  T      -0.00084500      -0.00019600      -0.00007800
Cu       5.01182000      12.48849000      15.36329000  T      -0.00149800       0.00043400      -0.00043900
Cu       7.50849000      12.48971000      15.33578000  T      -0.00137200       0.00087900      -0.00076300
Cu      10.01487000      12.48276000      15.33789000  T      -0.00115100      -0.00103500      -0.00070500
Cu       0.01507000       2.49672000      15.34467000  T       0.00336100       0.00193200       0.00144400
Cu       2.47460000       2.50874000      15.35846000  T       0.00374600      -0.00040100       0.00074300
Cu       4.93884000       2.42547000      15.50282000  T       0.00470100       0.00097600      -0.00178500
Cu       7.41675000       2.47287000      15.42516000  T       0.00155100       0.00076900      -0.00273200
Cu      10.07042000       2.41563000      15.38472000  T       0.00331100      -0.00004000      -0.00080900
Cu       0.10561000       5.00704000      15.37758000  T       0.00900400       0.00001100       0.00166900
Cu       2.50197000       5.00578000      15.33997000  T       0.00883700      -0.00013200      -0.00078000
Pd       5.01347000       5.00540000      15.51426000  T       0.01090200       0.00005700      -0.00185200
Y        7.58453000       5.00606000      17.26553000  T      -0.00135100      -0.00043300      -0.00443900
Cu      10.26923000       5.00592000      15.69186000  T       0.01733700      -0.00056700       0.02171300
Cu       0.01511000       7.51719000      15.34394000  T       0.00313900      -0.00236000       0.00165500
Cu       2.47466000       7.50212000      15.35844000  T       0.00384300       0.00024700       0.00085500
Cu       4.93890000       7.58469000      15.50201000  T       0.00455400      -0.00111200      -0.00187000
Cu       7.41642000       7.54067000      15.42504000  T       0.00124700      -0.00012300      -0.00252000
Cu      10.07060000       7.59654000      15.38477000  T       0.00330600       0.00087700      -0.00102400
Cu      -0.00225000      10.00932000      15.36409000  T      -0.00170500      -0.00085800       0.00017000
Cu       2.51160000      10.00502000      15.37075000  T      -0.00061500       0.00012700      -0.00003400
Cu       5.01240000      10.03651000      15.36283000  T      -0.00125300      -0.00098300      -0.00057400
Cu       7.50865000      10.03793000      15.33519000  T      -0.00113000      -0.00053100      -0.00073200
Cu      10.01513000      10.04411000      15.33730000  T      -0.00087700       0.00152000      -0.00057400
O        6.07576000       3.44857000      16.70219000  T       0.00454900       0.00113400      -0.00021500
O        6.07576000       6.56324000      16.70222000  T       0.00515200      -0.00158200       0.00012000
O        8.81382000       6.46578000      16.24800000  T       0.00169600      -0.00431200      -0.00989200
O        8.81482000       3.54524000      16.25080000  T       0.00216200       0.00364200      -0.00894000
C       10.73956000       5.00946000      17.64902000  T      -0.00442700       0.00094900       0.01713000
O       11.99397000       5.01499000      18.15621000  T      -0.01796400      -0.00061400       0.04274000
O        9.77937000       5.00857000      18.45742000  T      -0.02021800       0.00105200       0.00062900
H       11.93922000       5.01737000      19.14525000  T      -0.02488000       0.00006300       0.02287200
108
Lattice="12.515153631 0.0 0.0 0.0 12.515153631 0.0 0.0 0.0 25.30973" Properties=species:S:1:pos:R:3:move_mask:L:1:forces:R:3 stress="0.007314824001206647 2.977199853046314e-06 2.5409183651470747e-05 2.977199853046314e-06 0.007553230925288011 9.549508962601386e-07 2.5409183651470747e-05 9.549508962601386e-07 0.0018440226636965793" free_energy=-444.90188099 energy=-444.89819926 pbc="T T T"
Cu       1.25152000       1.25152000      10.00000000  F      -0.00629300      -0.01303700      -0.07753500
Cu       3.75455000       1.25152000      10.00000000  F       0.01700000       0.00375900      -0.07714400
Cu       6.25758000       1.25152000      10.00000000  F      -0.01809900       0.01560000      -0.06172300
Cu       8.76061000       1.25152000      10.00000000  F       0.00928600       0.01950000      -0.05199300
Cu      11.26364000       1.25152000      10.00000000  F      -0.00335500       0.01300400      -0.07452100
Cu       1.25152000       3.75455000      10.00000000  F      -0.01042100       0.00929300      -0.07224600
Cu       3.75455000       3.75455000      10.00000000  F       0.01666600      -0.01333500      -0.05972600
Cu       6.25758000       3.75455000      10.00000000  F      -0.01913000      -0.01501800      -0.07639400
Cu       8.76061000       3.75455000      10.00000000  F       0.01942700      -0.02046400      -0.08983900
Cu      11.26364000       3.75455000      10.00000000  F      -0.00921000      -0.00565000      -0.05137400
Cu       1.25152000       6.25758000      10.00000000  F      -0.01074100      -0.00790000      -0.07383200
Cu       3.75455000       6.25758000      10.00000000  F       0.01787800       0.01392300      -0.06011600
Cu       6.25758000       6.25758000      10.00000000  F      -0.01910200       0.01691300      -0.07943300
Cu       8.76061000       6.25758000      10.00000000  F       0.01815700       0.02110200      -0.09053300
Cu      11.26364000       6.25758000      10.00000000  F      -0.00884400       0.00701400      -0.05305100
Cu       1.25152000       8.76061000      10.00000000  F      -0.00599700       0.00966500      -0.07636900
Cu       3.75455000       8.76061000      10.00000000  F       0.01623100      -0.00612100      -0.07616200
Cu       6.25758000       8.76061000      10.00000000  F      -0.01810800      -0.01969100      -0.05956900
Cu       8.76061000       8.76061000      10.00000000  F       0.01002400      -0.02198700      -0.05110900
Cu      11.26364000       8.76061000      10.00000000  F      -0.00361800      -0.01641200      -0.07320700
Cu       1.25152000      11.26364000      10.00000000  F      -0.01036600       0.00172800      -0.01411700
Cu       3.75455000      11.26364000      10.00000000  F      -0.00474400       0.00151500      -0.07103500
Cu       6.25758000      11.26364000      10.00000000  F      -0.00945800       0.00193700      -0.07624900
Cu       8.76061000      11.26364000      10.00000000  F      -0.00038600       0.00159900      -0.06044800
Cu      11.26364000      11.26364000      10.00000000  F       0.02214200       0.00182800      -0.07376500
Cu       0.00000000       0.00000000      11.76991000  F      -0.00536500       0.04808600       0.03620600
Cu       2.50303000       0.00000000      11.76991000  F       0.04513300       0.01522100       0.07074500
Cu       5.00606000       0.00000000      11.76991000  F      -0.00277300       0.08086100       0.04785500
Cu       7.50909000       0.00000000      11.76991000  F      -0.02603700       0.05226300       0.02611700
Cu      10.01212000       0.00000000      11.76991000  F      -0.03930100       0.08408900       0.04648700
Cu       0.00000000       2.50303000      11.76991000  F      -0.05553600       0.04021200       0.05164300
Cu       2.50303000       2.50303000      11.76991000  F       0.06460900       0.03695100       0.05874300
Cu       5.00606000       2.50303000      11.76991000  F      -0.04216100      -0.06419300       0.00920300
Cu       7.50909000       2.50303000      11.76991000  F       0.01268900       0.03366500       0.12155800
Cu      10.01212000       2.50303000      11.76991000  F       0.00936000       0.00334200       0.09133200
Cu       0.00000000       5.00606000      11.76991000  F      -0.05944600       0.00161000       0.02837500
Cu       2.50303000       5.00606000      11.76991000  F       0.10123000       0.00137900       0.07553000
Cu       5.00606000       5.00606000      11.76991000  F      -0.06769100       0.00155700       0.06250000
Cu       7.50909000       5.00606000      11.76991000  F       0.06380500       0.00188400       0.17933700
Cu      10.01212000       5.00606000      11.76991000  F      -0.01457100       0.00138300       0.18946300
Cu       0.00000000       7.50909000      11.76991000  F      -0.05564700      -0.04385100       0.05293000
Cu       2.50303000       7.50909000      11.76991000  F       0.06423200      -0.03945500       0.05848000
Cu       5.00606000       7.50909000      11.76991000  F      -0.04068100       0.05961600       0.01073100
Cu       7.50909000       7.50909000      11.76991000  F       0.01225700      -0.03825800       0.12340000
Cu      10.01212000       7.50909000      11.76991000  F       0.00952800      -0.00612600       0.09248100
Cu       0.00000000      10.01212000      11.76991000  F      -0.00472000      -0.04525600       0.03401900
Cu       2.50303000      10.01212000      11.76991000  F       0.04612500      -0.01449500       0.07069200
Cu       5.00606000      10.01212000      11.76991000  F      -0.00334300      -0.07882800       0.04681300
Cu       7.50909000      10.01212000      11.76991000  F      -0.02567100      -0.04946500       0.02493200
Cu      10.01212000      10.01212000      11.76991000  F      -0.04040100      -0.08157400       0.04628300
Cu       1.25380000       1.24408000      13.57393000  T      -0.00003000       0.00137900      -0.00299900
Cu       3.76329000       1.26101000      13.60527000  T      -0.00007000       0.00096800      -0.00002900
Cu       6.24419000       1.26952000      13.60100000  T       0.00008600      -0.00163200      -0.00075500
Cu       8.73502000       1.27430000      13.59324000  T      -0.00023300      -0.00257900      -0.00215200
Cu      11.25493000       1.25943000      13.58306000  T       0.00075400      -0.00061700      -0.00399500
Cu       1.25251000       3.75432000      13.56699000  T       0.00356200       0.00115900      -0.00456200
Cu       3.77980000       3.74362000      13.60124000  T       0.00491800      -0.00124800      -0.00010900
Cu       6.26769000       3.76332000      13.55671000  T       0.00128000      -0.00145300       0.00013900
Cu       8.76384000       3.78187000      13.60130000  T       0.00393700      -0.00224800       0.00080000
Cu      11.24750000       3.77592000      13.60701000  T       0.00324200       0.00120500      -0.00072500
Cu       1.25234000       6.25815000      13.56695000  T       0.00344100      -0.00082900      -0.00468100
Cu       3.77991000       6.26817000      13.60110000  T       0.00491700       0.00084800      -0.00030500
Cu       6.26804000       6.24790000      13.55677000  T       0.00128400       0.00200900      -0.00037000
Cu       8.76389000       6.23008000      13.60170000  T       0.00399600       0.00232100       0.00123500
Cu      11.24745000       6.23595000      13.60690000  T       0.00324600      -0.00089900      -0.00067000
Cu       1.25410000       8.76784000      13.57404000  T      -0.00025700      -0.00137800      -0.00298700
Cu       3.76321000       8.75070000      13.60528000  T      -0.00014800      -0.00132700      -0.00009700
Cu       6.24423000       8.74270000      13.60055000  T       0.00001000       0.00124900      -0.00117600
Cu       8.73514000       8.73819000      13.59297000  T      -0.00019100       0.00267700      -0.00244000
Cu      11.25514000       8.75310000      13.58261000  T       0.00081400       0.00032700      -0.00390400
Cu       1.25574000      11.26387000      13.59478000  T      -0.00193500      -0.00015400      -0.00235200
Cu       3.74757000      11.26366000      13.57881000  T      -0.00046400      -0.00015300      -0.00166700
Cu       6.25201000      11.26419000      13.56238000  T      -0.00087200       0.00001200      -0.00376000
Cu       8.76185000      11.26405000      13.56011000  T      -0.00284000      -0.00002200      -0.00373900
Cu      11.28028000      11.26414000      13.56569000  T      -0.00293300      -0.00010100      -0.00289800
Cu      -0.00252000       0.00510000      15.36432000  T      -0.00358500       0.00235100       0.00011800
Cu       2.51111000       0.00746000      15.37090000  T      -0.00215800      -0.00012600       0.00017300
Cu       5.01183000      12.48849000      15.36329000  T      -0.00281800       0.00065200      -0.00029300
Cu       7.50850000      12.48971000      15.33579000  T      -0.00249300       0.00112000      -0.00104200
Cu      10.01488000      12.48277000      15.33790000  T      -0.00222900      -0.00149700      -0.00123900
Cu       0.01505000       2.49671000      15.34467000  T       0.00436800       0.00294200       0.00200200
Cu       2.47458000       2.50874000      15.35846000  T       0.00472600      -0.00024600       0.00122900
Cu       4.93882000       2.42546000      15.50283000  T       0.00610300       0.00149400      -0.00236000
Cu       7.41674000       2.47287000      15.42518000  T       0.00234400       0.00119100      -0.00383400
Cu      10.07039000       2.41565000      15.38474000  T       0.00451200      -0.00005100      -0.00138700
Cu       0.10553000       5.00704000      15.37758000  T       0.01414300       0.00000200       0.00170900
Cu       2.50191000       5.00578000      15.33997000  T       0.01255300      -0.00016200      -0.00101400
Pd       5.01339000       5.00540000      15.51431000  T       0.03037700      -0.00026700      -0.00989300
Y        7.58445000       5.00606000      17.26563000  T       0.00449800      -0.00046300      -0.01059600
Cu      10.26913000       5.00592000      15.69177000  T       0.02357800      -0.00048100       0.02940700
Cu       0.01508000       7.51720000      15.34394000  T       0.00403300      -0.00351100       0.00231000
Cu       2.47464000       7.50212000      15.35843000  T       0.00479600       0.00002900       0.00139600
Cu       4.93888000       7.58469000      15.50202000  T       0.00590000      -0.00176100      -0.00246400
Cu       7.41642000       7.54066000      15.42507000  T       0.00201000      -0.00024200      -0.00358600
Cu      10.07058000       7.59652000      15.38479000  T       0.00442600       0.00113100      -0.00164300
Cu      -0.00224000      10.00933000      15.36410000  T      -0.00328500      -0.00135600       0.00033600
Cu       2.51161000      10.00502000      15.37075000  T      -0.00176500      -0.00002100       0.00033300
Cu       5.01240000      10.03651000      15.36283000  T      -0.00243600      -0.00150900      -0.00049200
Cu       7.50866000      10.03793000      15.33520000  T      -0.00216600      -0.00053600      -0.00098500
Cu      10.01513000      10.04409000      15.33731000  T      -0.00183500       0.00222400      -0.00103300
O        6.07575000       3.44857000      16.70219000  T       0.00567400       0.00099800      -0.00122700
O        6.07576000       6.56324000      16.70222000  T       0.00634700      -0.00148600      -0.00092800
O        8.81381000       6.46579000      16.24806000  T       0.00256600      -0.00615800      -0.01354900
O        8.81481000       3.54522000      16.25084000  T       0.00318200       0.00526700      -0.01227200
C       10.73962000       5.00946000      17.64888000  T      -0.00762700       0.00094100       0.01967200
O       11.99403000       5.01499000      18.15610000  T      -0.01964700      -0.00061800       0.04502800
O        9.77950000       5.00856000      18.45735000  T      -0.02683600       0.00118200       0.00493200
H       11.93939000       5.01737000      19.14491000  T      -0.02732800       0.00007000       0.03102700
108
Lattice="12.515153631 0.0 0.0 0.0 12.515153631 0.0 0.0 0.0 25.30973" Properties=species:S:1:pos:R:3:move_mask:L:1:forces:R:3 stress="0.007303895118727226 3.201894181578111e-06 3.496493412319801e-05 3.201894181578111e-06 0.007544898510604956 9.736754236377883e-07 3.496493412319801e-05 9.736754236377883e-07 0.001837075864039471" free_energy=-444.90193773 energy=-444.89824862 pbc="T T T"
Cu       1.25152000       1.25152000      10.00000000  F      -0.00575400      -0.01298400      -0.07797900
Cu       3.75455000       1.25152000      10.00000000  F       0.01779000       0.00386900      -0.07759000
Cu       6.25758000       1.25152000      10.00000000  F      -0.01742100       0.01566600      -0.06193300
Cu       8.76061000       1.25152000      10.00000000  F       0.00976300       0.01949800      -0.05212200
Cu      11.26364000       1.25152000      10.00000000  F      -0.00293100       0.01304500      -0.07476300
Cu       1.25152000       3.75455000      10.00000000  F      -0.00983800       0.00931200      -0.07263900
Cu       3.75455000       3.75455000      10.00000000  F       0.01747800      -0.01328900      -0.06007400
Cu       6.25758000       3.75455000      10.00000000  F      -0.01849700      -0.01494800      -0.07647200
Cu       8.76061000       3.75455000      10.00000000  F       0.01990000      -0.02040200      -0.09008200
Cu      11.26364000       3.75455000      10.00000000  F      -0.00878200      -0.00561200      -0.05163700
Cu       1.25152000       6.25758000      10.00000000  F      -0.01014900      -0.00791800      -0.07424500
Cu       3.75455000       6.25758000      10.00000000  F       0.01868800       0.01387900      -0.06049700
Cu       6.25758000       6.25758000      10.00000000  F      -0.01846500       0.01684800      -0.07952300
Cu       8.76061000       6.25758000      10.00000000  F       0.01862700       0.02105700      -0.09077000
Cu      11.26364000       6.25758000      10.00000000  F      -0.00842200       0.00698400      -0.05331300
Cu       1.25152000       8.76061000      10.00000000  F      -0.00546600       0.00962300      -0.07682700
Cu       3.75455000       8.76061000      10.00000000  F       0.01702400      -0.00621900      -0.07662200
Cu       6.25758000       8.76061000      10.00000000  F      -0.01741800      -0.01974300      -0.05977600
Cu       8.76061000       8.76061000      10.00000000  F       0.01050400      -0.02198600      -0.05121500
Cu      11.26364000       8.76061000      10.00000000  F      -0.00320500      -0.01643900      -0.07343700
Cu       1.25152000      11.26364000      10.00000000  F      -0.00984900       0.00173500      -0.01459000
Cu       3.75455000      11.26364000      10.00000000  F      -0.00398900       0.00152300      -0.07141200
Cu       6.25758000      11.26364000      10.00000000  F      -0.00871600       0.00194000      -0.07660000
Cu       8.76061000      11.26364000      10.00000000  F       0.00005500       0.00160400      -0.06062300
Cu      11.26364000      11.26364000      10.00000000  F       0.02258300       0.00182800      -0.07411800
Cu       0.00000000       0.00000000      11.76991000  F      -0.00470500       0.04802500       0.03490200
Cu       2.50303000       0.00000000      11.76991000  F       0.04602600       0.01532200       0.06996600
Cu       5.00606000       0.00000000      11.76991000  F      -0.00218400       0.08102500       0.04668000
Cu       7.50909000       0.00000000      11.76991000  F      -0.02554200       0.05262600       0.02434300
Cu      10.01212000       0.00000000      11.76991000  F      -0.03893300       0.08422200       0.04488200
Cu       0.00000000       2.50303000      11.76991000  F      -0.05487000       0.04044800       0.05054200
Cu       2.50303000       2.50303000      11.76991000  F       0.06627300       0.03699000       0.05754100
Cu       5.00606000       2.50303000      11.76991000  F      -0.04092000      -0.06429900       0.00822400
Cu       7.50909000       2.50303000      11.76991000  F       0.01364100       0.03370200       0.12094400
Cu      10.01212000       2.50303000      11.76991000  F       0.01000500       0.00374900       0.09093600
Cu       0.00000000       5.00606000      11.76991000  F      -0.05866500       0.00162400       0.02738600
Cu       2.50303000       5.00606000      11.76991000  F       0.10335300       0.00138500       0.07435200
Cu       5.00606000       5.00606000      11.76991000  F      -0.06620900       0.00152500       0.06182200
Cu       7.50909000       5.00606000      11.76991000  F       0.06562000       0.00191200       0.17980100
Cu      10.01212000       5.00606000      11.76991000  F      -0.01409000       0.00143700       0.19009000
Cu       0.00000000       7.50909000      11.76991000  F      -0.05497800      -0.04405500       0.05178500
Cu       2.50303000       7.50909000      11.76991000  F       0.06587500      -0.03948100       0.05727200
Cu       5.00606000       7.50909000      11.76991000  F      -0.03951600       0.05973100       0.00962300
Cu       7.50909000       7.50909000      11.76991000  F       0.01330900      -0.03831000       0.12267700
Cu      10.01212000       7.50909000      11.76991000  F       0.01013200      -0.00658000       0.09209700
Cu       0.00000000      10.01212000      11.76991000  F      -0.00405400      -0.04521000       0.03270600
Cu       2.50303000      10.01212000      11.76991000  F       0.04700300      -0.01464500       0.06991100
Cu       5.00606000      10.01212000      11.76991000  F      -0.00278700      -0.07899300       0.04562100
Cu       7.50909000      10.01212000      11.76991000  F      -0.02517800      -0.04978300       0.02312100
Cu      10.01212000      10.01212000      11.76991000  F      -0.04001400      -0.08168400       0.04465600
Cu       1.25391000       1.24416000      13.57372000  T       0.00003500       0.00083500      -0.00019400
Cu       3.76337000       1.26105000      13.60524000  T       0.00027800       0.00027200      -0.00027300
Cu       6.24426000       1.26937000      13.60088000  T       0.00032800      -0.00028200      -0.00078800
Cu       8.73510000       1.27408000      13.59305000  T       0.00052400      -0.00039200      -0.00067400
Cu      11.25510000       1.25938000      13.58278000  T       0.00063400       0.00051700      -0.00080900
Cu       1.25296000       3.75438000      13.56665000  T       0.00240500       0.00027100      -0.00071400
Cu       3.78029000       3.74353000      13.60118000  T       0.00244500      -0.00014800      -0.00056100
Cu       6.26792000       3.76321000      13.55661000  T       0.00169100       0.00030200      -0.00057200
Cu       8.76423000       3.78171000      13.60132000  T       0.00214000      -0.00016700       0.00076000
Cu      11.24789000       3.77603000      13.60697000  T       0.00197600       0.00142500       0.00109600
Cu       1.25278000       6.25811000      13.56662000  T       0.00234800      -0.00016900      -0.00064500
Cu       3.78040000       6.26823000      13.60103000  T       0.00242700      -0.00000700      -0.00061700
Cu       6.26827000       6.24806000      13.55664000  T       0.00165200      -0.00008900      -0.00061800
Cu       8.76428000       6.23025000      13.60176000  T       0.00204800       0.00012400       0.00108000
Cu      11.24784000       6.23586000      13.60687000  T       0.00194100      -0.00136000       0.00113000
Cu       1.25420000       8.76775000      13.57384000  T      -0.00002700      -0.00087500      -0.00013700
Cu       3.76328000       8.75063000      13.60524000  T       0.00024800      -0.00046500      -0.00032500
Cu       6.24429000       8.74282000      13.60040000  T       0.00032000       0.00035600      -0.00093700
Cu       8.73522000       8.73842000      13.59275000  T       0.00056300       0.00053600      -0.00074200
Cu      11.25531000       8.75313000      13.58232000  T       0.00070500      -0.00046000      -0.00071600
Cu       1.25567000      11.26386000      13.59461000  T      -0.00106000      -0.00001800      -0.00040600
Cu       3.74759000      11.26365000      13.57868000  T      -0.00047800      -0.00008800      -0.00056500
Cu       6.25198000      11.26418000      13.56209000  T      -0.00042400       0.00000100      -0.00066200
Cu       8.76170000      11.26405000      13.55981000  T      -0.00107500       0.00004500      -0.00074000
Cu      11.28016000      11.26414000      13.56545000  T      -0.00110500       0.00001100      -0.00063800
Cu      -0.00270000       0.00527000      15.36423000  T      -0.00165100       0.00116600      -0.00056400
Cu       2.51100000       0.00743000      15.37081000  T      -0.00136100       0.00002600      -0.00011000
Cu       5.01169000      12.48851000      15.36320000  T      -0.00091900       0.00007300      -0.00009900
Cu       7.50837000      12.48976000      15.33564000  T      -0.00092200       0.00035700      -0.00051300
Cu      10.01478000      12.48267000      15.33773000  T      -0.00119200       0.00015000      -0.00104700
Cu       0.01553000       2.49695000      15.34475000  T       0.00210200       0.00229300       0.00037000
Cu       2.47506000       2.50871000      15.35848000  T       0.00252100       0.00051600       0.00030600
Cu       4.93942000       2.42556000      15.50260000  T       0.00353600       0.00064800      -0.00073900
Cu       7.41704000       2.47292000      15.42479000  T       0.00294800       0.00034200      -0.00227100
Cu      10.07096000       2.41554000      15.38451000  T       0.00347700      -0.00024700      -0.00158100
Cu       0.10695000       5.00703000      15.37764000  T       0.00912800      -0.00005400      -0.00073800
Cu       2.50312000       5.00577000      15.33982000  T       0.00523400      -0.00001200      -0.00075500
Pd       5.01406000       5.00541000      15.51414000  T       0.01340000      -0.00004900      -0.00348300
Y        7.58491000       5.00601000      17.26440000  T      -0.00079500       0.00014900       0.00193200
Cu      10.27164000       5.00586000      15.69440000  T       0.01650800      -0.00043900       0.01622400
Cu       0.01554000       7.51694000      15.34405000  T       0.00203500      -0.00231100       0.00056400
Cu       2.47513000       7.50213000      15.35847000  T       0.00246800      -0.00053500       0.00042000
Cu       4.93947000       7.58456000      15.50178000  T       0.00360800      -0.00094100      -0.00059200
Cu       7.41670000       7.54072000      15.42468000  T       0.00271700       0.00003100      -0.00208100
Cu      10.07112000       7.59671000      15.38455000  T       0.00323500       0.00038300      -0.00145400
Cu      -0.00239000      10.00923000      15.36403000  T      -0.00144600      -0.00084100      -0.00041800
Cu       2.51153000      10.00504000      15.37068000  T      -0.00112700      -0.00014700      -0.00008600
Cu       5.01229000      10.03642000      15.36272000  T      -0.00069500      -0.00051700      -0.00018900
Cu       7.50856000      10.03792000      15.33506000  T      -0.00080600      -0.00002700      -0.00057400
Cu      10.01506000      10.04426000      15.33716000  T      -0.00103500       0.00020000      -0.00099800
O        6.07645000       3.44858000      16.70207000  T       0.00495400      -0.00212900      -0.00336900
O        6.07653000       6.56318000      16.70212000  T       0.00524500       0.00196400      -0.00344900
O        8.81429000       6.46508000      16.24622000  T       0.00641600      -0.00634000      -0.01795900
O        8.81537000       3.54582000      16.24921000  T       0.00702900       0.00524800      -0.01596200
C       10.73844000       5.00958000      17.65217000  T      -0.00015400       0.00028200       0.02062700
O       11.99149000       5.01489000      18.16295000  T      -0.02421400      -0.00017200       0.04212800
O        9.77609000       5.00878000      18.45813000  T      -0.02407000       0.00128600       0.00904600
H       11.93418000       5.01738000      19.15151000  T      -0.02881100      -0.00009000       0.03266000
108
Lattice="12.515153631 0.0 0.0 0.0 12.515153631 0.0 0.0 0.0 25.30973" Properties=species:S:1:pos:R:3:move_mask:L:1:forces:R:3 stress="0.0072425098764741635 3.251826254585178e-06 3.781730379372666e-05 3.251826254585178e-06 0.007490316513299106 1.0985056061554536e-06 3.781730379372666e-05 1.0985056061554536e-06 0.0017820007875126774" free_energy=-444.90255659 energy=-444.89886368 pbc="T T T"
Cu       1.25152000       1.25152000      10.00000000  F      -0.00622400      -0.01323100      -0.07764300
Cu       3.75455000       1.25152000      10.00000000  F       0.01714100       0.00363500      -0.07727400
Cu       6.25758000       1.25152000      10.00000000  F      -0.01800400       0.01541800      -0.06169900
Cu       8.76061000       1.25152000      10.00000000  F       0.00944200       0.01924200      -0.05197900
Cu      11.26364000       1.25152000      10.00000000  F      -0.00318900       0.01281600      -0.07456500
Cu       1.25152000       3.75455000      10.00000000  F      -0.01032400       0.00914000      -0.07252500
Cu       3.75455000       3.75455000      10.00000000  F       0.01686400      -0.01345200      -0.05993700
Cu       6.25758000       3.75455000      10.00000000  F      -0.01909600      -0.01506600      -0.07636000
Cu       8.76061000       3.75455000      10.00000000  F       0.01959000      -0.02051900      -0.09022100
Cu      11.26364000       3.75455000      10.00000000  F      -0.00904600      -0.00575500      -0.05156100
Cu       1.25152000       6.25758000      10.00000000  F      -0.01063300      -0.00776000      -0.07412300
Cu       3.75455000       6.25758000      10.00000000  F       0.01807100       0.01402800      -0.06035300
Cu       6.25758000       6.25758000      10.00000000  F      -0.01906000       0.01695000      -0.07940700
Cu       8.76061000       6.25758000      10.00000000  F       0.01831800       0.02116600      -0.09091600
Cu      11.26364000       6.25758000      10.00000000  F      -0.00868900       0.00711200      -0.05324200
Cu       1.25152000       8.76061000      10.00000000  F      -0.00593400       0.00986300      -0.07649600
Cu       3.75455000       8.76061000      10.00000000  F       0.01637400      -0.00599400      -0.07631500
Cu       6.25758000       8.76061000      10.00000000  F      -0.01800000      -0.01950200      -0.05954500
Cu       8.76061000       8.76061000      10.00000000  F       0.01018100      -0.02174600      -0.05107300
Cu      11.26364000       8.76061000      10.00000000  F      -0.00346500      -0.01621600      -0.07322500
Cu       1.25152000      11.26364000      10.00000000  F      -0.01034500       0.00173000      -0.01417800
Cu       3.75455000      11.26364000      10.00000000  F      -0.00467000       0.00151900      -0.07093900
Cu       6.25758000      11.26364000      10.00000000  F      -0.00925700       0.00193800      -0.07635100
Cu       8.76061000      11.26364000      10.00000000  F      -0.00030500       0.00160400      -0.06041000
Cu      11.26364000      11.26364000      10.00000000  F       0.02233100       0.00182500      -0.07384700
Cu       0.00000000       0.00000000      11.76991000  F      -0.00479200       0.04776100       0.03469000
Cu       2.50303000       0.00000000      11.76991000  F       0.04556800       0.01514500       0.07001800
Cu       5.00606000       0.00000000      11.76991000  F      -0.00305600       0.08078100       0.04650700
Cu       7.50909000       0.00000000      11.76991000  F      -0.02613100       0.05257500       0.02386500
Cu      10.01212000       0.00000000      11.76991000  F      -0.03912100       0.08404300       0.04448700
Cu       0.00000000       2.50303000      11.76991000  F      -0.05492700       0.04023000       0.05027200
Cu       2.50303000       2.50303000      11.76991000  F       0.06635700       0.03651600       0.05717200
Cu       5.00606000       2.50303000      11.76991000  F      -0.04133100      -0.06482000       0.00800700
Cu       7.50909000       2.50303000      11.76991000  F       0.01335800       0.03325000       0.12087600
Cu      10.01212000       2.50303000      11.76991000  F       0.01008100       0.00367900       0.09108600
Cu       0.00000000       5.00606000      11.76991000  F      -0.05855600       0.00163100       0.02701400
Cu       2.50303000       5.00606000      11.76991000  F       0.10369000       0.00138400       0.07388700
Cu       5.00606000       5.00606000      11.76991000  F      -0.06648000       0.00149700       0.06160000
Cu       7.50909000       5.00606000      11.76991000  F       0.06605100       0.00192900       0.18028600
Cu      10.01212000       5.00606000      11.76991000  F      -0.01414300       0.00147200       0.19080400
Cu       0.00000000       7.50909000      11.76991000  F      -0.05504300      -0.04383400       0.05150300
Cu       2.50303000       7.50909000      11.76991000  F       0.06593600      -0.03902700       0.05689600
Cu       5.00606000       7.50909000      11.76991000  F      -0.03997200       0.06023500       0.00932500
Cu       7.50909000       7.50909000      11.76991000  F       0.01310300      -0.03789000       0.12255600
Cu      10.01212000       7.50909000      11.76991000  F       0.01017800      -0.00655900       0.09228700
Cu       0.00000000      10.01212000      11.76991000  F      -0.00413700      -0.04497300       0.03249400
Cu       2.50303000      10.01212000      11.76991000  F       0.04653000      -0.01451200       0.06996800
Cu       5.00606000      10.01212000      11.76991000  F      -0.00368300      -0.07875400       0.04543100
Cu       7.50909000      10.01212000      11.76991000  F      -0.02576000      -0.04971100       0.02261300
Cu      10.01212000      10.01212000      11.76991000  F      -0.04018400      -0.08150700       0.04425300
Cu       1.25399000       1.24423000      13.57360000  T       0.00001500       0.00045600       0.00047000
Cu       3.76344000       1.26106000      13.60521000  T      -0.00014100      -0.00035000      -0.00003800
Cu       6.24432000       1.26927000      13.60078000  T      -0.00031200      -0.00080800      -0.00081000
Cu       8.73518000       1.27393000      13.59291000  T       0.00047100      -0.00096800      -0.00064200
Cu      11.25525000       1.25936000      13.58259000  T       0.00111900       0.00024300      -0.00063300
Cu       1.25334000       3.75441000      13.56644000  T       0.00343900      -0.00021200      -0.00042300
Cu       3.78068000       3.74346000      13.60112000  T       0.00264000      -0.00043600      -0.00065600
Cu       6.26813000       3.76315000      13.55651000  T       0.00197900       0.00009000      -0.00120200
Cu       8.76454000       3.78160000      13.60134000  T       0.00262700      -0.00042400       0.00082000
Cu      11.24822000       3.77615000      13.60700000  T       0.00282400       0.00192800       0.00195200
Cu       1.25315000       6.25810000      13.56641000  T       0.00339300       0.00036800      -0.00028400
Cu       3.78079000       6.26827000      13.60096000  T       0.00257200       0.00022900      -0.00067200
Cu       6.26848000       6.24815000      13.55652000  T       0.00195900       0.00016900      -0.00121400
Cu       8.76459000       6.23035000      13.60182000  T       0.00247200       0.00028900       0.00128000
Cu      11.24817000       6.23576000      13.60691000  T       0.00280200      -0.00192000       0.00208300
Cu       1.25427000       8.76768000      13.57373000  T      -0.00003800      -0.00053800       0.00057200
Cu       3.76335000       8.75059000      13.60521000  T      -0.00018400       0.00006500      -0.00006900
Cu       6.24435000       8.74292000      13.60027000  T      -0.00032900       0.00100400      -0.00104200
Cu       8.73530000       8.73858000      13.59260000  T       0.00055400       0.00117500      -0.00073300
Cu      11.25547000       8.75315000      13.58214000  T       0.00120400      -0.00013200      -0.00040100
Cu       1.25560000      11.26386000      13.59451000  T      -0.00171600      -0.00001400       0.00009200
Cu       3.74759000      11.26364000      13.57858000  T      -0.00141600      -0.00013400      -0.00012900
Cu       6.25195000      11.26418000      13.56190000  T      -0.00145000       0.00000300      -0.00002400
Cu       8.76159000      11.26405000      13.55961000  T      -0.00166000       0.00007800      -0.00033500
Cu      11.28007000      11.26413000      13.56530000  T      -0.00129200       0.00004200      -0.00035600
Cu      -0.00286000       0.00540000      15.36414000  T      -0.00239500       0.00116300      -0.00122900
Cu       2.51090000       0.00741000      15.37073000  T      -0.00240800      -0.00030600      -0.00071400
Cu       5.01158000      12.48851000      15.36313000  T      -0.00190300      -0.00038300      -0.00047900
Cu       7.50827000      12.48979000      15.33553000  T      -0.00182200      -0.00009700      -0.00075900
Cu      10.01468000      12.48261000      15.33758000  T      -0.00187200      -0.00020900      -0.00153500
Cu       0.01591000       2.49717000      15.34480000  T       0.00329500       0.00296900       0.00063700
Cu       2.47546000       2.50871000      15.35848000  T       0.00341200       0.00028200       0.00017800
Cu       4.93991000       2.42563000      15.50242000  T       0.00377400      -0.00009900      -0.00129400
Cu       7.41734000       2.47294000      15.42445000  T       0.00432500      -0.00069300      -0.00351800
Cu      10.07148000       2.41543000      15.38430000  T       0.00570400      -0.00171500      -0.00251900
Cu       0.10817000       5.00703000      15.37766000  T       0.01300900      -0.00013200       0.00012300
Cu       2.50405000       5.00576000      15.33969000  T       0.00692800       0.00000800      -0.00100900
Pd       5.01468000       5.00541000      15.51400000  T       0.02335000      -0.00003700      -0.00618400
Y        7.58514000       5.00599000      17.26376000  T       0.00219700       0.00008300       0.00021000
Cu      10.27386000       5.00580000      15.69661000  T       0.02372600      -0.00025700       0.02299200
Cu       0.01591000       7.51669000      15.34412000  T       0.00325500      -0.00298400       0.00095000
Cu       2.47553000       7.50212000      15.35849000  T       0.00325200      -0.00028700       0.00040000
Cu       4.93997000       7.58446000      15.50161000  T       0.00375200      -0.00029200      -0.00100800
Cu       7.41700000       7.54078000      15.42435000  T       0.00387900       0.00125400      -0.00330400
Cu      10.07162000       7.59687000      15.38434000  T       0.00574200       0.00204400      -0.00261000
Cu      -0.00252000      10.00915000      15.36395000  T      -0.00202300      -0.00078800      -0.00097200
Cu       2.51146000      10.00505000      15.37062000  T      -0.00207200       0.00012900      -0.00066100
Cu       5.01221000      10.03636000      15.36263000  T      -0.00157800      -0.00027500      -0.00060500
Cu       7.50848000      10.03792000      15.33495000  T      -0.00163400       0.00055300      -0.00083700
Cu      10.01499000      10.04437000      15.33702000  T      -0.00166700       0.00062900      -0.00155200
O        6.07706000       3.44847000      16.70188000  T       0.00268000      -0.00353500      -0.00237100
O        6.07718000       6.56325000      16.70193000  T       0.00240500       0.00345600      -0.00263600
O        8.81482000       6.46441000      16.24444000  T       0.00412500      -0.00518800      -0.01254300
O        8.81597000       3.54638000      16.24764000  T       0.00420000       0.00427900      -0.01056900
C       10.73755000       5.00966000      17.65516000  T      -0.00842600      -0.00000000       0.01831900
O       11.98904000       5.01483000      18.16876000  T      -0.02116200       0.00051900       0.03502700
O        9.77312000       5.00897000      18.45890000  T      -0.02128800       0.00066000       0.01186600
H       11.92953000       5.01738000      19.15734000  T      -0.02990100      -0.00024300       0.02688800
108
Lattice="12.515153631 0.0 0.0 0.0 12.515153631 0.0 0.0 0.0 25.30973" Properties=species:S:1:pos:R:3:move_mask:L:1:forces:R:3 stress="0.0073007369151095285 3.1706866359486954e-06 4.644931091482321e-05 3.1706866359486954e-06 0.007548974216064157 1.1609206974142861e-06 4.644931091482321e-05 1.1609206974142861e-06 0.0018445407089540276" free_energy=-444.90572871 energy=-444.90202984 pbc="T T T"
Cu       1.25152000       1.25152000      10.00000000  F      -0.00572800      -0.01339800      -0.07778400
Cu       3.75455000       1.25152000      10.00000000  F       0.01761900       0.00347800      -0.07749200
Cu       6.25758000       1.25152000      10.00000000  F      -0.01741900       0.01522300      -0.06192500
Cu       8.76061000       1.25152000      10.00000000  F       0.01009600       0.01903500      -0.05215900
Cu      11.26364000       1.25152000      10.00000000  F      -0.00258300       0.01266400      -0.07467800
Cu       1.25152000       3.75455000      10.00000000  F      -0.00984200       0.00905200      -0.07273800
Cu       3.75455000       3.75455000      10.00000000  F       0.01736500      -0.01355800      -0.06020600
Cu       6.25758000       3.75455000      10.00000000  F      -0.01854500      -0.01513600      -0.07663700
Cu       8.76061000       3.75455000      10.00000000  F       0.02027700      -0.02058100      -0.09062700
Cu      11.26364000       3.75455000      10.00000000  F      -0.00844400      -0.00583000      -0.05175200
Cu       1.25152000       6.25758000      10.00000000  F      -0.01014800      -0.00764600      -0.07431600
Cu       3.75455000       6.25758000      10.00000000  F       0.01858000       0.01416300      -0.06056200
Cu       6.25758000       6.25758000      10.00000000  F      -0.01849900       0.01705200      -0.07967000
Cu       8.76061000       6.25758000      10.00000000  F       0.01899200       0.02125000      -0.09133100
Cu      11.26364000       6.25758000      10.00000000  F      -0.00809200       0.00719800      -0.05343600
Cu       1.25152000       8.76061000      10.00000000  F      -0.00541800       0.01002300      -0.07664200
Cu       3.75455000       8.76061000      10.00000000  F       0.01685500      -0.00583700      -0.07651600
Cu       6.25758000       8.76061000      10.00000000  F      -0.01743100      -0.01932000      -0.05972200
Cu       8.76061000       8.76061000      10.00000000  F       0.01082900      -0.02154800      -0.05124000
Cu      11.26364000       8.76061000      10.00000000  F      -0.00285900      -0.01606400      -0.07334200
Cu       1.25152000      11.26364000      10.00000000  F      -0.00984500       0.00172000      -0.01429900
Cu       3.75455000      11.26364000      10.00000000  F      -0.00421800       0.00150000      -0.07106400
Cu       6.25758000      11.26364000      10.00000000  F      -0.00862600       0.00192600      -0.07656100
Cu       8.76061000      11.26364000      10.00000000  F       0.00029100       0.00159700      -0.06052200
Cu      11.26364000      11.26364000      10.00000000  F       0.02294800       0.00182400      -0.07399500
Cu       0.00000000       0.00000000      11.76991000  F      -0.00403200       0.04765400       0.03434000
Cu       2.50303000       0.00000000      11.76991000  F       0.04602100       0.01503800       0.06983200
Cu       5.00606000       0.00000000      11.76991000  F      -0.00268300       0.08046600       0.04597900
Cu       7.50909000       0.00000000      11.76991000  F      -0.02557300       0.05252100       0.02315300
Cu      10.01212000       0.00000000      11.76991000  F      -0.03841000       0.08398500       0.04394000
Cu       0.00000000       2.50303000      11.76991000  F      -0.05420100       0.04024700       0.05005100
Cu       2.50303000       2.50303000      11.76991000  F       0.06721800       0.03612800       0.05662800
Cu       5.00606000       2.50303000      11.76991000  F      -0.04053700      -0.06523200       0.00743300
Cu       7.50909000       2.50303000      11.76991000  F       0.01437700       0.03296700       0.12046500
Cu      10.01212000       2.50303000      11.76991000  F       0.01113800       0.00387800       0.09114800
Cu       0.00000000       5.00606000      11.76991000  F      -0.05765600       0.00165200       0.02692700
Cu       2.50303000       5.00606000      11.76991000  F       0.10468200       0.00139100       0.07326600
Cu       5.00606000       5.00606000      11.76991000  F      -0.06557400       0.00148500       0.06094700
Cu       7.50909000       5.00606000      11.76991000  F       0.06784200       0.00195400       0.18015800
Cu      10.01212000       5.00606000      11.76991000  F      -0.01317600       0.00151800       0.19126600
Cu       0.00000000       7.50909000      11.76991000  F      -0.05434200      -0.04384000       0.05130100
Cu       2.50303000       7.50909000      11.76991000  F       0.06677600      -0.03865300       0.05634700
Cu       5.00606000       7.50909000      11.76991000  F      -0.03919900       0.06063300       0.00870800
Cu       7.50909000       7.50909000      11.76991000  F       0.01418900      -0.03762300       0.12214200
Cu      10.01212000       7.50909000      11.76991000  F       0.01121600      -0.00679000       0.09242500
Cu       0.00000000      10.01212000      11.76991000  F      -0.00337400      -0.04487100       0.03215700
Cu       2.50303000      10.01212000      11.76991000  F       0.04696100      -0.01442600       0.06979100
Cu       5.00606000      10.01212000      11.76991000  F      -0.00333400      -0.07842300       0.04488300
Cu       7.50909000      10.01212000      11.76991000  F      -0.02519000      -0.04961600       0.02187500
Cu      10.01212000      10.01212000      11.76991000  F      -0.03944700      -0.08143000       0.04371400
Cu       1.25405000       1.24427000      13.57357000  T       0.00013600      -0.00014900       0.00091900
Cu       3.76348000       1.26105000      13.60518000  T      -0.00014100      -0.00068900      -0.00006700
Cu       6.24437000       1.26919000      13.60069000  T      -0.00012200      -0.00034400      -0.00048600
Cu       8.73527000       1.27384000      13.59282000  T       0.00061400      -0.00022600      -0.00024200
Cu      11.25538000       1.25937000      13.58249000  T       0.00106600       0.00020100       0.00008200
Cu       1.25366000       3.75440000      13.56634000  T       0.00175600      -0.00060200       0.00038100
Cu       3.78097000       3.74342000      13.60106000  T       0.00090300      -0.00016600      -0.00041900
Cu       6.26835000       3.76313000      13.55640000  T       0.00134100       0.00009600      -0.00100000
Cu       8.76482000       3.78156000      13.60139000  T       0.00139800       0.00017200       0.00064600
Cu      11.24850000       3.77629000      13.60710000  T       0.00166000       0.00119700       0.00148400
Cu       1.25347000       6.25812000      13.56632000  T       0.00181600       0.00064300       0.00047800
Cu       3.78108000       6.26829000      13.60090000  T       0.00085300       0.00011200      -0.00040300
Cu       6.26870000       6.24819000      13.55640000  T       0.00130900      -0.00003700      -0.00089300
Cu       8.76486000       6.23039000      13.60189000  T       0.00130500      -0.00032300       0.00090800
Cu      11.24844000       6.23563000      13.60702000  T       0.00161500      -0.00129500       0.00156300
Cu       1.25432000       8.76763000      13.57372000  T       0.00014700       0.00013600       0.00095100
Cu       3.76339000       8.75058000      13.60518000  T      -0.00013500       0.00054800      -0.00006300
Cu       6.24439000       8.74300000      13.60017000  T      -0.00010800       0.00055600      -0.00054300
Cu       8.73540000       8.73868000      13.59250000  T       0.00067000       0.00035600      -0.00022500
Cu      11.25561000       8.75314000      13.58205000  T       0.00114200      -0.00003300       0.00021600
Cu       1.25552000      11.26385000      13.59447000  T      -0.00072900       0.00002300       0.00039400
Cu       3.74755000      11.26362000      13.57853000  T      -0.00105000      -0.00009000       0.00025400
Cu       6.25191000      11.26418000      13.56183000  T      -0.00090300       0.00005800       0.00072300
Cu       8.76151000      11.26406000      13.55952000  T      -0.00037400       0.00009100       0.00045000
Cu      11.28001000      11.26413000      13.56521000  T      -0.00009800       0.00010100       0.00028800
Cu      -0.00299000       0.00549000      15.36404000  T      -0.00088600       0.00024100      -0.00087000
Cu       2.51078000       0.00739000      15.37066000  T      -0.00130800      -0.00025100      -0.00056900
Cu       5.01149000      12.48849000      15.36306000  T      -0.00086100      -0.00060300      -0.00030700
Cu       7.50819000      12.48979000      15.33544000  T      -0.00061500      -0.00038900      -0.00025100
Cu      10.01459000      12.48258000      15.33744000  T      -0.00063900      -0.00003600      -0.00081100
Cu       0.01622000       2.49737000      15.34482000  T       0.00168000       0.00139700       0.00019900
Cu       2.47578000       2.50872000      15.35848000  T       0.00145600       0.00005000      -0.00014200
Cu       4.94030000       2.42563000      15.50228000  T       0.00127200      -0.00096000      -0.00077800
Cu       7.41771000       2.47291000      15.42415000  T       0.00360000      -0.00110000      -0.00190300
Cu      10.07197000       2.41530000      15.38408000  T       0.00363700      -0.00136900      -0.00137400
Cu       0.10928000       5.00703000      15.37764000  T       0.00732100      -0.00007600      -0.00023100
Cu       2.50476000       5.00577000      15.33958000  T       0.00322100       0.00008100      -0.00026300
Pd       5.01532000       5.00541000      15.51383000  T       0.00670200      -0.00011500      -0.00242500
Y        7.58532000       5.00599000      17.26337000  T       0.00132600       0.00015400      -0.00032100
Cu      10.27593000       5.00577000      15.69852000  T       0.01415400      -0.00002600       0.01213200
Cu       0.01622000       7.51649000      15.34416000  T       0.00177100      -0.00131100       0.00033400
Cu       2.47584000       7.50211000      15.35849000  T       0.00133200       0.00005700      -0.00005100
Cu       4.94035000       7.58443000      15.50149000  T       0.00112800       0.00082300      -0.00064500
Cu       7.41734000       7.54087000      15.42406000  T       0.00325300       0.00135000      -0.00184600
Cu      10.07211000       7.59703000      15.38412000  T       0.00381900       0.00143000      -0.00143200
Cu      -0.00263000      10.00909000      15.36386000  T      -0.00067300      -0.00018600      -0.00071800
Cu       2.51136000      10.00506000      15.37055000  T      -0.00111800       0.00017000      -0.00055600
Cu       5.01215000      10.03633000      15.36256000  T      -0.00071300       0.00033700      -0.00033900
Cu       7.50841000      10.03795000      15.33486000  T      -0.00058700       0.00062000      -0.00029900
Cu      10.01492000      10.04443000      15.33688000  T      -0.00058400       0.00018500      -0.00086300
O        6.07758000       3.44825000      16.70167000  T       0.00320500      -0.00320000      -0.00086000
O        6.07772000       6.56345000      16.70171000  T       0.00310700       0.00332100      -0.00125300
O        8.81533000       6.46367000      16.24280000  T       0.00282000      -0.00690200      -0.00996800
O        8.81652000       3.54700000      16.24623000  T       0.00298400       0.00573700      -0.00782700
C       10.73655000       5.00971000      17.65778000  T      -0.00262700       0.00010900       0.01875700
O       11.98702000       5.01482000      18.17425000  T      -0.01633600       0.00036000       0.02906400
O        9.77058000       5.00913000      18.45992000  T      -0.01394000       0.00054700       0.00970700
H       11.92510000       5.01737000      19.16252000  T      -0.03081800      -0.00018200       0.03165100
108
Lattice="12.515153631 0.0 0.0 0.0 12.515153631 0.0 0.0 0.0 25.30973" Properties=species:S:1:pos:R:3:move_mask:L:1:forces:R:3 stress="0.007287405051616642 3.476520583116975e-06 5.29404804057418e-05 3.476520583116975e-06 0.007536179122356097 1.2483018251766516e-06 5.29404804057418e-05 1.2483018251766516e-06 0.0018376500828790525" free_energy=-444.90536059 energy=-444.9016487 pbc="T T T"
Cu       1.25152000       1.25152000      10.00000000  F      -0.00583100      -0.01346200      -0.07772300
Cu       3.75455000       1.25152000      10.00000000  F       0.01757200       0.00350800      -0.07737600
Cu       6.25758000       1.25152000      10.00000000  F      -0.01745500       0.01526100      -0.06169400
Cu       8.76061000       1.25152000      10.00000000  F       0.01003500       0.01899400      -0.05194700
Cu      11.26364000       1.25152000      10.00000000  F      -0.00267200       0.01263700      -0.07455100
Cu       1.25152000       3.75455000      10.00000000  F      -0.00994000       0.00897700      -0.07258600
Cu       3.75455000       3.75455000      10.00000000  F       0.01742300      -0.01360300      -0.06001800
Cu       6.25758000       3.75455000      10.00000000  F      -0.01859100      -0.01510800      -0.07630700
Cu       8.76061000       3.75455000      10.00000000  F       0.02018800      -0.02054000      -0.09056400
Cu      11.26364000       3.75455000      10.00000000  F      -0.00858200      -0.00583700      -0.05160000
Cu       1.25152000       6.25758000      10.00000000  F      -0.01023800      -0.00760400      -0.07421300
Cu       3.75455000       6.25758000      10.00000000  F       0.01862300       0.01416300      -0.06048600
Cu       6.25758000       6.25758000      10.00000000  F      -0.01854800       0.01697800      -0.07938400
Cu       8.76061000       6.25758000      10.00000000  F       0.01891700       0.02120100      -0.09126800
Cu      11.26364000       6.25758000      10.00000000  F      -0.00823300       0.00719700      -0.05327300
Cu       1.25152000       8.76061000      10.00000000  F      -0.00555500       0.01012400      -0.07661200
Cu       3.75455000       8.76061000      10.00000000  F       0.01680600      -0.00583000      -0.07647200
Cu       6.25758000       8.76061000      10.00000000  F      -0.01743300      -0.01931400      -0.05955300
Cu       8.76061000       8.76061000      10.00000000  F       0.01079000      -0.02148700      -0.05103100
Cu      11.26364000       8.76061000      10.00000000  F      -0.00296600      -0.01600700      -0.07319200
Cu       1.25152000      11.26364000      10.00000000  F      -0.00999000       0.00175200      -0.01424100
Cu       3.75455000      11.26364000      10.00000000  F      -0.00433800       0.00154800      -0.07097200
Cu       6.25758000      11.26364000      10.00000000  F      -0.00860500       0.00196300      -0.07654000
Cu       8.76061000      11.26364000      10.00000000  F       0.00022400       0.00162400      -0.06040500
Cu      11.26364000      11.26364000      10.00000000  F       0.02288700       0.00184100      -0.07394500
Cu       0.00000000       0.00000000      11.76991000  F      -0.00388900       0.04763000       0.03395400
Cu       2.50303000       0.00000000      11.76991000  F       0.04595700       0.01509800       0.06962600
Cu       5.00606000       0.00000000      11.76991000  F      -0.00279200       0.08031300       0.04560900
Cu       7.50909000       0.00000000      11.76991000  F      -0.02563400       0.05261400       0.02270400
Cu      10.01212000       0.00000000      11.76991000  F      -0.03839100       0.08401400       0.04349500
Cu       0.00000000       2.50303000      11.76991000  F      -0.05396800       0.04042100       0.04995900
Cu       2.50303000       2.50303000      11.76991000  F       0.06778500       0.03596600       0.05621700
Cu       5.00606000       2.50303000      11.76991000  F      -0.04019900      -0.06524100       0.00721400
Cu       7.50909000       2.50303000      11.76991000  F       0.01468900       0.03298600       0.12043200
Cu      10.01212000       2.50303000      11.76991000  F       0.01142200       0.00436400       0.09157800
Cu       0.00000000       5.00606000      11.76991000  F      -0.05713600       0.00168800       0.02701900
Cu       2.50303000       5.00606000      11.76991000  F       0.10545300       0.00140600       0.07295000
Cu       5.00606000       5.00606000      11.76991000  F      -0.06508800       0.00149000       0.06078800
Cu       7.50909000       5.00606000      11.76991000  F       0.06901700       0.00200700       0.18066300
Cu      10.01212000       5.00606000      11.76991000  F      -0.01309500       0.00158600       0.19234300
Cu       0.00000000       7.50909000      11.76991000  F      -0.05412300      -0.04398800       0.05124600
Cu       2.50303000       7.50909000      11.76991000  F       0.06731900      -0.03847300       0.05593800
Cu       5.00606000       7.50909000      11.76991000  F      -0.03887300       0.06065400       0.00846700
Cu       7.50909000       7.50909000      11.76991000  F       0.01456900      -0.03765500       0.12212000
Cu      10.01212000       7.50909000      11.76991000  F       0.01146900      -0.00730200       0.09296100
Cu       0.00000000      10.01212000      11.76991000  F      -0.00323200      -0.04484900       0.03178800
Cu       2.50303000      10.01212000      11.76991000  F       0.04688200      -0.01452300       0.06959100
Cu       5.00606000      10.01212000      11.76991000  F      -0.00347200      -0.07826300       0.04449500
Cu       7.50909000      10.01212000      11.76991000  F      -0.02522900      -0.04966100       0.02140900
Cu      10.01212000      10.01212000      11.76991000  F      -0.03940900      -0.08143500       0.04328800
Cu       1.25413000       1.24431000      13.57356000  T       0.00020700      -0.00005200       0.00091900
Cu       3.76356000       1.26101000      13.60514000  T      -0.00006800      -0.00048600      -0.00007700
Cu       6.24444000       1.26910000      13.60057000  T      -0.00017200       0.00005900      -0.00040900
Cu       8.73541000       1.27374000      13.59270000  T       0.00034000      -0.00000700      -0.00031600
Cu      11.25558000       1.25938000      13.58236000  T       0.00097100       0.00035300      -0.00010000
Cu       1.25406000       3.75439000      13.56623000  T       0.00198700      -0.00074000       0.00024700
Cu       3.78133000       3.74337000      13.60098000  T       0.00098200      -0.00003600      -0.00027800
Cu       6.26863000       3.76312000      13.55627000  T       0.00086000       0.00044600      -0.00078700
Cu       8.76518000       3.78152000      13.60146000  T       0.00078700      -0.00002600       0.00051100
Cu      11.24886000       3.77646000      13.60723000  T       0.00166500       0.00142400       0.00159200
Cu       1.25387000       6.25815000      13.56622000  T       0.00205700       0.00077800       0.00037100
Cu       3.78143000       6.26832000      13.60081000  T       0.00089300       0.00003800      -0.00025400
Cu       6.26898000       6.24823000      13.55626000  T       0.00077200      -0.00041600      -0.00070400
Cu       8.76521000       6.23042000      13.60201000  T       0.00075600      -0.00021700       0.00086400
Cu      11.24880000       6.23546000      13.60716000  T       0.00168200      -0.00157900       0.00167200
Cu       1.25440000       8.76759000      13.57371000  T       0.00017200       0.00011200       0.00092500
Cu       3.76346000       8.75058000      13.60514000  T      -0.00007500       0.00036300      -0.00004700
Cu       6.24447000       8.74310000      13.60003000  T      -0.00012400       0.00021500      -0.00045200
Cu       8.73555000       8.73880000      13.59237000  T       0.00038100       0.00013300      -0.00026700
Cu      11.25581000       8.75313000      13.58194000  T       0.00111300      -0.00013100       0.00008900
Cu       1.25545000      11.26385000      13.59443000  T      -0.00086800       0.00002800       0.00025200
Cu       3.74751000      11.26361000      13.57848000  T      -0.00120700      -0.00007100       0.00018500
Cu       6.25187000      11.26419000      13.56176000  T      -0.00117500       0.00007000       0.00078400
Cu       8.76145000      11.26407000      13.55942000  T      -0.00052800       0.00012700       0.00045100
Cu      11.27997000      11.26414000      13.56513000  T      -0.00032900       0.00010400       0.00014200
Cu      -0.00314000       0.00560000      15.36389000  T      -0.00110700       0.00033000      -0.00041500
Cu       2.51064000       0.00736000      15.37055000  T      -0.00128400      -0.00003800      -0.00014400
Cu       5.01140000      12.48845000      15.36298000  T      -0.00091700      -0.00056100      -0.00006600
Cu       7.50812000      12.48979000      15.33532000  T      -0.00076100      -0.00012900       0.00007900
Cu      10.01451000      12.48254000      15.33726000  T      -0.00095300       0.00015500      -0.00046500
Cu       0.01662000       2.49762000      15.34483000  T       0.00150300       0.00225300       0.00114100
Cu       2.47618000       2.50873000      15.35845000  T       0.00163600       0.00050900       0.00011000
Cu       4.94079000       2.42562000      15.50209000  T       0.00093300      -0.00116500      -0.00101100
Cu       7.41824000       2.47286000      15.42378000  T       0.00386300      -0.00133500      -0.00223600
Cu      10.07262000       2.41512000      15.38380000  T       0.00402200      -0.00153600      -0.00100800
Cu       0.11072000       5.00702000      15.37758000  T       0.00699800      -0.00005600       0.00060900
Cu       2.50566000       5.00577000      15.33945000  T       0.00258500       0.00009100       0.00025500
Pd       5.01560000       5.00540000      15.51379000  T       0.01589500      -0.00006500      -0.00494400
Y        7.58556000       5.00599000      17.26285000  T       0.00128500      -0.00018400      -0.00206800
Cu      10.27871000       5.00573000      15.70102000  T       0.01610700      -0.00030800       0.01606400
Cu       0.01661000       7.51623000      15.34420000  T       0.00158400      -0.00213100       0.00123900
Cu       2.47624000       7.50210000      15.35848000  T       0.00162000      -0.00029600       0.00021600
Cu       4.94083000       7.58440000      15.50132000  T       0.00061900       0.00113300      -0.00095800
Cu       7.41784000       7.54100000      15.42370000  T       0.00311400       0.00197500      -0.00251500
Cu      10.07276000       7.59724000      15.38383000  T       0.00436700       0.00161900      -0.00112100
Cu      -0.00275000      10.00902000      15.36373000  T      -0.00089500      -0.00031800      -0.00025100
Cu       2.51125000      10.00507000      15.37045000  T      -0.00111500       0.00000700      -0.00015900
Cu       5.01209000      10.03631000      15.36246000  T      -0.00076700       0.00034500      -0.00006500
Cu       7.50836000      10.03800000      15.33474000  T      -0.00070800       0.00039200       0.00003200
Cu      10.01486000      10.04450000      15.33669000  T      -0.00089300      -0.00009800      -0.00049800
O        6.07838000       3.44790000      16.70134000  T       0.00397500      -0.00239700      -0.00050000
O        6.07855000       6.56378000      16.70137000  T       0.00361800       0.00268900      -0.00068300
O        8.81609000       6.46243000      16.24032000  T       0.00127400      -0.00818800      -0.00893400
O        8.81735000       3.54804000      16.24410000  T       0.00127300       0.00653200      -0.00634100
C       10.73530000       5.00979000      17.66170000  T       0.00898000       0.00038100       0.03302500
O       11.98424000       5.01481000      18.18281000  T      -0.03608300      -0.00032400       0.01163500
O        9.76698000       5.00938000      18.46145000  T      -0.01464800       0.00048700       0.00408800
H       11.91809000       5.01735000      19.17077000  T      -0.03071800      -0.00008200       0.03067600
108
Lattice="12.515153631 0.0 0.0 0.0 12.515153631 0.0 0.0 0.0 25.30973" Properties=species:S:1:pos:R:3:move_mask:L:1:forces:R:3 stress="0.007292560538154622 3.694973402522889e-06 6.854425322044994e-05 3.694973402522889e-06 0.007556969589254414 1.2732678616801848e-06 6.854425322044994e-05 1.2732678616801848e-06 0.0018805666996286256" free_energy=-444.90636151 energy=-444.9026249 pbc="T T T"
Cu       1.25152000       1.25152000      10.00000000  F      -0.00588500      -0.01297800      -0.07805100
Cu       3.75455000       1.25152000      10.00000000  F       0.01768500       0.00392100      -0.07737400
Cu       6.25758000       1.25152000      10.00000000  F      -0.01795200       0.01558500      -0.06135000
Cu       8.76061000       1.25152000      10.00000000  F       0.00913800       0.01941000      -0.05183900
Cu      11.26364000       1.25152000      10.00000000  F      -0.00327100       0.01326500      -0.07479000
Cu       1.25152000       3.75455000      10.00000000  F      -0.01011800       0.00929200      -0.07252100
Cu       3.75455000       3.75455000      10.00000000  F       0.01752400      -0.01337600      -0.05987100
Cu       6.25758000       3.75455000      10.00000000  F      -0.01908500      -0.01480300      -0.07582300
Cu       8.76061000       3.75455000      10.00000000  F       0.01948700      -0.02015800      -0.09059100
Cu      11.26364000       3.75455000      10.00000000  F      -0.00919200      -0.00546200      -0.05139700
Cu       1.25152000       6.25758000      10.00000000  F      -0.01037900      -0.00787200      -0.07409900
Cu       3.75455000       6.25758000      10.00000000  F       0.01872200       0.01400300      -0.06026500
Cu       6.25758000       6.25758000      10.00000000  F      -0.01906100       0.01672600      -0.07888500
Cu       8.76061000       6.25758000      10.00000000  F       0.01820000       0.02083200      -0.09132700
Cu      11.26364000       6.25758000      10.00000000  F      -0.00883700       0.00682300      -0.05309200
Cu       1.25152000       8.76061000      10.00000000  F      -0.00554500       0.00963400      -0.07691100
Cu       3.75455000       8.76061000      10.00000000  F       0.01692300      -0.00625100      -0.07639800
Cu       6.25758000       8.76061000      10.00000000  F      -0.01797900      -0.01964800      -0.05917200
Cu       8.76061000       8.76061000      10.00000000  F       0.00986300      -0.02190900      -0.05092500
Cu      11.26364000       8.76061000      10.00000000  F      -0.00355100      -0.01662500      -0.07342500
Cu       1.25152000      11.26364000      10.00000000  F      -0.00993700       0.00173000      -0.01477400
Cu       3.75455000      11.26364000      10.00000000  F      -0.00427500       0.00150600      -0.07088200
Cu       6.25758000      11.26364000      10.00000000  F      -0.00902200       0.00193600      -0.07643000
Cu       8.76061000      11.26364000      10.00000000  F      -0.00092200       0.00164100      -0.06051600
Cu      11.26364000      11.26364000      10.00000000  F       0.02233100       0.00185400      -0.07468100
Cu       0.00000000       0.00000000      11.76991000  F      -0.00339500       0.04803600       0.03371900
Cu       2.50303000       0.00000000      11.76991000  F       0.04635400       0.01538800       0.06994900
Cu       5.00606000       0.00000000      11.76991000  F      -0.00314800       0.07992800       0.04538100
Cu       7.50909000       0.00000000      11.76991000  F      -0.02673700       0.05297600       0.02206400
Cu      10.01212000       0.00000000      11.76991000  F      -0.03914800       0.08449000       0.04285000
Cu       0.00000000       2.50303000      11.76991000  F      -0.05357400       0.04140300       0.04985300
Cu       2.50303000       2.50303000      11.76991000  F       0.06902600       0.03591100       0.05558300
Cu       5.00606000       2.50303000      11.76991000  F      -0.03975000      -0.06530800       0.00671300
Cu       7.50909000       2.50303000      11.76991000  F       0.01468500       0.03321100       0.12012800
Cu      10.01212000       2.50303000      11.76991000  F       0.01154400       0.00597200       0.09230700
Cu       0.00000000       5.00606000      11.76991000  F      -0.05627700       0.00171800       0.02705400
Cu       2.50303000       5.00606000      11.76991000  F       0.10679200       0.00144800       0.07204100
Cu       5.00606000       5.00606000      11.76991000  F      -0.06440700       0.00151400       0.06001000
Cu       7.50909000       5.00606000      11.76991000  F       0.07102500       0.00209300       0.18111700
Cu      10.01212000       5.00606000      11.76991000  F      -0.01329900       0.00167000       0.19412800
Cu       0.00000000       7.50909000      11.76991000  F      -0.05372900      -0.04495900       0.05121000
Cu       2.50303000       7.50909000      11.76991000  F       0.06856400      -0.03842100       0.05528800
Cu       5.00606000       7.50909000      11.76991000  F      -0.03846200       0.06073200       0.00791800
Cu       7.50909000       7.50909000      11.76991000  F       0.01466000      -0.03793200       0.12185800
Cu      10.01212000       7.50909000      11.76991000  F       0.01149600      -0.00901200       0.09392600
Cu       0.00000000      10.01212000      11.76991000  F      -0.00270800      -0.04522600       0.03158200
Cu       2.50303000      10.01212000      11.76991000  F       0.04728400      -0.01490100       0.06991500
Cu       5.00606000      10.01212000      11.76991000  F      -0.00389500      -0.07790800       0.04423500
Cu       7.50909000      10.01212000      11.76991000  F      -0.02632800      -0.04993900       0.02073100
Cu      10.01212000      10.01212000      11.76991000  F      -0.04013500      -0.08181900       0.04268300
Cu       1.25433000       1.24438000      13.57356000  T       0.00073900       0.00036800       0.00123400
Cu       3.76371000       1.26094000      13.60508000  T       0.00013400      -0.00055000      -0.00010800
Cu       6.24459000       1.26893000      13.60035000  T      -0.00071900       0.00009400      -0.00077300
Cu       8.73570000       1.27353000      13.59247000  T      -0.00029700       0.00024000      -0.00074300
Cu      11.25601000       1.25940000      13.58212000  T       0.00132200       0.00090400      -0.00050900
Cu       1.25491000       3.75433000      13.56601000  T       0.00283200      -0.00069300      -0.00033600
Cu       3.78205000       3.74327000      13.60082000  T       0.00162800      -0.00001500      -0.00058600
Cu       6.26918000       3.76310000      13.55602000  T       0.00067400       0.00041800      -0.00142600
Cu       8.76587000       3.78144000      13.60161000  T       0.00074800      -0.00010900       0.00056000
Cu      11.24962000       3.77682000      13.60750000  T       0.00192800       0.00232600       0.00197300
Cu       1.25471000       6.25824000      13.56602000  T       0.00286100       0.00073900      -0.00014300
Cu       3.78214000       6.26839000      13.60064000  T       0.00158800       0.00005700      -0.00050400
Cu       6.26952000       6.24829000      13.55600000  T       0.00048500      -0.00036000      -0.00143200
Cu       8.76589000       6.23048000      13.60225000  T       0.00056500      -0.00033800       0.00117900
Cu      11.24955000       6.23510000      13.60745000  T       0.00201800      -0.00255100       0.00207700
Cu       1.25459000       8.76752000      13.57373000  T       0.00083000      -0.00025100       0.00121400
Cu       3.76360000       8.75061000      13.60508000  T       0.00017600       0.00037700      -0.00011300
Cu       6.24461000       8.74330000      13.59977000  T      -0.00073900       0.00022800      -0.00086100
Cu       8.73584000       8.73904000      13.59212000  T      -0.00030700      -0.00006400      -0.00071800
Cu      11.25626000       8.75313000      13.58172000  T       0.00152000      -0.00062800      -0.00036300
Cu       1.25531000      11.26385000      13.59435000  T      -0.00056300       0.00002500       0.00046000
Cu       3.74742000      11.26359000      13.57839000  T      -0.00135400      -0.00011800       0.00029800
Cu       6.25178000      11.26419000      13.56165000  T      -0.00223400       0.00012300       0.00075900
Cu       8.76133000      11.26408000      13.55924000  T      -0.00196600       0.00018800       0.00035400
Cu      11.27990000      11.26415000      13.56497000  T      -0.00097900       0.00015300       0.00025100
Cu      -0.00340000       0.00580000      15.36360000  T      -0.00150400       0.00091100       0.00007300
Cu       2.51038000       0.00730000      15.37033000  T      -0.00133000      -0.00002500       0.00001500
Cu       5.01123000      12.48836000      15.36280000  T      -0.00165500      -0.00086400      -0.00037800
Cu       7.50799000      12.48978000      15.33511000  T      -0.00200200       0.00004100       0.00006700
Cu      10.01436000      12.48248000      15.33690000  T      -0.00194900       0.00026700      -0.00023600
Cu       0.01743000       2.49814000      15.34490000  T       0.00269700       0.00378800       0.00209100
Cu       2.47701000       2.50876000      15.35840000  T       0.00287000       0.00061500       0.00030000
Cu       4.94176000       2.42556000      15.50169000  T       0.00151800      -0.00176400      -0.00164400
Cu       7.41937000       2.47272000      15.42300000  T       0.00565700      -0.00155200      -0.00329500
Cu      10.07399000       2.41474000      15.38326000  T       0.00430800      -0.00058900      -0.00023100
Cu       0.11362000       5.00700000      15.37752000  T       0.01087400      -0.00007900       0.00100400
Cu       2.50739000       5.00578000      15.33921000  T       0.00506000       0.00007300       0.00028000
Pd       5.01650000       5.00539000      15.51360000  T       0.01842400      -0.00026300      -0.00598100
Y        7.58600000       5.00596000      17.26166000  T       0.00247200      -0.00001900      -0.00473500
Cu      10.28447000       5.00564000      15.70630000  T       0.02394300      -0.00040100       0.02902400
Cu       0.01743000       7.51571000      15.34431000  T       0.00285500      -0.00369200       0.00231800
Cu       2.47705000       7.50208000      15.35845000  T       0.00290100      -0.00038000       0.00039100
Cu       4.94176000       7.58441000      15.50096000  T       0.00131400       0.00146600      -0.00140600
Cu       7.41886000       7.54131000      15.42293000  T       0.00495200       0.00236400      -0.00348600
Cu      10.07412000       7.59769000      15.38328000  T       0.00502900       0.00087300      -0.00068100
Cu      -0.00295000      10.00888000      15.36349000  T      -0.00117600      -0.00081900       0.00028800
Cu       2.51106000      10.00510000      15.37025000  T      -0.00104000      -0.00004200      -0.00005400
Cu       5.01197000      10.03629000      15.36227000  T      -0.00144600       0.00054300      -0.00032500
Cu       7.50827000      10.03809000      15.33452000  T      -0.00187900       0.00044100       0.00004500
Cu      10.01475000      10.04464000      15.33634000  T      -0.00181400      -0.00016100      -0.00024600
O        6.08012000       3.44717000      16.70071000  T       0.00366500      -0.00278300       0.00059000
O        6.08032000       6.56446000      16.70070000  T       0.00298900       0.00335900       0.00061100
O        8.81752000       6.45974000      16.23523000  T      -0.00010300      -0.00647500      -0.00738700
O        8.81891000       3.55029000      16.23980000  T      -0.00005200       0.00448500      -0.00483300
C       10.73319000       5.00999000      17.67055000  T      -0.00894900       0.00052700       0.02051700
O       11.97754000       5.01474000      18.20031000  T      -0.02780800      -0.00080900       0.02592000
O        9.75947000       5.00990000      18.46436000  T      -0.02253700       0.00024100       0.01179200
H       11.90306000       5.01733000      19.18813000  T      -0.02847000       0.00001600       0.01099500
108
Lattice="12.515153631 0.0 0.0 0.0 12.515153631 0.0 0.0 0.0 25.30973" Properties=species:S:1:pos:R:3:move_mask:L:1:forces:R:3 stress="0.007260791256703876 3.5389356743758075e-06 7.365604919454832e-05 3.5389356743758075e-06 0.007527041552995803 1.3606489894425502e-06 7.365604919454832e-05 1.3606489894425502e-06 0.0018440663542604603" free_energy=-444.91168508 energy=-444.9079494 pbc="T T T"
Cu       1.25152000       1.25152000      10.00000000  F      -0.00563900      -0.01367100      -0.07790400
Cu       3.75455000       1.25152000      10.00000000  F       0.01779600       0.00337300      -0.07752400
Cu       6.25758000       1.25152000      10.00000000  F      -0.01745200       0.01502300      -0.06137800
Cu       8.76061000       1.25152000      10.00000000  F       0.01004100       0.01873500      -0.05180800
Cu      11.26364000       1.25152000      10.00000000  F      -0.00256500       0.01253400      -0.07458300
Cu       1.25152000       3.75455000      10.00000000  F      -0.00982100       0.00881900      -0.07287500
Cu       3.75455000       3.75455000      10.00000000  F       0.01776300      -0.01387200      -0.06039400
Cu       6.25758000       3.75455000      10.00000000  F      -0.01863100      -0.01523100      -0.07631700
Cu       8.76061000       3.75455000      10.00000000  F       0.02029800      -0.02062500      -0.09120500
Cu      11.26364000       3.75455000      10.00000000  F      -0.00849900      -0.00591800      -0.05173200
Cu       1.25152000       6.25758000      10.00000000  F      -0.01011100      -0.00746800      -0.07444700
Cu       3.75455000       6.25758000      10.00000000  F       0.01889700       0.01431100      -0.06084800
Cu       6.25758000       6.25758000      10.00000000  F      -0.01860600       0.01697500      -0.07955600
Cu       8.76061000       6.25758000      10.00000000  F       0.01906900       0.02113100      -0.09199700
Cu      11.26364000       6.25758000      10.00000000  F      -0.00811400       0.00721300      -0.05341700
Cu       1.25152000       8.76061000      10.00000000  F      -0.00536300       0.01033900      -0.07675200
Cu       3.75455000       8.76061000      10.00000000  F       0.01697600      -0.00565000      -0.07665000
Cu       6.25758000       8.76061000      10.00000000  F      -0.01745700      -0.01902700      -0.05957200
Cu       8.76061000       8.76061000      10.00000000  F       0.01083600      -0.02118400      -0.05104000
Cu      11.26364000       8.76061000      10.00000000  F      -0.00280400      -0.01588100      -0.07320900
Cu       1.25152000      11.26364000      10.00000000  F      -0.00979200       0.00176400      -0.01440800
Cu       3.75455000      11.26364000      10.00000000  F      -0.00420300       0.00161900      -0.07089400
Cu       6.25758000      11.26364000      10.00000000  F      -0.00844600       0.00202600      -0.07659500
Cu       8.76061000      11.26364000      10.00000000  F       0.00001000       0.00174000      -0.06034800
Cu      11.26364000      11.26364000      10.00000000  F       0.02307000       0.00188600      -0.07418200
Cu       0.00000000       0.00000000      11.76991000  F      -0.00286100       0.04749400       0.03319300
Cu       2.50303000       0.00000000      11.76991000  F       0.04607800       0.01499300       0.06929200
Cu       5.00606000       0.00000000      11.76991000  F      -0.00306700       0.07943000       0.04459100
Cu       7.50909000       0.00000000      11.76991000  F      -0.02570700       0.05256200       0.02142700
Cu      10.01212000       0.00000000      11.76991000  F      -0.03787700       0.08396300       0.04240600
Cu       0.00000000       2.50303000      11.76991000  F      -0.05293900       0.04062400       0.04952900
Cu       2.50303000       2.50303000      11.76991000  F       0.06924900       0.03502900       0.05491100
Cu       5.00606000       2.50303000      11.76991000  F      -0.03937400      -0.06597400       0.00610900
Cu       7.50909000       2.50303000      11.76991000  F       0.01576200       0.03248500       0.11982600
Cu      10.01212000       2.50303000      11.76991000  F       0.01293300       0.00542100       0.09236800
Cu       0.00000000       5.00606000      11.76991000  F      -0.05540600       0.00172900       0.02689200
Cu       2.50303000       5.00606000      11.76991000  F       0.10720600       0.00142100       0.07146000
Cu       5.00606000       5.00606000      11.76991000  F      -0.06397200       0.00150700       0.05950500
Cu       7.50909000       5.00606000      11.76991000  F       0.07257300       0.00214200       0.18112600
Cu      10.01212000       5.00606000      11.76991000  F      -0.01213700       0.00172000       0.19449700
Cu       0.00000000       7.50909000      11.76991000  F      -0.05315100      -0.04418200       0.05090900
Cu       2.50303000       7.50909000      11.76991000  F       0.06878100      -0.03756300       0.05459900
Cu       5.00606000       7.50909000      11.76991000  F      -0.03806200       0.06137800       0.00730300
Cu       7.50909000       7.50909000      11.76991000  F       0.01582000      -0.03722700       0.12158700
Cu      10.01212000       7.50909000      11.76991000  F       0.01283300      -0.00848400       0.09406200
Cu       0.00000000      10.01212000      11.76991000  F      -0.00220300      -0.04469600       0.03105700
Cu       2.50303000      10.01212000      11.76991000  F       0.04701100      -0.01450000       0.06924700
Cu       5.00606000      10.01212000      11.76991000  F      -0.00381700      -0.07740900       0.04344400
Cu       7.50909000      10.01212000      11.76991000  F      -0.02525800      -0.04954700       0.02010400
Cu      10.01212000      10.01212000      11.76991000  F      -0.03887800      -0.08132300       0.04225200
Cu       1.25438000       1.24440000      13.57357000  T       0.00024200      -0.00044900       0.00091700
Cu       3.76374000       1.26091000      13.60507000  T      -0.00023100      -0.00074500      -0.00029400
Cu       6.24463000       1.26889000      13.60029000  T      -0.00037100       0.00025500      -0.00033900
Cu       8.73577000       1.27348000      13.59241000  T       0.00010200       0.00023800      -0.00028800
Cu      11.25613000       1.25941000      13.58206000  T       0.00097800       0.00020800      -0.00014900
Cu       1.25514000       3.75431000      13.56595000  T       0.00115000      -0.00108600      -0.00010300
Cu       3.78223000       3.74324000      13.60078000  T       0.00012900      -0.00000400      -0.00009900
Cu       6.26932000       3.76310000      13.55596000  T      -0.00017900       0.00014000      -0.00053200
Cu       8.76605000       3.78141000      13.60165000  T      -0.00022100      -0.00023800       0.00061600
Cu      11.24983000       3.77692000      13.60758000  T       0.00068100       0.00113900       0.00140900
Cu       1.25494000       6.25826000      13.56597000  T       0.00117300       0.00104000       0.00004400
Cu       3.78232000       6.26841000      13.60060000  T       0.00008000       0.00005700       0.00003500
Cu       6.26966000       6.24831000      13.55594000  T      -0.00034500      -0.00026400      -0.00047400
Cu       8.76606000       6.23049000      13.60232000  T      -0.00039200      -0.00019200       0.00109100
Cu      11.24976000       6.23500000      13.60754000  T       0.00081200      -0.00136900       0.00144800
Cu       1.25464000       8.76750000      13.57374000  T       0.00034500       0.00058800       0.00087200
Cu       3.76363000       8.75062000      13.60506000  T      -0.00017300       0.00072600      -0.00028200
Cu       6.24465000       8.74335000      13.59971000  T      -0.00038400       0.00004300      -0.00027400
Cu       8.73593000       8.73911000      13.59206000  T       0.00009900      -0.00013000      -0.00019400
Cu      11.25639000       8.75313000      13.58166000  T       0.00118300       0.00003300      -0.00007500
Cu       1.25527000      11.26385000      13.59433000  T      -0.00047900       0.00004600       0.00014300
Cu       3.74739000      11.26358000      13.57837000  T      -0.00132700      -0.00001100       0.00003700
Cu       6.25174000      11.26419000      13.56163000  T      -0.00138500       0.00014400       0.00073700
Cu       8.76130000      11.26409000      13.55919000  T      -0.00053800       0.00016700       0.00057100
Cu      11.27989000      11.26415000      13.56492000  T      -0.00024200       0.00012000       0.00029200
Cu      -0.00347000       0.00586000      15.36353000  T      -0.00065400       0.00009100       0.00050600
Cu       2.51031000       0.00729000      15.37028000  T      -0.00074400      -0.00000800       0.00061600
Cu       5.01118000      12.48833000      15.36276000  T      -0.00082400      -0.00073900       0.00035100
Cu       7.50795000      12.48978000      15.33506000  T      -0.00075200      -0.00004000       0.00073500
Cu      10.01432000      12.48246000      15.33681000  T      -0.00079500       0.00016800       0.00040700
Cu       0.01765000       2.49829000      15.34493000  T       0.00099800       0.00198300       0.00199300
Cu       2.47723000       2.50877000      15.35839000  T       0.00106900       0.00028100       0.00065100
Cu       4.94201000       2.42553000      15.50159000  T      -0.00010800      -0.00181400      -0.00025600
Cu       7.41968000       2.47268000      15.42279000  T       0.00417800      -0.00151400      -0.00122000
Cu      10.07435000       2.41464000      15.38313000  T       0.00181900      -0.00015000       0.00123800
Cu       0.11441000       5.00700000      15.37750000  T       0.00557800      -0.00004200       0.00073400
Cu       2.50785000       5.00578000      15.33915000  T       0.00177600       0.00005200       0.00139800
Pd       5.01682000       5.00538000      15.51353000  T       0.01821400      -0.00022100      -0.00538900
Y        7.58613000       5.00595000      17.26131000  T       0.00224700       0.00009700      -0.00429300
Cu      10.28607000       5.00561000      15.70781000  T       0.01505100      -0.00029100       0.02069400
Cu       0.01765000       7.51556000      15.34435000  T       0.00126200      -0.00189700       0.00211700
Cu       2.47727000       7.50207000      15.35845000  T       0.00106000      -0.00006100       0.00068300
Cu       4.94201000       7.58442000      15.50086000  T      -0.00044200       0.00175100      -0.00018400
Cu       7.41915000       7.54140000      15.42272000  T       0.00374100       0.00191400      -0.00137500
Cu      10.07450000       7.59781000      15.38314000  T       0.00260600       0.00019800       0.00075000
Cu      -0.00300000      10.00885000      15.36343000  T      -0.00050700      -0.00022900       0.00061500
Cu       2.51101000      10.00511000      15.37020000  T      -0.00063500       0.00003700       0.00050700
Cu       5.01194000      10.03629000      15.36222000  T      -0.00075900       0.00077200       0.00050200
Cu       7.50824000      10.03812000      15.33447000  T      -0.00068900       0.00034900       0.00073800
Cu      10.01471000      10.04467000      15.33625000  T      -0.00075400      -0.00030800       0.00036500
O        6.08059000       3.44697000      16.70054000  T       0.00249900      -0.00228500       0.00095400
O        6.08080000       6.56466000      16.70052000  T       0.00188700       0.00297900       0.00097700
O        8.81790000       6.45899000      16.23385000  T      -0.00129500      -0.00500800      -0.00442400
O        8.81932000       3.55092000      16.23863000  T      -0.00126500       0.00330500      -0.00208000
C       10.73257000       5.01004000      17.67291000  T      -0.01555500       0.00045700       0.01491500
O       11.97568000       5.01472000      18.20516000  T      -0.01542800      -0.00048900       0.02337700
O        9.75736000       5.01004000      18.46519000  T      -0.01554200       0.00022600       0.00958300
H       11.89899000       5.01732000      19.19267000  T      -0.02873500       0.00002500       0.01664100
108
Lattice="12.515153631 0.0 0.0 0.0 12.515153631 0.0 0.0 0.0 25.30973" Properties=species:S:1:pos:R:3:move_mask:L:1:forces:R:3 stress="0.007259898720898874 3.782354530285255e-06 7.499173214748736e-05 3.782354530285255e-06 0.007524401394635555 1.4417886080790327e-06 7.499173214748736e-05 1.4417886080790327e-06 0.0018485539993219704" free_energy=-444.90783209 energy=-444.9040826 pbc="T T T"
Cu       1.25152000       1.25152000      10.00000000  F      -0.00632400      -0.01347800      -0.07780400
Cu       3.75455000       1.25152000      10.00000000  F       0.01707500       0.00367300      -0.07776400
Cu       6.25758000       1.25152000      10.00000000  F      -0.01740200       0.01534300      -0.06192700
Cu       8.76061000       1.25152000      10.00000000  F       0.01053100       0.01893100      -0.05194600
Cu      11.26364000       1.25152000      10.00000000  F      -0.00249000       0.01273500      -0.07435500
Cu       1.25152000       3.75455000      10.00000000  F      -0.01043400       0.00894300      -0.07230500
Cu       3.75455000       3.75455000      10.00000000  F       0.01715100      -0.01363500      -0.06014600
Cu       6.25758000       3.75455000      10.00000000  F      -0.01861600      -0.01493900      -0.07622000
Cu       8.76061000       3.75455000      10.00000000  F       0.02071900      -0.02032900      -0.09100700
Cu      11.26364000       3.75455000      10.00000000  F      -0.00850100      -0.00572800      -0.05119200
Cu       1.25152000       6.25758000      10.00000000  F      -0.01071100      -0.00754700      -0.07387500
Cu       3.75455000       6.25758000      10.00000000  F       0.01832500       0.01418900      -0.06057500
Cu       6.25758000       6.25758000      10.00000000  F      -0.01857000       0.01679800      -0.07932500
Cu       8.76061000       6.25758000      10.00000000  F       0.01945800       0.02098800      -0.09174800
Cu      11.26364000       6.25758000      10.00000000  F      -0.00815300       0.00709700      -0.05286600
Cu       1.25152000       8.76061000      10.00000000  F      -0.00603100       0.01012900      -0.07666600
Cu       3.75455000       8.76061000      10.00000000  F       0.01629300      -0.00598700      -0.07685100
Cu       6.25758000       8.76061000      10.00000000  F      -0.01739400      -0.01939600      -0.05981800
Cu       8.76061000       8.76061000      10.00000000  F       0.01130400      -0.02144400      -0.05103500
Cu      11.26364000       8.76061000      10.00000000  F      -0.00278000      -0.01610700      -0.07293600
Cu       1.25152000      11.26364000      10.00000000  F      -0.01052800       0.00173200      -0.01446600
Cu       3.75455000      11.26364000      10.00000000  F      -0.00500600       0.00154000      -0.07133600
Cu       6.25758000      11.26364000      10.00000000  F      -0.00835000       0.00196100      -0.07734000
Cu       8.76061000      11.26364000      10.00000000  F       0.00055200       0.00164500      -0.06073200
Cu      11.26364000      11.26364000      10.00000000  F       0.02314800       0.00183600      -0.07419000
Cu       0.00000000       0.00000000      11.76991000  F      -0.00301700       0.04769500       0.03297900
Cu       2.50303000       0.00000000      11.76991000  F       0.04524600       0.01527600       0.06925400
Cu       5.00606000       0.00000000      11.76991000  F      -0.00353600       0.07971800       0.04454100
Cu       7.50909000       0.00000000      11.76991000  F      -0.02533400       0.05291600       0.02130100
Cu      10.01212000       0.00000000      11.76991000  F      -0.03739500       0.08429100       0.04213400
Cu       0.00000000       2.50303000      11.76991000  F      -0.05303000       0.04110200       0.04948300
Cu       2.50303000       2.50303000      11.76991000  F       0.06886100       0.03534700       0.05479500
Cu       5.00606000       2.50303000      11.76991000  F      -0.03955500      -0.06542300       0.00625200
Cu       7.50909000       2.50303000      11.76991000  F       0.01617300       0.03308300       0.11989700
Cu      10.01212000       2.50303000      11.76991000  F       0.01340600       0.00617000       0.09260900
Cu       0.00000000       5.00606000      11.76991000  F      -0.05540100       0.00175400       0.02698900
Cu       2.50303000       5.00606000      11.76991000  F       0.10694600       0.00143100       0.07150000
Cu       5.00606000       5.00606000      11.76991000  F      -0.06412900       0.00147100       0.05961700
Cu       7.50909000       5.00606000      11.76991000  F       0.07345500       0.00214800       0.18154500
Cu      10.01212000       5.00606000      11.76991000  F      -0.01188500       0.00178000       0.19521700
Cu       0.00000000       7.50909000      11.76991000  F      -0.05327000      -0.04464700       0.05090500
Cu       2.50303000       7.50909000      11.76991000  F       0.06831900      -0.03789500       0.05449800
Cu       5.00606000       7.50909000      11.76991000  F      -0.03823600       0.06080800       0.00743300
Cu       7.50909000       7.50909000      11.76991000  F       0.01631000      -0.03785600       0.12170600
Cu      10.01212000       7.50909000      11.76991000  F       0.01331700      -0.00926100       0.09443200
Cu       0.00000000      10.01212000      11.76991000  F      -0.00236500      -0.04492300       0.03085100
Cu       2.50303000      10.01212000      11.76991000  F       0.04613400      -0.01479100       0.06922000
Cu       5.00606000      10.01212000      11.76991000  F      -0.00429300      -0.07764300       0.04337800
Cu       7.50909000      10.01212000      11.76991000  F      -0.02485500      -0.04985500       0.01997300
Cu      10.01212000      10.01212000      11.76991000  F      -0.03835600      -0.08167700       0.04201900
Cu       1.25444000       1.24439000      13.57357000  T      -0.00015900       0.00014600       0.00094200
Cu       3.76378000       1.26088000      13.60504000  T      -0.00075400      -0.00005300       0.00008500
Cu       6.24466000       1.26886000      13.60024000  T      -0.00027900       0.00076700      -0.00008200
Cu       8.73586000       1.27344000      13.59235000  T       0.00067100       0.00053000      -0.00035200
Cu      11.25625000       1.25941000      13.58200000  T       0.00124900       0.00073500      -0.00023100
Cu       1.25535000       3.75426000      13.56590000  T       0.00147900      -0.00070000      -0.00028200
Cu       3.78238000       3.74322000      13.60074000  T       0.00029000       0.00032300       0.00025600
Cu       6.26943000       3.76309000      13.55590000  T       0.00021600       0.00028200      -0.00069900
Cu       8.76619000       3.78139000      13.60170000  T       0.00060200      -0.00018800       0.00084600
Cu      11.25001000       3.77701000      13.60766000  T       0.00115900       0.00174400       0.00156000
Cu       1.25515000       6.25831000      13.56592000  T       0.00148900       0.00070300      -0.00013600
Cu       3.78247000       6.26843000      13.60057000  T       0.00027000      -0.00029800       0.00035000
Cu       6.26976000       6.24832000      13.55588000  T       0.00002300      -0.00033600      -0.00071600
Cu       8.76620000       6.23050000      13.60240000  T       0.00043800      -0.00024300       0.00148200
Cu      11.24994000       6.23490000      13.60763000  T       0.00132000      -0.00190700       0.00158200
Cu       1.25471000       8.76751000      13.57375000  T      -0.00010500      -0.00003200       0.00090100
Cu       3.76367000       8.75064000      13.60503000  T      -0.00071900      -0.00000500       0.00006900
Cu       6.24469000       8.74339000      13.59965000  T      -0.00027000      -0.00046700      -0.00013900
Cu       8.73601000       8.73915000      13.59200000  T       0.00069300      -0.00044300      -0.00030600
Cu      11.25653000       8.75314000      13.58161000  T       0.00145000      -0.00052800      -0.00018800
Cu       1.25525000      11.26385000      13.59431000  T      -0.00122100       0.00004200       0.00027300
Cu       3.74735000      11.26357000      13.57834000  T      -0.00205400      -0.00003000       0.00036100
Cu       6.25171000      11.26420000      13.56161000  T      -0.00150500       0.00014600       0.00078200
Cu       8.76128000      11.26410000      13.55916000  T      -0.00023800       0.00012100       0.00040700
Cu      11.27989000      11.26415000      13.56489000  T      -0.00027900       0.00007700       0.00010900
Cu      -0.00352000       0.00589000      15.36350000  T      -0.00108900       0.00051000       0.00032700
Cu       2.51026000       0.00728000      15.37026000  T      -0.00144100       0.00016800       0.00063600
Cu       5.01114000      12.48829000      15.36274000  T      -0.00139800      -0.00043900       0.00076000
Cu       7.50793000      12.48977000      15.33504000  T      -0.00081900       0.00041400       0.00109400
Cu      10.01429000      12.48245000      15.33676000  T      -0.00070000       0.00039000       0.00031200
Cu       0.01784000       2.49843000      15.34499000  T       0.00131200       0.00287000       0.00197300
Cu       2.47743000       2.50878000      15.35840000  T       0.00130200       0.00060400       0.00053600
Cu       4.94222000       2.42548000      15.50152000  T       0.00109900      -0.00089900      -0.00031500
Cu       7.42003000       2.47262000      15.42262000  T       0.00431100      -0.00110800      -0.00184200
Cu      10.07468000       2.41455000      15.38307000  T       0.00278900       0.00018300       0.00095100
Cu       0.11514000       5.00700000      15.37748000  T       0.00752600      -0.00001500      -0.00053600
Cu       2.50825000       5.00578000      15.33915000  T       0.00380900       0.00008300       0.00087100
Pd       5.01732000       5.00538000      15.51342000  T       0.01660500      -0.00028600      -0.00516100
Y        7.58626000       5.00595000      17.26094000  T       0.00140900       0.00006100      -0.00152800
Cu      10.28767000       5.00558000      15.70944000  T       0.01798900      -0.00029800       0.02407800
Cu       0.01785000       7.51542000      15.34443000  T       0.00156000      -0.00279600       0.00216000
Cu       2.47746000       7.50207000      15.35846000  T       0.00128300      -0.00040200       0.00056800
Cu       4.94220000       7.58446000      15.50080000  T       0.00067400       0.00087500      -0.00026700
Cu       7.41947000       7.54151000      15.42254000  T       0.00387700       0.00162900      -0.00204800
Cu      10.07485000       7.59791000      15.38306000  T       0.00337700      -0.00015800       0.00047000
Cu      -0.00303000      10.00882000      15.36340000  T      -0.00092400      -0.00062300       0.00043000
Cu       2.51097000      10.00511000      15.37018000  T      -0.00129800      -0.00014800       0.00056300
Cu       5.01191000      10.03631000      15.36220000  T      -0.00125700       0.00038800       0.00086600
Cu       7.50823000      10.03814000      15.33445000  T      -0.00070100      -0.00006600       0.00107100
Cu      10.01470000      10.04469000      15.33620000  T      -0.00062200      -0.00052300       0.00025800
O        6.08110000       3.44672000      16.70039000  T       0.00368800      -0.00368700      -0.00065300
O        6.08130000       6.56491000      16.70036000  T       0.00318600       0.00437400      -0.00053300
O        8.81822000       6.45815000      16.23243000  T       0.00058300      -0.00667400      -0.01091000
O        8.81969000       3.55160000      16.23748000  T       0.00119500       0.00475700      -0.00739300
C       10.73167000       5.01010000      17.67546000  T      -0.00547600       0.00051000       0.02573200
O       11.97373000       5.01470000      18.21070000  T      -0.03177900      -0.00050500       0.01656600
O        9.75506000       5.01020000      18.46619000  T      -0.02257400       0.00039100       0.00975200
H       11.89418000       5.01731000      19.19784000  T      -0.02803700       0.00006800       0.02024100
108
Lattice="12.515153631 0.0 0.0 0.0 12.515153631 0.0 0.0 0.0 25.30973" Properties=species:S:1:pos:R:3:move_mask:L:1:forces:R:3 stress="0.00722227490388805 3.950875276684102e-06 8.598927122729366e-05 3.950875276684102e-06 0.00750037782601003 1.5291697358413982e-06 8.598927122729366e-05 1.5291697358413982e-06 0.001829598536106663" free_energy=-444.90908458 energy=-444.90532265 pbc="T T T"
Cu       1.25152000       1.25152000      10.00000000  F      -0.00591700      -0.01358200      -0.07796000
Cu       3.75455000       1.25152000      10.00000000  F       0.01742900       0.00355700      -0.07767500
Cu       6.25758000       1.25152000      10.00000000  F      -0.01771400       0.01514000      -0.06164200
Cu       8.76061000       1.25152000      10.00000000  F       0.00994600       0.01877600      -0.05183600
Cu      11.26364000       1.25152000      10.00000000  F      -0.00259000       0.01269000      -0.07451000
Cu       1.25152000       3.75455000      10.00000000  F      -0.01009600       0.00892900      -0.07251700
Cu       3.75455000       3.75455000      10.00000000  F       0.01750500      -0.01371800      -0.06021300
Cu       6.25758000       3.75455000      10.00000000  F      -0.01895600      -0.01497200      -0.07608400
Cu       8.76061000       3.75455000      10.00000000  F       0.02026800      -0.02032700      -0.09136400
Cu      11.26364000       3.75455000      10.00000000  F      -0.00859800      -0.00570500      -0.05135300
Cu       1.25152000       6.25758000      10.00000000  F      -0.01034100      -0.00751100      -0.07406200
Cu       3.75455000       6.25758000      10.00000000  F       0.01868100       0.01430800      -0.06060000
Cu       6.25758000       6.25758000      10.00000000  F      -0.01892400       0.01686700      -0.07915400
Cu       8.76061000       6.25758000      10.00000000  F       0.01899300       0.02100500      -0.09208900
Cu      11.26364000       6.25758000      10.00000000  F      -0.00824900       0.00707600      -0.05302700
Cu       1.25152000       8.76061000      10.00000000  F      -0.00558700       0.01019000      -0.07679900
Cu       3.75455000       8.76061000      10.00000000  F       0.01665300      -0.00591300      -0.07669600
Cu       6.25758000       8.76061000      10.00000000  F      -0.01772300      -0.01924200      -0.05945300
Cu       8.76061000       8.76061000      10.00000000  F       0.01070300      -0.02134100      -0.05088300
Cu      11.26364000       8.76061000      10.00000000  F      -0.00289000      -0.01610300      -0.07307300
Cu       1.25152000      11.26364000      10.00000000  F      -0.01008000       0.00168800      -0.01461900
Cu       3.75455000      11.26364000      10.00000000  F      -0.00466900       0.00147700      -0.07102300
Cu       6.25758000      11.26364000      10.00000000  F      -0.00860500       0.00190800      -0.07695300
Cu       8.76061000      11.26364000      10.00000000  F      -0.00017600       0.00161300      -0.06051500
Cu      11.26364000      11.26364000      10.00000000  F       0.02306400       0.00180900      -0.07447600
Cu       0.00000000       0.00000000      11.76991000  F      -0.00240900       0.04766700       0.03282000
Cu       2.50303000       0.00000000      11.76991000  F       0.04579300       0.01521400       0.06911400
Cu       5.00606000       0.00000000      11.76991000  F      -0.00346400       0.07906700       0.04425600
Cu       7.50909000       0.00000000      11.76991000  F      -0.02593900       0.05272800       0.02116200
Cu      10.01212000       0.00000000      11.76991000  F      -0.03776400       0.08424000       0.04201000
Cu       0.00000000       2.50303000      11.76991000  F      -0.05250500       0.04118900       0.04957700
Cu       2.50303000       2.50303000      11.76991000  F       0.07002800       0.03480900       0.05425700
Cu       5.00606000       2.50303000      11.76991000  F      -0.03918200      -0.06592200       0.00580200
Cu       7.50909000       2.50303000      11.76991000  F       0.01611700       0.03267900       0.11973000
Cu      10.01212000       2.50303000      11.76991000  F       0.01373200       0.00679200       0.09348700
Cu       0.00000000       5.00606000      11.76991000  F      -0.05447900       0.00175700       0.02742900
Cu       2.50303000       5.00606000      11.76991000  F       0.10805100       0.00146200       0.07091200
Cu       5.00606000       5.00606000      11.76991000  F      -0.06374700       0.00147100       0.05905400
Cu       7.50909000       5.00606000      11.76991000  F       0.07483700       0.00221100       0.18207900
Cu      10.01212000       5.00606000      11.76991000  F      -0.01202500       0.00185800       0.19713900
Cu       0.00000000       7.50909000      11.76991000  F      -0.05273200      -0.04475600       0.05106500
Cu       2.50303000       7.50909000      11.76991000  F       0.06948300      -0.03739500       0.05395800
Cu       5.00606000       7.50909000      11.76991000  F      -0.03787000       0.06129300       0.00698600
Cu       7.50909000       7.50909000      11.76991000  F       0.01633500      -0.03755200       0.12166900
Cu      10.01212000       7.50909000      11.76991000  F       0.01354500      -0.01002500       0.09559000
Cu       0.00000000      10.01212000      11.76991000  F      -0.00173600      -0.04490400       0.03070600
Cu       2.50303000      10.01212000      11.76991000  F       0.04668700      -0.01481000       0.06905800
Cu       5.00606000      10.01212000      11.76991000  F      -0.00425500      -0.07702000       0.04307200
Cu       7.50909000      10.01212000      11.76991000  F      -0.02544700      -0.04964700       0.01984200
Cu      10.01212000      10.01212000      11.76991000  F      -0.03870700      -0.08161800       0.04195900
Cu       1.25458000       1.24440000      13.57362000  T       0.00002700       0.00025100       0.00130300
Cu       3.76385000       1.26081000      13.60499000  T      -0.00027200      -0.00019900       0.00038500
Cu       6.24476000       1.26881000      13.60012000  T      -0.00041700       0.00000700       0.00013100
Cu       8.73609000       1.27335000      13.59221000  T       0.00022400      -0.00013700       0.00015900
Cu      11.25659000       1.25945000      13.58187000  T       0.00075800       0.00078700       0.00056800
Cu       1.25589000       3.75416000      13.56576000  T       0.00144700      -0.00038500      -0.00017700
Cu       3.78277000       3.74318000      13.60069000  T       0.00078000       0.00025000       0.00066400
Cu       6.26972000       3.76308000      13.55574000  T       0.00010300      -0.00032900      -0.00093300
Cu       8.76657000       3.78132000      13.60185000  T       0.00011800      -0.00061900       0.00073600
Cu      11.25047000       3.77729000      13.60790000  T       0.00042800       0.00163200       0.00236000
Cu       1.25569000       6.25843000      13.56580000  T       0.00147000       0.00047200      -0.00010900
Cu       3.78285000       6.26846000      13.60052000  T       0.00070000      -0.00022300       0.00077100
Cu       6.27003000       6.24835000      13.55571000  T      -0.00020600       0.00032100      -0.00100700
Cu       8.76655000       6.23052000      13.60264000  T      -0.00003800       0.00009100       0.00137600
Cu      11.25042000       6.23461000      13.60789000  T       0.00072000      -0.00183200       0.00230700
Cu       1.25485000       8.76751000      13.57381000  T       0.00010400      -0.00019700       0.00121800
Cu       3.76375000       8.75069000      13.60498000  T      -0.00022200       0.00018500       0.00035400
Cu       6.24478000       8.74348000      13.59951000  T      -0.00048400       0.00021500       0.00001200
Cu       8.73624000       8.73926000      13.59185000  T       0.00022200       0.00010200       0.00012500
Cu      11.25690000       8.75312000      13.58149000  T       0.00095200      -0.00067700       0.00049900
Cu       1.25516000      11.26385000      13.59426000  T      -0.00074100       0.00000300       0.00072700
Cu       3.74722000      11.26356000      13.57830000  T      -0.00128500      -0.00005400       0.00057100
Cu       6.25160000      11.26421000      13.56159000  T      -0.00136500       0.00010300       0.00090000
Cu       8.76125000      11.26412000      13.55910000  T      -0.00119800       0.00005700       0.00080500
Cu      11.27989000      11.26417000      13.56481000  T      -0.00090200       0.00004700       0.00076500
Cu      -0.00365000       0.00600000      15.36342000  T      -0.00108900       0.00073800       0.00066600
Cu       2.51012000       0.00726000      15.37022000  T      -0.00091300       0.00006300       0.00084900
Cu       5.01103000      12.48820000      15.36271000  T      -0.00134400      -0.00056100       0.00043100
Cu       7.50787000      12.48978000      15.33503000  T      -0.00121300       0.00004800       0.00060400
Cu      10.01423000      12.48244000      15.33664000  T      -0.00110300       0.00026700       0.00031200
Cu       0.01834000       2.49885000      15.34519000  T       0.00096000       0.00334100       0.00269800
Cu       2.47794000       2.50882000      15.35844000  T       0.00144500       0.00037200       0.00079900
Cu       4.94279000       2.42535000      15.50134000  T       0.00128600      -0.00059800      -0.00004100
Cu       7.42094000       2.47243000      15.42215000  T       0.00347200      -0.00161700      -0.00208400
Cu      10.07556000       2.41436000      15.38292000  T       0.00236200       0.00056500       0.00148600
Cu       0.11713000       5.00699000      15.37739000  T       0.00795900       0.00002500       0.00151700
Cu       2.50941000       5.00579000      15.33916000  T       0.00554300       0.00012300       0.00142900
Pd       5.01845000       5.00537000      15.51316000  T       0.01541300      -0.00036800      -0.00515000
Y        7.58653000       5.00595000      17.26011000  T      -0.00237400       0.00020000      -0.00091900
Cu      10.29208000       5.00552000      15.71408000  T       0.01994100       0.00006000       0.02860500
Cu       0.01837000       7.51500000      15.34467000  T       0.00130200      -0.00329400       0.00285800
Cu       2.47797000       7.50205000      15.35851000  T       0.00137000      -0.00014600       0.00087400
Cu       4.94272000       7.58456000      15.50063000  T       0.00085800       0.00072500      -0.00018800
Cu       7.42030000       7.54181000      15.42205000  T       0.00289200       0.00233400      -0.00228700
Cu      10.07579000       7.59814000      15.38286000  T       0.00319500      -0.00030100       0.00079000
Cu      -0.00313000      10.00872000      15.36334000  T      -0.00092100      -0.00077600       0.00075300
Cu       2.51086000      10.00512000      15.37014000  T      -0.00077900      -0.00006100       0.00079700
Cu       5.01184000      10.03635000      15.36218000  T      -0.00119600       0.00050500       0.00049200
Cu       7.50819000      10.03820000      15.33443000  T      -0.00111100       0.00028300       0.00057700
Cu      10.01466000      10.04471000      15.33608000  T      -0.00099900      -0.00049300       0.00027800
O        6.08246000       3.44600000      16.69994000  T       0.00127900      -0.00208400       0.00124100
O        6.08264000       6.56568000      16.69990000  T       0.00070000       0.00277200       0.00151500
O        8.81909000       6.45584000      16.22844000  T      -0.00033900      -0.00127900      -0.00382800
O        8.82071000       3.55347000      16.23427000  T       0.00040200      -0.00004100      -0.00119000
C       10.72937000       5.01028000      17.68272000  T      -0.01417300       0.00034000       0.01542100
O       11.96783000       5.01463000      18.22496000  T      -0.02311800      -0.00055400      -0.00182700
O        9.74862000       5.01060000      18.46889000  T      -0.02032900       0.00002500       0.00587900
H       11.88135000       5.01730000      19.21161000  T      -0.02477000       0.00010600       0.01797800
108
Lattice="12.515153631 0.0 0.0 0.0 12.515153631 0.0 0.0 0.0 25.30973" Properties=species:S:1:pos:R:3:move_mask:L:1:forces:R:3 stress="0.007205647523576696 4.300399787733565e-06 9.399712743580188e-05 4.300399787733565e-06 0.007495509448891841 1.6914489731143631e-06 9.399712743580188e-05 1.6914489731143631e-06 0.0018378560526802067" free_energy=-444.91073268 energy=-444.90694992 pbc="T T T"
Cu       1.25152000       1.25152000      10.00000000  F      -0.00601500      -0.01344800      -0.07804700
Cu       3.75455000       1.25152000      10.00000000  F       0.01751400       0.00383000      -0.07764900
Cu       6.25758000       1.25152000      10.00000000  F      -0.01758400       0.01536000      -0.06142500
Cu       8.76061000       1.25152000      10.00000000  F       0.00993400       0.01888300      -0.05165200
Cu      11.26364000       1.25152000      10.00000000  F      -0.00273200       0.01284400      -0.07448000
Cu       1.25152000       3.75455000      10.00000000  F      -0.01014900       0.00898700      -0.07248800
Cu       3.75455000       3.75455000      10.00000000  F       0.01773000      -0.01363800      -0.06006600
Cu       6.25758000       3.75455000      10.00000000  F      -0.01890100      -0.01479100      -0.07569700
Cu       8.76061000       3.75455000      10.00000000  F       0.02021600      -0.02016100      -0.09146500
Cu      11.26364000       3.75455000      10.00000000  F      -0.00877200      -0.00559600      -0.05128500
Cu       1.25152000       6.25758000      10.00000000  F      -0.01037500      -0.00761600      -0.07404400
Cu       3.75455000       6.25758000      10.00000000  F       0.01890100       0.01418700      -0.06046600
Cu       6.25758000       6.25758000      10.00000000  F      -0.01885900       0.01664000      -0.07875600
Cu       8.76061000       6.25758000      10.00000000  F       0.01893800       0.02081900      -0.09221700
Cu      11.26364000       6.25758000      10.00000000  F      -0.00843800       0.00692000      -0.05297200
Cu       1.25152000       8.76061000      10.00000000  F      -0.00567100       0.01007300      -0.07692300
Cu       3.75455000       8.76061000      10.00000000  F       0.01674200      -0.00616300      -0.07670100
Cu       6.25758000       8.76061000      10.00000000  F      -0.01759300      -0.01944400      -0.05919400
Cu       8.76061000       8.76061000      10.00000000  F       0.01069300      -0.02145100      -0.05068300
Cu      11.26364000       8.76061000      10.00000000  F      -0.00304900      -0.01623700      -0.07303000
Cu       1.25152000      11.26364000      10.00000000  F      -0.01023900       0.00171100      -0.01474600
Cu       3.75455000      11.26364000      10.00000000  F      -0.00465900       0.00148900      -0.07105400
Cu       6.25758000      11.26364000      10.00000000  F      -0.00835700       0.00192900      -0.07694600
Cu       8.76061000      11.26364000      10.00000000  F      -0.00023700       0.00163500      -0.06042000
Cu      11.26364000      11.26364000      10.00000000  F       0.02293900       0.00183600      -0.07460800
Cu       0.00000000       0.00000000      11.76991000  F      -0.00215600       0.04777900       0.03246800
Cu       2.50303000       0.00000000      11.76991000  F       0.04581600       0.01540800       0.06890800
Cu       5.00606000       0.00000000      11.76991000  F      -0.00333100       0.07885400       0.04401900
Cu       7.50909000       0.00000000      11.76991000  F      -0.02588000       0.05291500       0.02097100
Cu      10.01212000       0.00000000      11.76991000  F      -0.03772700       0.08438900       0.04165200
Cu       0.00000000       2.50303000      11.76991000  F      -0.05224200       0.04148300       0.04935300
Cu       2.50303000       2.50303000      11.76991000  F       0.07092200       0.03461000       0.05364700
Cu       5.00606000       2.50303000      11.76991000  F      -0.03864400      -0.06583900       0.00556500
Cu       7.50909000       2.50303000      11.76991000  F       0.01648700       0.03274400       0.11951700
Cu      10.01212000       2.50303000      11.76991000  F       0.01420900       0.00767500       0.09400900
Cu       0.00000000       5.00606000      11.76991000  F      -0.05381800       0.00174200       0.02742500
Cu       2.50303000       5.00606000      11.76991000  F       0.10908300       0.00145500       0.07032200
Cu       5.00606000       5.00606000      11.76991000  F      -0.06315700       0.00142800       0.05866100
Cu       7.50909000       5.00606000      11.76991000  F       0.07648800       0.00225300       0.18257600
Cu      10.01212000       5.00606000      11.76991000  F      -0.01212000       0.00193300       0.19863500
Cu       0.00000000       7.50909000      11.76991000  F      -0.05248900      -0.04506200       0.05088300
Cu       2.50303000       7.50909000      11.76991000  F       0.07034500      -0.03723300       0.05333600
Cu       5.00606000       7.50909000      11.76991000  F      -0.03732600       0.06118300       0.00672700
Cu       7.50909000       7.50909000      11.76991000  F       0.01682300      -0.03771800       0.12157200
Cu      10.01212000       7.50909000      11.76991000  F       0.01393300      -0.01104000       0.09638200
Cu       0.00000000      10.01212000      11.76991000  F      -0.00147400      -0.04495600       0.03035200
Cu       2.50303000      10.01212000      11.76991000  F       0.04669600      -0.01498100       0.06883000
Cu       5.00606000      10.01212000      11.76991000  F      -0.00415200      -0.07672300       0.04280200
Cu       7.50909000      10.01212000      11.76991000  F      -0.02535500      -0.04973600       0.01964900
Cu      10.01212000      10.01212000      11.76991000  F      -0.03864600      -0.08171100       0.04165100
Cu       1.25473000       1.24441000      13.57368000  T      -0.00003800       0.00059700       0.00125900
Cu       3.76393000       1.26073000      13.60495000  T       0.00007700       0.00030500       0.00059700
Cu       6.24486000       1.26875000      13.60001000  T      -0.00043500      -0.00002000       0.00018200
Cu       8.73632000       1.27326000      13.59209000  T      -0.00004000      -0.00033800       0.00000600
Cu      11.25693000       1.25949000      13.58176000  T       0.00017400       0.00097500       0.00059500
Cu       1.25642000       3.75407000      13.56562000  T       0.00141100       0.00002900      -0.00035300
Cu       3.78316000       3.74314000      13.60064000  T       0.00110600       0.00029400       0.00074500
Cu       6.27001000       3.76305000      13.55558000  T      -0.00018300      -0.00038700      -0.00102000
Cu       8.76694000       3.78123000      13.60198000  T      -0.00036600      -0.00067800       0.00042000
Cu      11.25093000       3.77755000      13.60815000  T      -0.00040500       0.00181000       0.00247300
Cu       1.25622000       6.25853000      13.56568000  T       0.00151200       0.00012300      -0.00033800
Cu       3.78322000       6.26849000      13.60048000  T       0.00104900      -0.00030800       0.00082600
Cu       6.27029000       6.24839000      13.55555000  T      -0.00052400       0.00034600      -0.00118800
Cu       8.76690000       6.23055000      13.60287000  T      -0.00053800      -0.00000600       0.00117500
Cu      11.25089000       6.23433000      13.60814000  T      -0.00012700      -0.00206800       0.00233500
Cu       1.25500000       8.76751000      13.57386000  T       0.00004500      -0.00052300       0.00117500
Cu       3.76383000       8.75074000      13.60493000  T       0.00015300      -0.00022800       0.00051200
Cu       6.24488000       8.74357000      13.59938000  T      -0.00051900       0.00029000       0.00000300
Cu       8.73648000       8.73937000      13.59173000  T      -0.00003300       0.00028500      -0.00008300
Cu      11.25726000       8.75311000      13.58139000  T       0.00043500      -0.00087300       0.00044100
Cu       1.25509000      11.26385000      13.59423000  T      -0.00080000       0.00001700       0.00085600
Cu       3.74711000      11.26355000      13.57826000  T      -0.00080300       0.00000100       0.00067400
Cu       6.25151000      11.26422000      13.56159000  T      -0.00103500       0.00013200       0.00080500
Cu       8.76122000      11.26413000      13.55906000  T      -0.00162800       0.00004400       0.00065300
Cu      11.27990000      11.26418000      13.56475000  T      -0.00145200       0.00004900       0.00068200
Cu      -0.00377000       0.00611000      15.36334000  T      -0.00111500       0.00101500       0.00113000
Cu       2.50999000       0.00724000      15.37019000  T      -0.00061000       0.00022700       0.00120100
Cu       5.01093000      12.48811000      15.36268000  T      -0.00114500      -0.00021400       0.00045300
Cu       7.50782000      12.48979000      15.33500000  T      -0.00143100       0.00010600       0.00044100
Cu      10.01418000      12.48243000      15.33653000  T      -0.00131300       0.00025000       0.00045200
Cu       0.01882000       2.49927000      15.34540000  T       0.00085100       0.00341500       0.00300000
Cu       2.47844000       2.50885000      15.35847000  T       0.00166200       0.00049100       0.00103000
Cu       4.94337000       2.42524000      15.50118000  T       0.00181500       0.00003900       0.00015800
Cu       7.42182000       2.47225000      15.42168000  T       0.00270100      -0.00138000      -0.00204200
Cu      10.07643000       2.41418000      15.38279000  T       0.00258100       0.00016700       0.00114800
Cu       0.11907000       5.00698000      15.37733000  T       0.00949000       0.00010600       0.00150500
Cu       2.51055000       5.00580000      15.33918000  T       0.00648500       0.00010100       0.00163500
Pd       5.01929000       5.00535000      15.51297000  T       0.01866200      -0.00043800      -0.00559000
Y        7.58669000       5.00595000      17.25934000  T      -0.00419400       0.00026100      -0.00236200
Cu      10.29645000       5.00546000      15.71872000  T       0.02031100       0.00024100       0.03199000
Cu       0.01887000       7.51459000      15.34491000  T       0.00120000      -0.00348200       0.00314600
Cu       2.47845000       7.50204000      15.35855000  T       0.00160800      -0.00026900       0.00111400
Cu       4.94324000       7.58466000      15.50048000  T       0.00143200       0.00015000      -0.00007200
Cu       7.42110000       7.54212000      15.42157000  T       0.00211400       0.00226900      -0.00238100
Cu      10.07671000       7.59835000      15.38268000  T       0.00301000      -0.00024500       0.00078700
Cu      -0.00321000      10.00863000      15.36329000  T      -0.00096100      -0.00095100       0.00117400
Cu       2.51076000      10.00514000      15.37011000  T      -0.00050000      -0.00014800       0.00117700
Cu       5.01177000      10.03639000      15.36215000  T      -0.00102500       0.00031000       0.00048100
Cu       7.50816000      10.03826000      15.33441000  T      -0.00131500       0.00032000       0.00043900
Cu      10.01463000      10.04474000      15.33596000  T      -0.00121500      -0.00044900       0.00042300
O        6.08383000       3.44528000      16.69950000  T      -0.00064200      -0.00134300       0.00111000
O        6.08398000       6.56644000      16.69945000  T      -0.00079200       0.00181000       0.00161200
O        8.82000000       6.45358000      16.22445000  T      -0.00204400       0.00011600      -0.00164500
O        8.82177000       3.55528000      16.23109000  T      -0.00153700      -0.00160100       0.00109400
C       10.72708000       5.01046000      17.68988000  T      -0.02323400       0.00038200       0.00650100
O       11.96190000       5.01457000      18.23905000  T      -0.01821600      -0.00060200       0.01152700
O        9.74219000       5.01101000      18.47141000  T      -0.02300100       0.00000000       0.00993500
H       11.86848000       5.01729000      19.22543000  T      -0.02093200       0.00002700       0.00309900
108
Lattice="12.515153631 0.0 0.0 0.0 12.515153631 0.0 0.0 0.0 25.30973" Properties=species:S:1:pos:R:3:move_mask:L:1:forces:R:3 stress="0.00718584321512027 4.5375771345171295e-06 0.00010599330797574949 4.5375771345171295e-06 0.007487358037973438 1.3668904985684335e-06 0.00010599330797574949 1.3668904985684335e-06 0.0018420316222854225" free_energy=-444.91084498 energy=-444.90704434 pbc="T T T"
Cu       1.25152000       1.25152000      10.00000000  F      -0.00581400      -0.01378800      -0.07815500
Cu       3.75455000       1.25152000      10.00000000  F       0.01781100       0.00353300      -0.07761700
Cu       6.25758000       1.25152000      10.00000000  F      -0.01738800       0.01502000      -0.06113200
Cu       8.76061000       1.25152000      10.00000000  F       0.00994900       0.01852500      -0.05138900
Cu      11.26364000       1.25152000      10.00000000  F      -0.00266500       0.01257400      -0.07441900
Cu       1.25152000       3.75455000      10.00000000  F      -0.00999600       0.00880300      -0.07264000
Cu       3.75455000       3.75455000      10.00000000  F       0.01810000      -0.01386100      -0.06020500
Cu       6.25758000       3.75455000      10.00000000  F      -0.01870600      -0.01492100      -0.07555600
Cu       8.76061000       3.75455000      10.00000000  F       0.02029800      -0.02023100      -0.09167100
Cu      11.26364000       3.75455000      10.00000000  F      -0.00876000      -0.00569300      -0.05127300
Cu       1.25152000       6.25758000      10.00000000  F      -0.01021100      -0.00738300      -0.07417200
Cu       3.75455000       6.25758000      10.00000000  F       0.01925800       0.01443300      -0.06059900
Cu       6.25758000       6.25758000      10.00000000  F      -0.01866200       0.01680000      -0.07863600
Cu       8.76061000       6.25758000      10.00000000  F       0.01903300       0.02093100      -0.09241800
Cu      11.26364000       6.25758000      10.00000000  F      -0.00843000       0.00706600      -0.05294500
Cu       1.25152000       8.76061000      10.00000000  F      -0.00547100       0.01039900      -0.07701600
Cu       3.75455000       8.76061000      10.00000000  F       0.01703100      -0.00586800      -0.07667400
Cu       6.25758000       8.76061000      10.00000000  F      -0.01739400      -0.01911200      -0.05893600
Cu       8.76061000       8.76061000      10.00000000  F       0.01072500      -0.02111700      -0.05040600
Cu      11.26364000       8.76061000      10.00000000  F      -0.00298700      -0.01598300      -0.07292000
Cu       1.25152000      11.26364000      10.00000000  F      -0.01005100       0.00168600      -0.01478900
Cu       3.75455000      11.26364000      10.00000000  F      -0.00441300       0.00147500      -0.07085800
Cu       6.25758000      11.26364000      10.00000000  F      -0.00809200       0.00191300      -0.07669600
Cu       8.76061000      11.26364000      10.00000000  F      -0.00030400       0.00162800      -0.06012100
Cu      11.26364000      11.26364000      10.00000000  F       0.02303500       0.00181400      -0.07465700
Cu       0.00000000       0.00000000      11.76991000  F      -0.00163200       0.04757400       0.03253200
Cu       2.50303000       0.00000000      11.76991000  F       0.04611200       0.01520600       0.06903100
Cu       5.00606000       0.00000000      11.76991000  F      -0.00307600       0.07813200       0.04393700
Cu       7.50909000       0.00000000      11.76991000  F      -0.02581700       0.05266900       0.02096900
Cu      10.01212000       0.00000000      11.76991000  F      -0.03759600       0.08420300       0.04164100
Cu       0.00000000       2.50303000      11.76991000  F      -0.05183900       0.04139000       0.04943900
Cu       2.50303000       2.50303000      11.76991000  F       0.07194800       0.03386200       0.05315400
Cu       5.00606000       2.50303000      11.76991000  F      -0.03801000      -0.06645800       0.00525400
Cu       7.50909000       2.50303000      11.76991000  F       0.01700200       0.03218700       0.11933000
Cu      10.01212000       2.50303000      11.76991000  F       0.01491700       0.00816300       0.09483300
Cu       0.00000000       5.00606000      11.76991000  F      -0.05309500       0.00178200       0.02769900
Cu       2.50303000       5.00606000      11.76991000  F       0.11016200       0.00150800       0.06970000
Cu       5.00606000       5.00606000      11.76991000  F      -0.06251100       0.00145200       0.05810000
Cu       7.50909000       5.00606000      11.76991000  F       0.07843000       0.00238000       0.18302100
Cu      10.01212000       5.00606000      11.76991000  F      -0.01197700       0.00208000       0.20049400
Cu       0.00000000       7.50909000      11.76991000  F      -0.05210900      -0.04493800       0.05104000
Cu       2.50303000       7.50909000      11.76991000  F       0.07136600      -0.03647200       0.05285200
Cu       5.00606000       7.50909000      11.76991000  F      -0.03668200       0.06183200       0.00642000
Cu       7.50909000       7.50909000      11.76991000  F       0.01747300      -0.03723100       0.12156400
Cu      10.01212000       7.50909000      11.76991000  F       0.01450800      -0.01163600       0.09752600
Cu       0.00000000      10.01212000      11.76991000  F      -0.00094700      -0.04478100       0.03043300
Cu       2.50303000      10.01212000      11.76991000  F       0.04699400      -0.01484500       0.06894800
Cu       5.00606000      10.01212000      11.76991000  F      -0.00391500      -0.07602100       0.04271100
Cu       7.50909000      10.01212000      11.76991000  F      -0.02525900      -0.04950600       0.01967000
Cu      10.01212000      10.01212000      11.76991000  F      -0.03850800      -0.08157100       0.04171200
Cu       1.25486000       1.24444000      13.57375000  T       0.00008200      -0.00012000       0.00087100
Cu       3.76402000       1.26068000      13.60493000  T       0.00050300      -0.00036700       0.00048000
Cu       6.24496000       1.26869000      13.59992000  T      -0.00013400      -0.00082200       0.00011400
Cu       8.73655000       1.27316000      13.59198000  T      -0.00026400      -0.00095300       0.00001100
Cu      11.25725000       1.25955000      13.58167000  T      -0.00018900       0.00014700       0.00054500
Cu       1.25695000       3.75399000      13.56548000  T       0.00069400      -0.00013400      -0.00011100
Cu       3.78355000       3.74310000      13.60061000  T       0.00105100      -0.00022600       0.00048100
Cu       6.27028000       3.76303000      13.55541000  T       0.00020800      -0.00079900      -0.00074300
Cu       8.76729000       3.78114000      13.60212000  T      -0.00026100      -0.00043200       0.00063900
Cu      11.25135000       3.77783000      13.60844000  T      -0.00109500       0.00125200       0.00224700
Cu       1.25676000       6.25863000      13.56556000  T       0.00080500       0.00036100      -0.00013400
Cu       3.78361000       6.26851000      13.60046000  T       0.00101600       0.00030800       0.00052400
Cu       6.27053000       6.24843000      13.55537000  T      -0.00001500       0.00092900      -0.00083000
Cu       8.76723000       6.23058000      13.60311000  T      -0.00036200       0.00011800       0.00120000
Cu      11.25134000       6.23402000      13.60843000  T      -0.00091700      -0.00128500       0.00214600
Cu       1.25514000       8.76748000      13.57394000  T       0.00010900       0.00015800       0.00083500
Cu       3.76391000       8.75077000      13.60491000  T       0.00055400       0.00042800       0.00042700
Cu       6.24497000       8.74367000      13.59927000  T      -0.00016500       0.00096700      -0.00001000
Cu       8.73671000       8.73948000      13.59161000  T      -0.00026300       0.00081800      -0.00003800
Cu      11.25761000       8.75306000      13.58130000  T      -0.00010400      -0.00019700       0.00046300
Cu       1.25502000      11.26385000      13.59422000  T      -0.00023900      -0.00003800       0.00064700
Cu       3.74700000      11.26354000      13.57824000  T       0.00009800      -0.00003300       0.00044900
Cu       6.25142000      11.26424000      13.56159000  T      -0.00038000       0.00001200       0.00043100
Cu       8.76117000      11.26415000      13.55903000  T      -0.00134800      -0.00008900       0.00044000
Cu      11.27988000      11.26419000      13.56472000  T      -0.00119900      -0.00007300       0.00055600
Cu      -0.00389000       0.00624000      15.36330000  T      -0.00059600       0.00045500       0.00097000
Cu       2.50986000       0.00722000      15.37018000  T       0.00002300      -0.00017600       0.00086800
Cu       5.01082000      12.48803000      15.36266000  T      -0.00039000      -0.00035100       0.00007300
Cu       7.50776000      12.48979000      15.33499000  T      -0.00097000      -0.00033800      -0.00008700
Cu      10.01412000      12.48242000      15.33642000  T      -0.00098800      -0.00029600       0.00023500
Cu       0.01929000       2.49973000      15.34564000  T       0.00046700       0.00152300       0.00208300
Cu       2.47894000       2.50889000      15.35852000  T       0.00111500      -0.00024000       0.00110800
Cu       4.94396000       2.42515000      15.50103000  T       0.00132400      -0.00046400       0.00026000
Cu       7.42270000       2.47205000      15.42120000  T       0.00147900      -0.00108900      -0.00121300
Cu      10.07732000       2.41401000      15.38267000  T       0.00130700       0.00026600       0.00083600
Cu       0.12113000       5.00698000      15.37728000  T       0.00751900       0.00022900       0.00087900
Cu       2.51176000       5.00581000      15.33923000  T       0.00526700       0.00008500       0.00162400
Pd       5.02029000       5.00533000      15.51273000  T       0.00766600       0.00003100      -0.00210900
Y        7.58673000       5.00595000      17.25853000  T      -0.00433200       0.00029600      -0.00342700
Cu      10.30105000       5.00541000      15.72384000  T       0.01365100       0.00023900       0.02349900
Cu       0.01937000       7.51412000      15.34519000  T       0.00064800      -0.00157400       0.00211700
Cu       2.47895000       7.50202000      15.35862000  T       0.00106400       0.00040100       0.00113700
Cu       4.94379000       7.58473000      15.50032000  T       0.00116400       0.00055500       0.00015700
Cu       7.42188000       7.54245000      15.42107000  T       0.00079500       0.00149900      -0.00114300
Cu      10.07765000       7.59855000      15.38251000  T       0.00136100      -0.00028200       0.00059500
Cu      -0.00330000      10.00852000      15.36326000  T      -0.00054600      -0.00051400       0.00093300
Cu       2.51068000      10.00514000      15.37010000  T       0.00008100       0.00016200       0.00086100
Cu       5.01169000      10.03644000      15.36213000  T      -0.00030400       0.00038600       0.00004400
Cu       7.50812000      10.03831000      15.33439000  T      -0.00089700       0.00050200      -0.00014100
Cu      10.01459000      10.04475000      15.33585000  T      -0.00095000      -0.00000600       0.00017100
O        6.08514000       3.44457000      16.69909000  T      -0.00103700      -0.00154100       0.00222000
O        6.08528000       6.56720000      16.69904000  T      -0.00099400       0.00195800       0.00257600
O        8.82085000       6.45137000      16.22051000  T      -0.00174500      -0.00004500      -0.00069400
O        8.82278000       3.55703000      16.22797000  T      -0.00151200      -0.00116500       0.00180200
C       10.72430000       5.01064000      17.69696000  T      -0.02375200       0.00031700       0.00512800
O       11.95575000       5.01450000      18.25327000  T      -0.01584400      -0.00000000       0.01835200
O        9.73541000       5.01141000      18.47402000  T      -0.02064900      -0.00028700       0.01361300
H       11.85543000       5.01728000      19.23901000  T      -0.01944700      -0.00006800      -0.00107800
