108
Lattice="12.515153631 0.0 0.0 0.0 12.515153631 0.0 0.0 0.0 25.30973" Properties=species:S:1:pos:R:3:move_mask:L:1:forces:R:3 stress="0.007984494239850039 -3.851635281582559e-05 -4.935161265835892e-05 -3.851635281582559e-05 0.008060909036078229 0.00029454929866868274 -4.935161265835892e-05 0.00029454929866868274 0.0027987238995916823" free_energy=-443.99730017 energy=-443.993642 pbc="T T T"
Cu       1.25152000       1.25152000      10.00000000  F       0.00160200      -0.02012000      -0.08019000
Cu       3.75455000       1.25152000      10.00000000  F       0.00685100       0.00181200      -0.07154900
Cu       6.25758000       1.25152000      10.00000000  F      -0.01574500       0.01437300      -0.05216700
Cu       8.76061000       1.25152000      10.00000000  F       0.01459600       0.00800600      -0.04494600
Cu      11.26364000       1.25152000      10.00000000  F      -0.00801500      -0.00022200      -0.07178900
Cu       1.25152000       3.75455000      10.00000000  F      -0.00041600       0.00500700      -0.06470300
Cu       3.75455000       3.75455000      10.00000000  F       0.01316100      -0.01385700      -0.05705600
Cu       6.25758000       3.75455000      10.00000000  F      -0.01772600      -0.01335100      -0.08417700
Cu       8.76061000       3.75455000      10.00000000  F       0.01878500      -0.01186600      -0.08748300
Cu      11.26364000       3.75455000      10.00000000  F      -0.01280500       0.00144200      -0.05907400
Cu       1.25152000       6.25758000      10.00000000  F      -0.00455200      -0.00017100      -0.07556300
Cu       3.75455000       6.25758000      10.00000000  F       0.01335500       0.02089300      -0.06243500
Cu       6.25758000       6.25758000      10.00000000  F      -0.01722800       0.01868200      -0.08543900
Cu       8.76061000       6.25758000      10.00000000  F       0.01893000       0.01820900      -0.08368000
Cu      11.26364000       6.25758000      10.00000000  F      -0.00874300       0.00590500      -0.06641900
Cu       1.25152000       8.76061000      10.00000000  F      -0.00180800       0.00796000      -0.07776200
Cu       3.75455000       8.76061000      10.00000000  F       0.00272000      -0.01264700      -0.06864700
Cu       6.25758000       8.76061000      10.00000000  F      -0.00945200      -0.01980700      -0.05700900
Cu       8.76061000       8.76061000      10.00000000  F       0.01211200      -0.01479200      -0.05210800
Cu      11.26364000       8.76061000      10.00000000  F      -0.00582300      -0.01254000      -0.07207200
Cu       1.25152000      11.26364000      10.00000000  F      -0.00350900       0.00732200      -0.01798200
Cu       3.75455000      11.26364000      10.00000000  F      -0.00975300       0.00407600      -0.07097300
Cu       6.25758000      11.26364000      10.00000000  F       0.00011700       0.00373100      -0.06951800
Cu       8.76061000      11.26364000      10.00000000  F      -0.00323700      -0.00021800      -0.06900700
Cu      11.26364000      11.26364000      10.00000000  F       0.01479400       0.00278800      -0.06759600
Cu       0.00000000       0.00000000      11.76991000  F      -0.01601700       0.02789800       0.11330800
Cu       2.50303000       0.00000000      11.76991000  F       0.03364800       0.00277000       0.09717800
Cu       5.00606000       0.00000000      11.76991000  F       0.05525200       0.06209500       0.11731300
Cu       7.50909000       0.00000000      11.76991000  F       0.01489300       0.06057300       0.09714000
Cu      10.01212000       0.00000000      11.76991000  F      -0.04783400       0.06653400       0.13483600
Cu       0.00000000       2.50303000      11.76991000  F      -0.07901100       0.01577500       0.07980200
Cu       2.50303000       2.50303000      11.76991000  F       0.06201800       0.02057100       0.07406300
Cu       5.00606000       2.50303000      11.76991000  F       0.00615600      -0.02907600       0.12482900
Cu       7.50909000       2.50303000      11.76991000  F      -0.01827400      -0.01242800       0.18218700
Cu      10.01212000       2.50303000      11.76991000  F       0.00388300      -0.02812900       0.12206100
Cu       0.00000000       5.00606000      11.76991000  F      -0.07006700       0.03516500       0.05466200
Cu       2.50303000       5.00606000      11.76991000  F       0.04864000       0.01308000       0.07096200
Cu       5.00606000       5.00606000      11.76991000  F      -0.00222000       0.00055100       0.15611400
Cu       7.50909000       5.00606000      11.76991000  F      -0.05183400      -0.01343100       0.18642200
Cu      10.01212000       5.00606000      11.76991000  F      -0.01696800       0.00277500       0.12043700
Cu       0.00000000       7.50909000      11.76991000  F      -0.05093800       0.00576700       0.10523700
Cu       2.50303000       7.50909000      11.76991000  F       0.04138100       0.04372200       0.06195500
Cu       5.00606000       7.50909000      11.76991000  F       0.00532500       0.07394100       0.09355800
Cu       7.50909000       7.50909000      11.76991000  F      -0.04150800       0.05504300       0.12598400
Cu      10.01212000       7.50909000      11.76991000  F       0.05822500       0.09575500       0.06131300
Cu       0.00000000      10.01212000      11.76991000  F      -0.01384400      -0.04005800       0.13655200
Cu       2.50303000      10.01212000      11.76991000  F       0.04249200      -0.03720900       0.14068400
Cu       5.00606000      10.01212000      11.76991000  F       0.07029600      -0.06311300       0.14967400
Cu       7.50909000      10.01212000      11.76991000  F       0.01968900      -0.05516900       0.14274700
Cu      10.01212000      10.01212000      11.76991000  F      -0.05552600      -0.05893600       0.15634000
Cu       1.26028000       1.23653000      13.58370000  T      -0.00544000      -0.02059700      -0.00804200
Cu       3.76999000       1.25947000      13.59869000  T      -0.00656400      -0.01042400      -0.01639600
Cu       6.28391000       1.26744000      13.62418000  T       0.00373500      -0.00434000       0.00282600
Cu       8.75140000       1.27044000      13.62372000  T      -0.00265800      -0.01058700       0.00852700
Cu      11.26401000       1.26485000      13.60067000  T       0.01312200      -0.01542200      -0.01731100
Cu       1.23841000       3.74807000      13.56910000  T       0.00281000       0.00228000      -0.00923100
Cu       3.75320000       3.76650000      13.59828000  T      -0.01712400       0.00204900      -0.00801000
Cu       6.26815000       3.76302000      13.59311000  T       0.00012400      -0.00593300      -0.03420000
Cu       8.73071000       3.76691000      13.58666000  T      -0.00751400      -0.00904300      -0.03356700
Cu      11.23442000       3.78012000      13.59634000  T      -0.00314900      -0.00235500       0.00674000
Cu       1.24429000       6.26160000      13.57575000  T      -0.00189900       0.00158600      -0.00777600
Cu       3.75369000       6.28882000      13.58591000  T      -0.01877600       0.02141500      -0.00906600
Cu       6.26859000       6.25421000      13.58693000  T      -0.00167000       0.01031300      -0.05664500
Cu       8.74096000       6.26430000      13.55875000  T       0.00418900       0.00154200      -0.04870600
Cu      11.24045000       6.27940000      13.60305000  T      -0.00585700       0.00436000       0.00964500
Cu       1.26581000       8.76591000      13.59372000  T      -0.00342500       0.01169500      -0.00685400
Cu       3.78819000       8.76402000      13.62145000  T      -0.00962700       0.01383500      -0.01735700
Cu       6.28455000       8.73518000      13.62735000  T      -0.00721400       0.00197000      -0.00059000
Cu       8.76086000       8.73754000      13.62767000  T       0.00023400       0.00284600       0.00140000
Cu      11.25975000       8.76253000      13.61567000  T       0.01540000       0.00842300      -0.01387200
Cu       1.25156000      11.25810000      13.61216000  T      -0.00938000       0.00085400      -0.00681100
Cu       3.74629000      11.26734000      13.58772000  T      -0.01491900       0.00194700      -0.00977400
Cu       6.26270000      11.26902000      13.58847000  T      -0.00356600      -0.00179400      -0.00759900
Cu       8.75781000      11.27020000      13.59377000  T      -0.00217900      -0.00554500      -0.00453400
Cu      11.27296000      11.26788000      13.58779000  T       0.02794400       0.00014900      -0.00500500
Cu       0.00613000       0.00157000      15.40186000  T      -0.00413300       0.00478800      -0.08919000
Cu       2.51118000       0.00200000      15.39973000  T       0.00152600       0.00155000      -0.08641500
Cu       5.00095000       0.00447000      15.37630000  T       0.01369200       0.00563900      -0.04768200
Cu       7.51154000      12.46594000      15.42222000  T      -0.00142500      -0.02508200      -0.06451200
Cu      10.03173000       0.00068000      15.37423000  T      -0.01735800       0.00153600      -0.05681400
Cu       0.04694000       2.49857000      15.36674000  T       0.00338700       0.01108700      -0.04979900
Cu       2.49373000       2.50043000      15.36622000  T      -0.00620500       0.00823900      -0.04422800
Cu       4.94678000       2.45235000      15.41804000  T      -0.04799100      -0.06543500      -0.08674500
Cu       7.51548000       2.43060000      15.54368000  T      -0.02257800      -0.12177500      -0.01419600
Cu      10.11220000       2.46900000      15.40904000  T       0.04349500      -0.05821300      -0.07296700
Cu      12.49088000       5.00390000      15.34916000  T       0.00168300       0.00293200      -0.05906200
Cu       2.39778000       5.00191000      15.36967000  T      -0.01753600      -0.00906600      -0.05069200
Pd       4.89601000       5.09136000      15.50939000  T      -0.02231800       0.01478600      -0.07225100
Y        7.50824000       4.92769000      17.28754000  T      -0.00385800      -0.11032800       0.13126700
Cu      10.00995000       5.10928000      15.42024000  T       0.10337200       0.04103900      -0.13838600
Cu       0.05217000       7.50695000      15.38093000  T       0.00786300      -0.01338500      -0.04716600
Cu       2.53381000       7.49579000      15.38098000  T      -0.00129000      -0.01377500      -0.04903300
Cu       5.01175000       7.64615000      15.51366000  T      -0.04163300       0.06334400      -0.08231200
Cu       7.54799000       7.47369000      15.52231000  T       0.02053300       0.08034100      -0.16510300
Cu      10.09116000       7.60178000      15.48687000  T       0.04234100       0.04328400      -0.07300300
Cu      12.51191000      10.00336000      15.40496000  T      -0.00038400       0.00057100      -0.08836800
Cu       2.51004000      10.00117000      15.40441000  T      -0.00519700      -0.00611500      -0.08360700
Cu       5.00696000      10.08202000      15.38656000  T       0.02008300       0.00359700      -0.03927700
Cu       7.50686000      10.00579000      15.37671000  T       0.00021100      -0.01759900      -0.05487600
Cu      10.01360000      10.05936000      15.38217000  T      -0.01368400       0.00924700      -0.04596100
O        6.03175000       3.58140000      16.47564000  T      -0.04963300       0.01485200       0.02852000
O        6.14026000       6.60050000      16.66036000  T      -0.10749600      -0.04203100       0.14646700
O        8.97763000       6.48217000      16.56104000  T       0.09270800       0.05000800       0.13526600
O        8.95825000       3.71003000      16.26041000  T       0.04095200      -0.05010200       0.02953700
C        7.60506000       2.57069000      18.42386000  T      -0.02265300      -0.33589600       0.58159900
O        7.53551000       2.20655000      19.76014000  T       0.04757300       0.45968400      -0.64315900
O        7.63936000       1.59295000      17.62256000  T       0.00159900       0.11404500       0.23933800
H        7.51565000       1.22331000      19.77311000  T       0.00168400      -0.30606900       0.06900600
108
Lattice="12.515153631 0.0 0.0 0.0 12.515153631 0.0 0.0 0.0 25.30973" Properties=species:S:1:pos:R:3:move_mask:L:1:forces:R:3 stress="0.008053331843999405 -3.358556060637781e-05 -4.197414887156492e-05 -3.358556060637781e-05 0.008137192760614772 0.00029188417427193056 -4.197414887156492e-05 0.00029188417427193056 0.002543521074452568" free_energy=-444.02059966 energy=-444.01692418 pbc="T T T"
Cu       1.25152000       1.25152000      10.00000000  F       0.00155400      -0.02008200      -0.08054100
Cu       3.75455000       1.25152000      10.00000000  F       0.00688200       0.00189500      -0.07182000
Cu       6.25758000       1.25152000      10.00000000  F      -0.01574700       0.01430100      -0.05248500
Cu       8.76061000       1.25152000      10.00000000  F       0.01455200       0.00806700      -0.04514300
Cu      11.26364000       1.25152000      10.00000000  F      -0.00798900      -0.00031600      -0.07212700
Cu       1.25152000       3.75455000      10.00000000  F      -0.00040100       0.00461100      -0.06508800
Cu       3.75455000       3.75455000      10.00000000  F       0.01321800      -0.01404100      -0.05737000
Cu       6.25758000       3.75455000      10.00000000  F      -0.01776300      -0.01342200      -0.08479700
Cu       8.76061000       3.75455000      10.00000000  F       0.01874700      -0.01195000      -0.08805300
Cu      11.26364000       3.75455000      10.00000000  F      -0.01281400       0.00116400      -0.05902500
Cu       1.25152000       6.25758000      10.00000000  F      -0.00458300      -0.00029500      -0.07607700
Cu       3.75455000       6.25758000      10.00000000  F       0.01341800       0.02056400      -0.06285500
Cu       6.25758000       6.25758000      10.00000000  F      -0.01730000       0.01831500      -0.08581500
Cu       8.76061000       6.25758000      10.00000000  F       0.01893700       0.01785600      -0.08397400
Cu      11.26364000       6.25758000      10.00000000  F      -0.00875700       0.00568900      -0.06658700
Cu       1.25152000       8.76061000      10.00000000  F      -0.00180700       0.00780900      -0.07808800
Cu       3.75455000       8.76061000      10.00000000  F       0.00275500      -0.01282800      -0.06912300
Cu       6.25758000       8.76061000      10.00000000  F      -0.00958000      -0.01990800      -0.05732700
Cu       8.76061000       8.76061000      10.00000000  F       0.01213100      -0.01502500      -0.05228200
Cu      11.26364000       8.76061000      10.00000000  F      -0.00579300      -0.01261500      -0.07249900
Cu       1.25152000      11.26364000      10.00000000  F      -0.00364900       0.00720800      -0.01830800
Cu       3.75455000      11.26364000      10.00000000  F      -0.00975400       0.00395800      -0.07090800
Cu       6.25758000      11.26364000      10.00000000  F      -0.00005500       0.00366200      -0.06977500
Cu       8.76061000      11.26364000      10.00000000  F      -0.00310100      -0.00028400      -0.06899100
Cu      11.26364000      11.26364000      10.00000000  F       0.01485000       0.00271800      -0.06772100
Cu       0.00000000       0.00000000      11.76991000  F      -0.01590900       0.02730700       0.10765900
Cu       2.50303000       0.00000000      11.76991000  F       0.03325100       0.00223600       0.09293600
Cu       5.00606000       0.00000000      11.76991000  F       0.05567000       0.06190100       0.11503500
Cu       7.50909000       0.00000000      11.76991000  F       0.01506700       0.06045200       0.09551900
Cu      10.01212000       0.00000000      11.76991000  F      -0.04807900       0.06585300       0.13377200
Cu       0.00000000       2.50303000      11.76991000  F      -0.07901900       0.01615000       0.07798900
Cu       2.50303000       2.50303000      11.76991000  F       0.06114900       0.01984900       0.07134000
Cu       5.00606000       2.50303000      11.76991000  F       0.00561900      -0.03022400       0.12300200
Cu       7.50909000       2.50303000      11.76991000  F      -0.01814400      -0.01497300       0.17922100
Cu      10.01212000       2.50303000      11.76991000  F       0.00420900      -0.02944800       0.12118900
Cu       0.00000000       5.00606000      11.76991000  F      -0.07121700       0.03499500       0.05366600
Cu       2.50303000       5.00606000      11.76991000  F       0.04820600       0.01340100       0.06817200
Cu       5.00606000       5.00606000      11.76991000  F      -0.00471100       0.00013300       0.15280200
Cu       7.50909000       5.00606000      11.76991000  F      -0.05201200      -0.01509600       0.17987000
Cu      10.01212000       5.00606000      11.76991000  F      -0.01466200       0.00161300       0.11745100
Cu       0.00000000       7.50909000      11.76991000  F      -0.05081300       0.00512400       0.10297100
Cu       2.50303000       7.50909000      11.76991000  F       0.03980200       0.04461600       0.05816700
Cu       5.00606000       7.50909000      11.76991000  F       0.00388800       0.07562500       0.08890400
Cu       7.50909000       7.50909000      11.76991000  F      -0.04143800       0.05823500       0.11988500
Cu      10.01212000       7.50909000      11.76991000  F       0.05989600       0.09724100       0.05790800
Cu       0.00000000      10.01212000      11.76991000  F      -0.01349500      -0.03999300       0.13170100
Cu       2.50303000      10.01212000      11.76991000  F       0.04184400      -0.03686400       0.13684800
Cu       5.00606000      10.01212000      11.76991000  F       0.07046900      -0.06285100       0.14679400
Cu       7.50909000      10.01212000      11.76991000  F       0.01958900      -0.05544400       0.14083300
Cu      10.01212000      10.01212000      11.76991000  F      -0.05527700      -0.05878000       0.15503500
Cu       1.26009000       1.23579000      13.58325000  T      -0.00338600      -0.01180500      -0.01536100
Cu       3.76971000       1.25905000      13.59786000  T      -0.00694200      -0.00868600      -0.02421000
Cu       6.28407000       1.26725000      13.62415000  T       0.00372400      -0.00391500      -0.00701800
Cu       8.75127000       1.27002000      13.62392000  T      -0.00274100      -0.00785600      -0.00191900
Cu      11.26452000       1.26424000      13.59981000  T       0.01013600      -0.01204300      -0.02469000
Cu       1.23850000       3.74812000      13.56860000  T       0.00046800      -0.00079800      -0.01642400
Cu       3.75255000       3.76659000      13.59784000  T      -0.01212600       0.00243200      -0.01365700
Cu       6.26812000       3.76278000      13.59181000  T      -0.00161000      -0.00536900      -0.02366900
Cu       8.73040000       3.76652000      13.58544000  T      -0.00616900      -0.00917200      -0.02010800
Cu      11.23431000       3.77998000      13.59642000  T      -0.00188700      -0.00426300      -0.00609600
Cu       1.24421000       6.26168000      13.57531000  T      -0.00260400       0.00226000      -0.01495300
Cu       3.75298000       6.28965000      13.58542000  T      -0.01335100       0.01635100      -0.01488500
Cu       6.26849000       6.25459000      13.58475000  T      -0.00283900       0.00684900      -0.04194800
Cu       8.74110000       6.26434000      13.55686000  T       0.00276200      -0.00041700      -0.03638700
Cu      11.24029000       6.27966000      13.60316000  T      -0.00027300       0.00876300      -0.00807700
Cu       1.26569000       8.76631000      13.59332000  T      -0.00226500       0.00556900      -0.01397400
Cu       3.78781000       8.76460000      13.62061000  T      -0.00795100       0.01279200      -0.02305600
Cu       6.28425000       8.73528000      13.62716000  T      -0.00701300       0.00246800      -0.01132300
Cu       8.76091000       8.73767000      13.62753000  T       0.00342800       0.00258700      -0.01076000
Cu      11.26034000       8.76287000      13.61496000  T       0.01100100       0.00687800      -0.02076500
Cu       1.25123000      11.25812000      13.61172000  T      -0.00519500      -0.00016300      -0.01663900
Cu       3.74576000      11.26741000      13.58723000  T      -0.00872900       0.00103500      -0.01449800
Cu       6.26253000      11.26893000      13.58803000  T      -0.00416100      -0.00242600      -0.01516500
Cu       8.75774000      11.26996000      13.59344000  T       0.00016900      -0.00579500      -0.01359500
Cu      11.27396000      11.26787000      13.58745000  T       0.01619000      -0.00076000      -0.01245900
Cu       0.00594000       0.00179000      15.39834000  T      -0.00523500       0.00541300      -0.07287900
Cu       2.51127000       0.00207000      15.39628000  T       0.00230200       0.00185300      -0.07229100
Cu       5.00152000       0.00461000      15.37438000  T       0.01189200       0.00004400      -0.04096300
Cu       7.51147000      12.46482000      15.41970000  T      -0.00153200      -0.02874900      -0.05171800
Cu      10.03102000       0.00068000      15.37196000  T      -0.01458500      -0.00277400      -0.04791800
Cu       0.04713000       2.49901000      15.36473000  T       0.00558900       0.00913900      -0.04343900
Cu       2.49342000       2.50074000      15.36443000  T      -0.00869400       0.00550100      -0.03887000
Cu       4.94526000       2.45020000      15.41489000  T      -0.01829900      -0.02732000      -0.05451300
Cu       7.51464000       2.42597000      15.54385000  T      -0.01429000      -0.08824500       0.02736100
Cu      10.11358000       2.46696000      15.40636000  T       0.01601700      -0.03147400      -0.04848400
Cu      12.49108000       5.00400000      15.34681000  T       0.00841100       0.00145400      -0.04980000
Cu       2.39712000       5.00155000      15.36765000  T      -0.01155100      -0.00747900      -0.04280200
Pd       4.89558000       5.09195000      15.50691000  T       0.00457100       0.01278800      -0.04076100
Y        7.50836000       4.92372000      17.29218000  T       0.01175600      -0.06510100       0.06383600
Cu      10.01326000       5.11064000      15.41537000  T       0.03659500       0.01808000      -0.07603900
Cu       0.05254000       7.50643000      15.37905000  T       0.00884000      -0.01030100      -0.04005100
Cu       2.53370000       7.49523000      15.37901000  T      -0.00460600      -0.01137500      -0.04192100
Cu       5.01059000       7.64813000      15.51084000  T      -0.00548500       0.02061500      -0.04162600
Cu       7.54862000       7.47602000      15.51656000  T       0.00632300       0.01236000      -0.08634200
Cu      10.09248000       7.60318000      15.48432000  T       0.01398900       0.01648800      -0.03979700
Cu      12.51188000      10.00336000      15.40147000  T      -0.00176400      -0.00084300      -0.07225800
Cu       2.50988000      10.00092000      15.40108000  T      -0.00227300      -0.00538000      -0.06984000
Cu       5.00774000      10.08226000      15.38497000  T       0.01486700       0.00802800      -0.03430700
Cu       7.50685000      10.00514000      15.37453000  T      -0.00017600      -0.01183400      -0.04489800
Cu      10.01307000      10.05978000      15.38032000  T      -0.00962300       0.01019200      -0.04005800
O        6.02954000       3.58170000      16.47644000  T      -0.05028400      -0.00316000       0.00675800
O        6.13602000       6.59905000      16.66549000  T      -0.08195800      -0.02330100       0.07886800
O        8.98122000       6.48426000      16.56592000  T       0.06927900       0.04494500       0.07953700
O        8.96008000       3.70820000      16.26122000  T       0.04481400      -0.02896400       0.00330400
C        7.60469000       2.56562000      18.43612000  T       0.00350600       0.00131200       0.02164700
O        7.53656000       2.21165000      19.74790000  T       0.00635500      -0.00700700       0.05527000
O        7.63951000       1.59350000      17.62920000  T       0.00492000      -0.03800700       0.07523600
H        7.51596000       1.22019000      19.77586000  T       0.00985800      -0.00952600       0.04950100
108
Lattice="12.515153631 0.0 0.0 0.0 12.515153631 0.0 0.0 0.0 25.30973" Properties=species:S:1:pos:R:3:move_mask:L:1:forces:R:3 stress="0.0080612398360619 -2.7337809971368672e-05 -3.4253402082847315e-05 -2.7337809971368672e-05 0.008109805018570396 0.0002504592782034434 -3.4253402082847315e-05 0.0002504592782034434 0.0024288021367188336" free_energy=-444.02916982 energy=-444.02552367 pbc="T T T"
Cu       1.25152000       1.25152000      10.00000000  F       0.00157100      -0.02018200      -0.08048800
Cu       3.75455000       1.25152000      10.00000000  F       0.00701700       0.00163000      -0.07184300
Cu       6.25758000       1.25152000      10.00000000  F      -0.01562500       0.01397500      -0.05284800
Cu       8.76061000       1.25152000      10.00000000  F       0.01446600       0.00780900      -0.04525800
Cu      11.26364000       1.25152000      10.00000000  F      -0.00785700      -0.00049800      -0.07178900
Cu       1.25152000       3.75455000      10.00000000  F      -0.00044900       0.00414600      -0.06540800
Cu       3.75455000       3.75455000      10.00000000  F       0.01324900      -0.01428400      -0.05783600
Cu       6.25758000       3.75455000      10.00000000  F      -0.01768400      -0.01373300      -0.08588300
Cu       8.76061000       3.75455000      10.00000000  F       0.01887500      -0.01229400      -0.08873100
Cu      11.26364000       3.75455000      10.00000000  F      -0.01262000       0.00088600      -0.05865600
Cu       1.25152000       6.25758000      10.00000000  F      -0.00468200      -0.00017600      -0.07663900
Cu       3.75455000       6.25758000      10.00000000  F       0.01355100       0.02050400      -0.06365200
Cu       6.25758000       6.25758000      10.00000000  F      -0.01745600       0.01831800      -0.08629400
Cu       8.76061000       6.25758000      10.00000000  F       0.01922500       0.01792900      -0.08400000
Cu      11.26364000       6.25758000      10.00000000  F      -0.00863100       0.00576500      -0.06650000
Cu       1.25152000       8.76061000      10.00000000  F      -0.00188200       0.00773700      -0.07774900
Cu       3.75455000       8.76061000      10.00000000  F       0.00302000      -0.01284200      -0.06986800
Cu       6.25758000       8.76061000      10.00000000  F      -0.00979600      -0.01988000      -0.05788400
Cu       8.76061000       8.76061000      10.00000000  F       0.01233700      -0.01498300      -0.05239900
Cu      11.26364000       8.76061000      10.00000000  F      -0.00566600      -0.01267800      -0.07262900
Cu       1.25152000      11.26364000      10.00000000  F      -0.00359200       0.00694900      -0.01813100
Cu       3.75455000      11.26364000      10.00000000  F      -0.00959100       0.00373700      -0.07044500
Cu       6.25758000      11.26364000      10.00000000  F      -0.00023400       0.00351700      -0.06993400
Cu       8.76061000      11.26364000      10.00000000  F      -0.00290400      -0.00047200      -0.06885100
Cu      11.26364000      11.26364000      10.00000000  F       0.01485800       0.00240800      -0.06694000
Cu       0.00000000       0.00000000      11.76991000  F      -0.01545200       0.02577400       0.09280700
Cu       2.50303000       0.00000000      11.76991000  F       0.03247500       0.00091900       0.08011400
Cu       5.00606000       0.00000000      11.76991000  F       0.05670700       0.06147700       0.10637100
Cu       7.50909000       0.00000000      11.76991000  F       0.01577500       0.06024400       0.08852000
Cu      10.01212000       0.00000000      11.76991000  F      -0.04898200       0.06436500       0.12689700
Cu       0.00000000       2.50303000      11.76991000  F      -0.07950400       0.01657100       0.06894200
Cu       2.50303000       2.50303000      11.76991000  F       0.06002500       0.01906300       0.06158300
Cu       5.00606000       2.50303000      11.76991000  F       0.00542100      -0.03171200       0.11643800
Cu       7.50909000       2.50303000      11.76991000  F      -0.01744400      -0.01835100       0.17187400
Cu      10.01212000       2.50303000      11.76991000  F       0.00356100      -0.03122100       0.11581200
Cu       0.00000000       5.00606000      11.76991000  F      -0.07378900       0.03489300       0.04723300
Cu       2.50303000       5.00606000      11.76991000  F       0.04748500       0.01426200       0.05931100
Cu       5.00606000       5.00606000      11.76991000  F      -0.00847500      -0.00040400       0.14445500
Cu       7.50909000       5.00606000      11.76991000  F      -0.05180000      -0.01885100       0.16767500
Cu      10.01212000       5.00606000      11.76991000  F      -0.01143900      -0.00037800       0.10994700
Cu       0.00000000       7.50909000      11.76991000  F      -0.05050900       0.00531100       0.09283100
Cu       2.50303000       7.50909000      11.76991000  F       0.03734900       0.04646000       0.04714400
Cu       5.00606000       7.50909000      11.76991000  F       0.00171600       0.07852200       0.07692400
Cu       7.50909000       7.50909000      11.76991000  F      -0.04079000       0.06359000       0.10685800
Cu      10.01212000       7.50909000      11.76991000  F       0.06207500       0.09988500       0.04724100
Cu       0.00000000      10.01212000      11.76991000  F      -0.01273600      -0.04009600       0.11849400
Cu       2.50303000      10.01212000      11.76991000  F       0.04073900      -0.03622100       0.12516000
Cu       5.00606000      10.01212000      11.76991000  F       0.07078000      -0.06213100       0.13658800
Cu       7.50909000      10.01212000      11.76991000  F       0.01980800      -0.05634100       0.13298700
Cu      10.01212000      10.01212000      11.76991000  F      -0.05485600      -0.05853200       0.14681500
Cu       1.25978000       1.23473000      13.58149000  T      -0.00057600       0.00073700      -0.02470700
Cu       3.76904000       1.25823000      13.59525000  T      -0.00259600      -0.00194800      -0.02784500
Cu       6.28445000       1.26686000      13.62323000  T       0.00347800      -0.00116200      -0.01751500
Cu       8.75096000       1.26926000      13.62351000  T      -0.00350400      -0.00235600      -0.01456600
Cu      11.26547000       1.26308000      13.59713000  T       0.00181400      -0.00396700      -0.02862400
Cu       1.23852000       3.74800000      13.56673000  T      -0.00238000      -0.00299900      -0.02536600
Cu       3.75143000       3.76686000      13.59635000  T      -0.00177500       0.00335400      -0.01733900
Cu       6.26794000       3.76223000      13.58956000  T      -0.00114200      -0.00447600      -0.00808300
Cu       8.72975000       3.76556000      13.58358000  T      -0.00538900      -0.00863600      -0.00262900
Cu      11.23411000       3.77953000      13.59555000  T      -0.00219100      -0.00343300      -0.01959600
Cu       1.24395000       6.26191000      13.57359000  T      -0.00231300       0.00145800      -0.02423700
Cu       3.75176000       6.29123000      13.58382000  T      -0.00163400       0.00622600      -0.01782100
Cu       6.26818000       6.25525000      13.58069000  T      -0.00228700       0.00162800      -0.01972700
Cu       8.74134000       6.26427000      13.55333000  T       0.00075700      -0.00261700      -0.01661300
Cu      11.24032000       6.28060000      13.60205000  T       0.00246500       0.00870000      -0.02350900
Cu       1.26548000       8.76676000      13.59171000  T      -0.00051700      -0.00317100      -0.02338000
Cu       3.78708000       8.76584000      13.61818000  T      -0.00111100       0.00591100      -0.02358000
Cu       6.28354000       8.73551000      13.62582000  T      -0.00421300      -0.00017900      -0.02088400
Cu       8.76128000       8.73788000      13.62622000  T       0.00416100      -0.00228500      -0.02108600
Cu      11.26135000       8.76352000      13.61270000  T       0.00110600       0.00157900      -0.02432800
Cu       1.25078000      11.25807000      13.60978000  T       0.00059200      -0.00136100      -0.02890300
Cu       3.74500000      11.26750000      13.58561000  T       0.00102400       0.00027100      -0.02118600
Cu       6.26211000      11.26865000      13.58627000  T      -0.00314500      -0.00357400      -0.02547800
Cu       8.75778000      11.26934000      13.59181000  T       0.00206800      -0.00604000      -0.02627100
Cu      11.27539000      11.26777000      13.58598000  T      -0.00093700      -0.00154000      -0.02276400
Cu       0.00538000       0.00235000      15.39108000  T      -0.00548800       0.00483900      -0.04251700
Cu       2.51152000       0.00226000      15.38904000  T       0.00221300       0.00111700      -0.04456500
Cu       5.00270000       0.00456000      15.37023000  T       0.00656200      -0.00222500      -0.02892100
Cu       7.51131000      12.46169000      15.41443000  T      -0.00091500      -0.03257300      -0.03677900
Cu      10.02958000       0.00032000      15.36713000  T      -0.00768500      -0.00541300      -0.03209300
Cu       0.04771000       2.49990000      15.36033000  T       0.00304700       0.00474400      -0.03093000
Cu       2.49253000       2.50123000      15.36047000  T      -0.00665900      -0.00024100      -0.02852200
Cu       4.94370000       2.44790000      15.40963000  T       0.00387700       0.00847100      -0.02310200
Cu       7.51328000       2.41736000      15.54702000  T      -0.00348500      -0.04216200       0.04483100
Cu      10.11493000       2.46400000      15.40163000  T      -0.00698500      -0.00643700      -0.02316000
Cu      12.49201000       5.00413000      15.34179000  T       0.00789700       0.00027200      -0.03326400
Cu       2.39615000       5.00082000      15.36334000  T       0.00301200      -0.00377600      -0.02793800
Pd       4.89633000       5.09323000      15.50300000  T       0.01093400       0.00379500      -0.01206400
Y        7.50972000       4.91817000      17.29710000  T       0.01407100       0.00038600      -0.03418700
Cu      10.01608000       5.11226000      15.40841000  T      -0.02642200      -0.00119600      -0.01003800
Cu       0.05344000       7.50544000      15.37501000  T       0.00465700      -0.00363500      -0.02634700
Cu       2.53324000       7.49413000      15.37478000  T      -0.00287300      -0.00469900      -0.02765000
Cu       5.01047000       7.64975000      15.50706000  T       0.01957200      -0.01107700      -0.00489000
Cu       7.54906000       7.47616000      15.50892000  T      -0.00577700      -0.05485800       0.00322900
Cu      10.09357000       7.60457000      15.48064000  T      -0.00855200      -0.00457600      -0.00857000
Cu      12.51168000      10.00325000      15.39427000  T      -0.00262800      -0.00161400      -0.04241800
Cu       2.50970000      10.00038000      15.39408000  T       0.00086200      -0.00313500      -0.04274700
Cu       5.00918000      10.08307000      15.38149000  T       0.00534200       0.00559900      -0.02370500
Cu       7.50682000      10.00390000      15.37003000  T       0.00000500      -0.01229000      -0.02785300
Cu      10.01215000      10.06080000      15.37625000  T      -0.00254000       0.00552100      -0.02775600
O        6.02483000       3.58124000      16.47702000  T      -0.01811100      -0.01517500      -0.00056600
O        6.12840000       6.59679000      16.67251000  T      -0.02432800      -0.01169600       0.01013300
O        8.98755000       6.48854000      16.57328000  T       0.02224700       0.02141500       0.02028200
O        8.96432000       3.70566000      16.26140000  T       0.02589700      -0.00387200      -0.01241300
C        7.60497000       2.56450000      18.44019000  T       0.00319600      -0.02662700       0.04108700
O        7.53728000       2.21137000      19.75255000  T       0.00627000      -0.00347900       0.06758500
O        7.63997000       1.58996000      17.63648000  T       0.00283800      -0.02299000       0.03850600
H        7.51701000       1.21961000      19.78099000  T       0.01055700       0.00708100       0.04501400
108
Lattice="12.515153631 0.0 0.0 0.0 12.515153631 0.0 0.0 0.0 25.30973" Properties=species:S:1:pos:R:3:move_mask:L:1:forces:R:3 stress="0.007981754217343777 -2.507838366779893e-05 -4.86151145815047e-05 -2.507838366779893e-05 0.007997576442977892 0.0002304739659823652 -4.86151145815047e-05 0.0002304739659823652 0.0022213156488470965" free_energy=-444.03651385 energy=-444.03285888 pbc="T T T"
Cu       1.25152000       1.25152000      10.00000000  F       0.00185600      -0.01985800      -0.08074400
Cu       3.75455000       1.25152000      10.00000000  F       0.00709400       0.00192400      -0.07140500
Cu       6.25758000       1.25152000      10.00000000  F      -0.01558800       0.01406400      -0.05303400
Cu       8.76061000       1.25152000      10.00000000  F       0.01431100       0.00782400      -0.04570000
Cu      11.26364000       1.25152000      10.00000000  F      -0.00796800      -0.00030400      -0.07208100
Cu       1.25152000       3.75455000      10.00000000  F      -0.00016000       0.00453900      -0.06534900
Cu       3.75455000       3.75455000      10.00000000  F       0.01322800      -0.01390400      -0.05724600
Cu       6.25758000       3.75455000      10.00000000  F      -0.01783000      -0.01332200      -0.08586500
Cu       8.76061000       3.75455000      10.00000000  F       0.01873100      -0.01202200      -0.08922600
Cu      11.26364000       3.75455000      10.00000000  F      -0.01249100       0.00132300      -0.05871600
Cu       1.25152000       6.25758000      10.00000000  F      -0.00443500       0.00031300      -0.07624100
Cu       3.75455000       6.25758000      10.00000000  F       0.01349500       0.02099200      -0.06284100
Cu       6.25758000       6.25758000      10.00000000  F      -0.01777700       0.01871300      -0.08535600
Cu       8.76061000       6.25758000      10.00000000  F       0.01918900       0.01849100      -0.08349500
Cu      11.26364000       6.25758000      10.00000000  F      -0.00843300       0.00619100      -0.06657200
Cu       1.25152000       8.76061000      10.00000000  F      -0.00154100       0.00765600      -0.07689700
Cu       3.75455000       8.76061000      10.00000000  F       0.00313200      -0.01283600      -0.06910900
Cu       6.25758000       8.76061000      10.00000000  F      -0.01006700      -0.01963300      -0.05750600
Cu       8.76061000       8.76061000      10.00000000  F       0.01239800      -0.01466100      -0.05235300
Cu      11.26364000       8.76061000      10.00000000  F      -0.00575800      -0.01262000      -0.07258800
Cu       1.25152000      11.26364000      10.00000000  F      -0.00338700       0.00675400      -0.01781100
Cu       3.75455000      11.26364000      10.00000000  F      -0.00939700       0.00341900      -0.06981600
Cu       6.25758000      11.26364000      10.00000000  F      -0.00029500       0.00330500      -0.06962000
Cu       8.76061000      11.26364000      10.00000000  F      -0.00293000      -0.00068700      -0.06884000
Cu      11.26364000      11.26364000      10.00000000  F       0.01455400       0.00221600      -0.06666400
Cu       0.00000000       0.00000000      11.76991000  F      -0.01504200       0.02468600       0.07747400
Cu       2.50303000       0.00000000      11.76991000  F       0.03326800      -0.00009900       0.06564600
Cu       5.00606000       0.00000000      11.76991000  F       0.05764900       0.06207500       0.09504100
Cu       7.50909000       0.00000000      11.76991000  F       0.01568900       0.06105100       0.07835500
Cu      10.01212000       0.00000000      11.76991000  F      -0.05067000       0.06431200       0.11596500
Cu       0.00000000       2.50303000      11.76991000  F      -0.08047100       0.01766100       0.05611100
Cu       2.50303000       2.50303000      11.76991000  F       0.06130400       0.02030900       0.04891500
Cu       5.00606000       2.50303000      11.76991000  F       0.00695800      -0.03031100       0.10900400
Cu       7.50909000       2.50303000      11.76991000  F      -0.01790400      -0.01744900       0.16557200
Cu      10.01212000       2.50303000      11.76991000  F       0.00017600      -0.03048700       0.10819100
Cu       0.00000000       5.00606000      11.76991000  F      -0.07615400       0.03569800       0.03717600
Cu       2.50303000       5.00606000      11.76991000  F       0.04941200       0.01584500       0.04956100
Cu       5.00606000       5.00606000      11.76991000  F      -0.00929400       0.00003600       0.13695900
Cu       7.50909000       5.00606000      11.76991000  F      -0.05261600      -0.02197700       0.16070300
Cu      10.01212000       5.00606000      11.76991000  F      -0.01249200      -0.00138000       0.10309300
Cu       0.00000000       7.50909000      11.76991000  F      -0.04997300       0.00617900       0.07942700
Cu       2.50303000       7.50909000      11.76991000  F       0.03799900       0.04778700       0.03457200
Cu       5.00606000       7.50909000      11.76991000  F       0.00089400       0.07942000       0.06556600
Cu       7.50909000       7.50909000      11.76991000  F      -0.04134000       0.06529800       0.09625100
Cu      10.01212000       7.50909000      11.76991000  F       0.06159300       0.10076900       0.03492000
Cu       0.00000000      10.01212000      11.76991000  F      -0.01230700      -0.04118400       0.10440800
Cu       2.50303000      10.01212000      11.76991000  F       0.04167500      -0.03699700       0.11196700
Cu       5.00606000      10.01212000      11.76991000  F       0.07055500      -0.06328400       0.12341200
Cu       7.50909000      10.01212000      11.76991000  F       0.01919400      -0.05953100       0.12218300
Cu      10.01212000      10.01212000      11.76991000  F      -0.05473200      -0.06020900       0.13403800
Cu       1.25966000       1.23456000      13.57829000  T       0.00037300       0.00426600      -0.02139600
Cu       3.76869000       1.25793000      13.59161000  T       0.00327100       0.00481000      -0.01755500
Cu       6.28493000       1.26670000      13.62118000  T       0.00277700       0.00222100      -0.01135500
Cu       8.75042000       1.26881000      13.62184000  T      -0.00540900       0.00040100      -0.01165700
Cu      11.26581000       1.26242000      13.59336000  T      -0.00445100       0.00217200      -0.01872600
Cu       1.23835000       3.74772000      13.56348000  T      -0.00048300       0.00037500      -0.01993500
Cu       3.75100000       3.76735000      13.59413000  T       0.00389700       0.00370300      -0.01254300
Cu       6.26775000       3.76163000      13.58816000  T       0.00075200      -0.00232200       0.00077400
Cu       8.72890000       3.76436000      13.58281000  T      -0.00629200      -0.00569500       0.00422800
Cu      11.23372000       3.77914000      13.59325000  T      -0.00548500       0.00171500      -0.01432400
Cu       1.24374000       6.26207000      13.57051000  T       0.00118200      -0.00079800      -0.01912600
Cu       3.75136000       6.29229000      13.58157000  T       0.00563800       0.00031700      -0.01076700
Cu       6.26783000       6.25557000      13.57754000  T      -0.00048500      -0.00114200      -0.00660000
Cu       8.74144000       6.26396000      13.55063000  T      -0.00124900      -0.00342500      -0.00439900
Cu      11.24045000       6.28168000      13.59937000  T      -0.00281700       0.00097100      -0.01326600
Cu       1.26540000       8.76647000      13.58872000  T       0.00056100      -0.00600800      -0.02005800
Cu       3.78688000       8.76666000      13.61509000  T       0.00468100      -0.00272000      -0.01306700
Cu       6.28291000       8.73539000      13.62333000  T      -0.00066400      -0.00667400      -0.01331400
Cu       8.76172000       8.73753000      13.62369000  T      -0.00101000      -0.00969100      -0.01292300
Cu      11.26164000       8.76379000      13.60954000  T      -0.00486800      -0.00307400      -0.01522000
Cu       1.25072000      11.25791000      13.60608000  T       0.00172300      -0.00142300      -0.02498900
Cu       3.74499000      11.26754000      13.58287000  T       0.00515200      -0.00002100      -0.01810000
Cu       6.26166000      11.26810000      13.58299000  T      -0.00147700      -0.00568100      -0.02259600
Cu       8.75796000      11.26843000      13.58843000  T       0.00017600      -0.00749800      -0.02463800
Cu      11.27566000      11.26757000      13.58304000  T      -0.00493000      -0.00125400      -0.02091500
Cu       0.00465000       0.00303000      15.38421000  T      -0.00321600       0.00320200      -0.02997600
Cu       2.51181000       0.00243000      15.38191000  T       0.00031200      -0.00016600      -0.03259200
Cu       5.00375000       0.00445000      15.36571000  T       0.00341700       0.00363400      -0.02462900
Cu       7.51115000      12.45711000      15.40872000  T      -0.00057600      -0.02913800      -0.03048600
Cu      10.02831000      -0.00034000      15.36213000  T      -0.00451800      -0.00284200      -0.02458800
Cu       0.04813000       2.50068000      15.35553000  T      -0.00219400       0.00247500      -0.02564200
Cu       2.49167000       2.50136000      15.35603000  T      -0.00086000      -0.00192200      -0.02510500
Cu       4.94359000       2.44814000      15.40547000  T       0.00322500       0.01011600      -0.01684600
Cu       7.51250000       2.41003000      15.55305000  T       0.00020500      -0.03438400       0.04367700
Cu      10.11469000       2.46223000      15.39757000  T      -0.00756300      -0.00394200      -0.01729600
Cu      12.49300000       5.00424000      15.33656000  T      -0.00004400       0.00134400      -0.02657400
Cu       2.39643000       5.00022000      15.35885000  T       0.01079400      -0.00115900      -0.02402100
Pd       4.89812000       5.09407000      15.50001000  T       0.01485100      -0.00147000      -0.01866500
Y        7.51163000       4.91536000      17.29558000  T       0.00164200      -0.01606300      -0.01489400
Cu      10.01433000       5.11284000      15.40501000  T      -0.01983300       0.00320500      -0.00558100
Cu       0.05413000       7.50479000      15.37083000  T      -0.00067500       0.00039500      -0.02151300
Cu       2.53297000       7.49331000      15.37039000  T       0.00347800      -0.00042000      -0.02197800
Cu       5.01245000       7.64927000      15.50520000  T       0.01146800      -0.00200900      -0.00707600
Cu       7.54858000       7.47025000      15.50691000  T      -0.00431700      -0.04977800       0.01057200
Cu      10.09309000       7.60463000      15.47844000  T      -0.00608500      -0.00211700      -0.00800100
Cu      12.51136000      10.00307000      15.38743000  T      -0.00099400      -0.00002600      -0.02963500
Cu       2.50975000       9.99989000      15.38725000  T       0.00060400      -0.00096500      -0.03043900
Cu       5.01018000      10.08373000      15.37777000  T       0.00097400      -0.00197400      -0.01977600
Cu       7.50680000      10.00179000      15.36554000  T       0.00010100      -0.02523900      -0.02153400
Cu      10.01162000      10.06158000      15.37192000  T       0.00029000      -0.00119100      -0.02235500
O        6.02194000       3.57973000      16.47712000  T       0.00871200      -0.01243200       0.00189700
O        6.12392000       6.59456000      16.67515000  T       0.00637600      -0.01810600      -0.00913600
O        8.99102000       6.49165000      16.57743000  T      -0.00821300      -0.00081900       0.00404800
O        8.96753000       3.70451000      16.26045000  T      -0.00200400      -0.00641100      -0.00407100
C        7.60538000       2.56199000      18.44628000  T       0.00344800      -0.00078200       0.03594000
O        7.53826000       2.21119000      19.75972000  T       0.00757000       0.00731700       0.04086800
O        7.64029000       1.58666000      17.64349000  T       0.00020600      -0.00960500       0.04413900
H        7.51850000       1.21968000      19.78810000  T       0.00955600      -0.00834500       0.05430700
108
Lattice="12.515153631 0.0 0.0 0.0 12.515153631 0.0 0.0 0.0 25.30973" Properties=species:S:1:pos:R:3:move_mask:L:1:forces:R:3 stress="0.007727206750662879 -2.4672685574616524e-05 -4.683628448062797e-05 -2.4672685574616524e-05 0.007718281392612866 0.00018463008145275266 -4.683628448062797e-05 0.00018463008145275266 0.0018218403402631902" free_energy=-444.04200255 energy=-444.03832838 pbc="T T T"
Cu       1.25152000       1.25152000      10.00000000  F       0.00176900      -0.01948600      -0.08202600
Cu       3.75455000       1.25152000      10.00000000  F       0.00725300       0.00224400      -0.07196800
Cu       6.25758000       1.25152000      10.00000000  F      -0.01525100       0.01418100      -0.05396500
Cu       8.76061000       1.25152000      10.00000000  F       0.01417900       0.00803500      -0.04652800
Cu      11.26364000       1.25152000      10.00000000  F      -0.00826800      -0.00005600      -0.07252500
Cu       1.25152000       3.75455000      10.00000000  F      -0.00027400       0.00413500      -0.06642600
Cu       3.75455000       3.75455000      10.00000000  F       0.01329300      -0.01441000      -0.05784300
Cu       6.25758000       3.75455000      10.00000000  F      -0.01751800      -0.01374500      -0.08674000
Cu       8.76061000       3.75455000      10.00000000  F       0.01866500      -0.01250400      -0.08994700
Cu      11.26364000       3.75455000      10.00000000  F      -0.01267300       0.00093800      -0.05899400
Cu       1.25152000       6.25758000      10.00000000  F      -0.00459600      -0.00027000      -0.07756900
Cu       3.75455000       6.25758000      10.00000000  F       0.01356800       0.02054800      -0.06405500
Cu       6.25758000       6.25758000      10.00000000  F      -0.01760300       0.01817900      -0.08561300
Cu       8.76061000       6.25758000      10.00000000  F       0.01913700       0.01805700      -0.08345200
Cu      11.26364000       6.25758000      10.00000000  F      -0.00859400       0.00570400      -0.06745000
Cu       1.25152000       8.76061000      10.00000000  F      -0.00171400       0.00722900      -0.07756300
Cu       3.75455000       8.76061000      10.00000000  F       0.00345700      -0.01326700      -0.07075700
Cu       6.25758000       8.76061000      10.00000000  F      -0.00999600      -0.01979900      -0.05899700
Cu       8.76061000       8.76061000      10.00000000  F       0.01243600      -0.01477400      -0.05360500
Cu      11.26364000       8.76061000      10.00000000  F      -0.00602700      -0.01292100      -0.07399000
Cu       1.25152000      11.26364000      10.00000000  F      -0.00362600       0.00707900      -0.01895800
Cu       3.75455000      11.26364000      10.00000000  F      -0.00907900       0.00368300      -0.07063200
Cu       6.25758000      11.26364000      10.00000000  F      -0.00005100       0.00354900      -0.07062500
Cu       8.76061000      11.26364000      10.00000000  F      -0.00307700      -0.00047600      -0.06968100
Cu      11.26364000      11.26364000      10.00000000  F       0.01426600       0.00241800      -0.06737400
Cu       0.00000000       0.00000000      11.76991000  F      -0.01630000       0.02519300       0.05248700
Cu       2.50303000       0.00000000      11.76991000  F       0.03548800       0.00045200       0.04163000
Cu       5.00606000       0.00000000      11.76991000  F       0.06000800       0.06525600       0.07468300
Cu       7.50909000       0.00000000      11.76991000  F       0.01555000       0.06428000       0.05938800
Cu      10.01212000       0.00000000      11.76991000  F      -0.05378800       0.06660900       0.09520800
Cu       0.00000000       2.50303000      11.76991000  F      -0.08476400       0.01925500       0.03320900
Cu       2.50303000       2.50303000      11.76991000  F       0.06460000       0.02257000       0.02602800
Cu       5.00606000       2.50303000      11.76991000  F       0.01208900      -0.02739000       0.09386200
Cu       7.50909000       2.50303000      11.76991000  F      -0.01778900      -0.01392800       0.15444600
Cu      10.01212000       2.50303000      11.76991000  F      -0.00705200      -0.02792000       0.09368500
Cu       0.00000000       5.00606000      11.76991000  F      -0.08184100       0.03567600       0.01803900
Cu       2.50303000       5.00606000      11.76991000  F       0.05333100       0.01628700       0.03045800
Cu       5.00606000       5.00606000      11.76991000  F      -0.00602100      -0.00113900       0.12325000
Cu       7.50909000       5.00606000      11.76991000  F      -0.05219400      -0.02837100       0.15177100
Cu      10.01212000       5.00606000      11.76991000  F      -0.01818600      -0.00399300       0.09105500
Cu       0.00000000       7.50909000      11.76991000  F      -0.05273000       0.00563900       0.05725900
Cu       2.50303000       7.50909000      11.76991000  F       0.04179000       0.04712800       0.01378100
Cu       5.00606000       7.50909000      11.76991000  F       0.00240200       0.07774100       0.04578600
Cu       7.50909000       7.50909000      11.76991000  F      -0.04087100       0.06291400       0.07926200
Cu      10.01212000       7.50909000      11.76991000  F       0.05874900       0.09832400       0.01501200
Cu       0.00000000      10.01212000      11.76991000  F      -0.01376400      -0.04401700       0.08150800
Cu       2.50303000      10.01212000      11.76991000  F       0.04453200      -0.03903500       0.09030500
Cu       5.00606000      10.01212000      11.76991000  F       0.07098900      -0.06721100       0.10047000
Cu       7.50909000      10.01212000      11.76991000  F       0.01890700      -0.06702200       0.10178800
Cu      10.01212000      10.01212000      11.76991000  F      -0.05566800      -0.06544500       0.11089900
Cu       1.25959000       1.23512000      13.57270000  T      -0.00092200       0.00261800      -0.00794000
Cu       3.76907000       1.25861000      13.58639000  T       0.00621100       0.00688200      -0.00187300
Cu       6.28576000       1.26700000      13.61805000  T       0.00308400       0.00359900       0.00115300
Cu       8.74913000       1.26856000      13.61885000  T      -0.00562900       0.00029700      -0.00145400
Cu      11.26524000       1.26238000      13.58785000  T      -0.00762800       0.00523800      -0.00193600
Cu       1.23818000       3.74763000      13.55814000  T       0.00082400       0.00364200      -0.00369100
Cu       3.75142000       3.76823000      13.59057000  T       0.00656700       0.00037300      -0.00588800
Cu       6.26787000       3.76085000      13.58729000  T       0.00611800      -0.00099700       0.00432800
Cu       8.72726000       3.76266000      13.58289000  T      -0.00550700      -0.00120000       0.00639500
Cu      11.23246000       3.77918000      13.58945000  T      -0.00858600       0.00437500      -0.00079500
Cu       1.24383000       6.26196000      13.56545000  T       0.00282700      -0.00290900      -0.00300400
Cu       3.75213000       6.29293000      13.57838000  T       0.00912800      -0.00572300      -0.00090000
Cu       6.26763000       6.25549000      13.57433000  T       0.00454800      -0.00553900       0.00224900
Cu       8.74123000       6.26308000      13.54802000  T      -0.00282800      -0.00625400       0.00316100
Cu      11.23994000       6.28241000      13.59555000  T      -0.00820900      -0.00674300       0.00312500
Cu       1.26541000       8.76532000      13.58354000  T       0.00012700      -0.00385300      -0.00632800
Cu       3.78761000       8.76667000      13.61097000  T       0.00642600      -0.00732000      -0.00083600
Cu       6.28250000       8.73404000      13.61961000  T       0.00399100      -0.01246000      -0.00124200
Cu       8.76173000       8.73552000      13.62005000  T      -0.00560500      -0.01541200       0.00155200
Cu      11.26096000       8.76341000      13.60501000  T      -0.00683400      -0.00554000      -0.00127600
Cu       1.25090000      11.25762000      13.59964000  T      -0.00024800      -0.00027200      -0.00793100
Cu       3.74585000      11.26762000      13.57811000  T       0.00483400       0.00063300      -0.00721600
Cu       6.26119000      11.26675000      13.57720000  T       0.00174000      -0.00669900      -0.00694800
Cu       8.75807000      11.26652000      13.58227000  T      -0.00247200      -0.00853400      -0.00822700
Cu      11.27505000      11.26728000      13.57773000  T      -0.00300900       0.00052900      -0.00780600
Cu       0.00366000       0.00398000      15.37468000  T      -0.00024600      -0.00010400      -0.01361500
Cu       2.51204000       0.00251000      15.37187000  T      -0.00234300      -0.00218000      -0.01261800
Cu       5.00498000       0.00503000      15.35863000  T      -0.00049300       0.00671800      -0.01357600
Cu       7.51095000      12.44915000      15.39981000  T      -0.00030500      -0.02034900      -0.01761500
Cu      10.02673000      -0.00124000      15.35472000  T      -0.00144000       0.00014700      -0.01192500
Cu       0.04798000       2.50158000      15.34809000  T      -0.00695800       0.00010300      -0.01436800
Cu       2.49102000       2.50115000      15.34895000  T       0.00279500      -0.00222800      -0.01366400
Cu       4.94397000       2.44982000      15.39986000  T       0.00062400       0.00070700      -0.00681300
Cu       7.51197000       2.39899000      15.56398000  T       0.00212000      -0.03582200       0.02223800
Cu      10.11344000       2.46030000      15.39193000  T      -0.00484600       0.00006100      -0.00724100
Cu      12.49360000       5.00452000      15.32876000  T      -0.00620100       0.00124400      -0.01018000
Cu       2.39837000       4.99959000      15.35187000  T       0.00646700       0.00041600      -0.01336700
Pd       4.90107000       5.09413000      15.49582000  T       0.00401600      -0.00920300      -0.00109300
Y        7.51337000       4.91097000      17.29256000  T      -0.00372500      -0.01335600       0.01887900
Cu      10.01031000       5.11374000      15.40156000  T       0.00070200       0.00025600      -0.00431800
Cu       0.05443000       7.50444000      15.36453000  T      -0.00536400       0.00326900      -0.01088100
Cu       2.53346000       7.49268000      15.36393000  T       0.00599400       0.00293100      -0.00843800
Cu       5.01552000       7.64869000      15.50269000  T      -0.00142600       0.00461000      -0.00724000
Cu       7.54770000       7.45865000      15.50669000  T       0.00399500      -0.01064100      -0.00874100
Cu      10.09176000       7.60435000      15.47559000  T      -0.00434800      -0.00163500      -0.00431800
Cu      12.51101000      10.00304000      15.37805000  T       0.00154800       0.00357000      -0.01139700
Cu       2.50985000       9.99946000      15.37781000  T      -0.00129100       0.00204600      -0.01005600
Cu       5.01104000      10.08386000      15.37204000  T      -0.00133800      -0.00324300      -0.01064000
Cu       7.50682000       9.99592000      15.35902000  T       0.00083400      -0.03311200      -0.00921100
Cu      10.01126000      10.06187000      15.36536000  T       0.00048100      -0.00567300      -0.01101800
O        6.02110000       3.57657000      16.47732000  T       0.01422300      -0.01527900      -0.00234200
O        6.12157000       6.58996000      16.67549000  T       0.01197600      -0.01552900      -0.01167900
O        8.99233000       6.49356000      16.58098000  T      -0.00614400      -0.01636600      -0.00844400
O        8.96948000       3.70235000      16.25907000  T      -0.00853600      -0.01862300      -0.00288100
C        7.60629000       2.55996000      18.45658000  T       0.00358600       0.00145500       0.02661200
O        7.54030000       2.21125000      19.77106000  T       0.00911300       0.00345700       0.02916300
O        7.64059000       1.58295000      17.65590000  T       0.00115100       0.00744300       0.03019100
H        7.52118000       1.21952000      19.80209000  T       0.00928600       0.01005200       0.04593600
108
Lattice="12.515153631 0.0 0.0 0.0 12.515153631 0.0 0.0 0.0 25.30973" Properties=species:S:1:pos:R:3:move_mask:L:1:forces:R:3 stress="0.007683690949037221 -2.4110949753287027e-05 -4.8440352325979966e-05 -2.4110949753287027e-05 0.007661539833149463 0.000143124045765629 -4.8440352325979966e-05 0.000143124045765629 0.0017018161197724549" free_energy=-444.04590741 energy=-444.04221447 pbc="T T T"
Cu       1.25152000       1.25152000      10.00000000  F       0.00189000      -0.01939400      -0.08213800
Cu       3.75455000       1.25152000      10.00000000  F       0.00738400       0.00233500      -0.07153000
Cu       6.25758000       1.25152000      10.00000000  F      -0.01511200       0.01410500      -0.05385300
Cu       8.76061000       1.25152000      10.00000000  F       0.01405800       0.00807300      -0.04661800
Cu      11.26364000       1.25152000      10.00000000  F      -0.00833300       0.00003400      -0.07236600
Cu       1.25152000       3.75455000      10.00000000  F      -0.00017300       0.00417900      -0.06655000
Cu       3.75455000       3.75455000      10.00000000  F       0.01332600      -0.01448500      -0.05752500
Cu       6.25758000       3.75455000      10.00000000  F      -0.01740000      -0.01377500      -0.08691200
Cu       8.76061000       3.75455000      10.00000000  F       0.01862000      -0.01256700      -0.09021500
Cu      11.26364000       3.75455000      10.00000000  F      -0.01266100       0.00089500      -0.05871700
Cu       1.25152000       6.25758000      10.00000000  F      -0.00454200      -0.00043600      -0.07772100
Cu       3.75455000       6.25758000      10.00000000  F       0.01365200       0.02054600      -0.06417300
Cu       6.25758000       6.25758000      10.00000000  F      -0.01752000       0.01816400      -0.08526300
Cu       8.76061000       6.25758000      10.00000000  F       0.01908400       0.01813900      -0.08299000
Cu      11.26364000       6.25758000      10.00000000  F      -0.00861400       0.00579000      -0.06745000
Cu       1.25152000       8.76061000      10.00000000  F      -0.00169900       0.00708200      -0.07714600
Cu       3.75455000       8.76061000      10.00000000  F       0.00371900      -0.01348600      -0.07103100
Cu       6.25758000       8.76061000      10.00000000  F      -0.00999500      -0.01984300      -0.05926300
Cu       8.76061000       8.76061000      10.00000000  F       0.01249500      -0.01481200      -0.05381900
Cu      11.26364000       8.76061000      10.00000000  F      -0.00615600      -0.01314900      -0.07427300
Cu       1.25152000      11.26364000      10.00000000  F      -0.00361000       0.00718300      -0.01898800
Cu       3.75455000      11.26364000      10.00000000  F      -0.00891000       0.00379200      -0.07027200
Cu       6.25758000      11.26364000      10.00000000  F       0.00009000       0.00361000      -0.07049200
Cu       8.76061000      11.26364000      10.00000000  F      -0.00324500      -0.00049600      -0.06962100
Cu      11.26364000      11.26364000      10.00000000  F       0.01423400       0.00243100      -0.06730400
Cu       0.00000000       0.00000000      11.76991000  F      -0.01769500       0.02642500       0.03928800
Cu       2.50303000       0.00000000      11.76991000  F       0.03797600       0.00158700       0.02929100
Cu       5.00606000       0.00000000      11.76991000  F       0.06225900       0.06779300       0.06440200
Cu       7.50909000       0.00000000      11.76991000  F       0.01470600       0.06607100       0.04971900
Cu      10.01212000       0.00000000      11.76991000  F      -0.05649600       0.06822500       0.08448400
Cu       0.00000000       2.50303000      11.76991000  F      -0.08796900       0.02161500       0.02247200
Cu       2.50303000       2.50303000      11.76991000  F       0.06687500       0.02425400       0.01376800
Cu       5.00606000       2.50303000      11.76991000  F       0.01707500      -0.02554700       0.08550100
Cu       7.50909000       2.50303000      11.76991000  F      -0.01791100      -0.01133800       0.14940300
Cu      10.01212000       2.50303000      11.76991000  F      -0.01266200      -0.02554600       0.08684800
Cu       0.00000000       5.00606000      11.76991000  F      -0.08568500       0.03623800       0.00906900
Cu       2.50303000       5.00606000      11.76991000  F       0.05641200       0.01694100       0.02024400
Cu       5.00606000       5.00606000      11.76991000  F      -0.00195600      -0.00192200       0.11573200
Cu       7.50909000       5.00606000      11.76991000  F      -0.05171700      -0.03299400       0.14755400
Cu      10.01212000       5.00606000      11.76991000  F      -0.02301100      -0.00532500       0.08479500
Cu       0.00000000       7.50909000      11.76991000  F      -0.05545800       0.00370500       0.04821100
Cu       2.50303000       7.50909000      11.76991000  F       0.04550700       0.04549200       0.00438800
Cu       5.00606000       7.50909000      11.76991000  F       0.00437400       0.07522800       0.03526100
Cu       7.50909000       7.50909000      11.76991000  F      -0.04036800       0.05915300       0.06920900
Cu      10.01212000       7.50909000      11.76991000  F       0.05653900       0.09502300       0.00552600
Cu       0.00000000      10.01212000      11.76991000  F      -0.01526400      -0.04697000       0.07005300
Cu       2.50303000      10.01212000      11.76991000  F       0.04743000      -0.04107800       0.07970800
Cu       5.00606000      10.01212000      11.76991000  F       0.07157100      -0.07143900       0.08822200
Cu       7.50909000      10.01212000      11.76991000  F       0.01856100      -0.07395200       0.08993700
Cu      10.01212000      10.01212000      11.76991000  F      -0.05696200      -0.07098200       0.09901600
Cu       1.25943000       1.23571000      13.56909000  T      -0.00103100       0.00065800      -0.00009300
Cu       3.76998000       1.25976000      13.58366000  T       0.00179500       0.00186000       0.00047200
Cu       6.28656000       1.26757000      13.61672000  T       0.00228600       0.00004400       0.00284200
Cu       8.74780000       1.26843000      13.61727000  T      -0.00328000      -0.00245400       0.00150800
Cu      11.26401000       1.26301000      13.58497000  T      -0.00432700       0.00273300       0.00098300
Cu       1.23820000       3.74804000      13.55519000  T      -0.00001900       0.00217400       0.00278800
Cu       3.75245000       3.76868000      13.58815000  T       0.00469800      -0.00169200      -0.00233400
Cu       6.26869000       3.76035000      13.58743000  T       0.00538600      -0.00143600       0.00339200
Cu       8.72577000       3.76170000      13.58375000  T      -0.00325600      -0.00063200       0.00567100
Cu      11.23077000       3.77973000      13.58756000  T      -0.00548100       0.00157400       0.00205100
Cu       1.24422000       6.26157000      13.56274000  T       0.00119100       0.00023100       0.00388200
Cu       3.75365000       6.29248000      13.57679000  T       0.00652000      -0.00544400       0.00218300
Cu       6.26811000       6.25468000      13.57309000  T       0.00418500      -0.00793400       0.00286400
Cu       8.74077000       6.26180000      13.54714000  T      -0.00160800      -0.00866700       0.00143000
Cu      11.23868000       6.28196000      13.59410000  T      -0.00439400      -0.00263300       0.00296700
Cu       1.26543000       8.76431000      13.58033000  T       0.00003400      -0.00037500       0.00095900
Cu       3.78873000       8.76579000      13.60889000  T       0.00219700      -0.00314300       0.00010700
Cu       6.28276000       8.73177000      13.61765000  T       0.00043400      -0.01051900      -0.00162500
Cu       8.76108000       8.73259000      13.61846000  T      -0.00083900      -0.01185900      -0.00000700
Cu      11.25980000       8.76254000      13.60270000  T      -0.00329400      -0.00333300       0.00144300
Cu       1.25096000      11.25745000      13.59562000  T      -0.00002400      -0.00020500      -0.00011500
Cu       3.74683000      11.26773000      13.57497000  T       0.00118800       0.00031100      -0.00071800
Cu       6.26118000      11.26521000      13.57364000  T       0.00123900      -0.00706600       0.00190700
Cu       8.75781000      11.26445000      13.57836000  T      -0.00129100      -0.00930500       0.00135200
Cu      11.27440000      11.26721000      13.57426000  T      -0.00071600       0.00055000      -0.00000600
Cu       0.00315000       0.00442000      15.36836000  T      -0.00002500      -0.00057400      -0.00593200
Cu       2.51185000       0.00227000      15.36546000  T      -0.00149700      -0.00198100      -0.00301700
Cu       5.00552000       0.00611000      15.35355000  T      -0.00080500       0.00145700      -0.00482000
Cu       7.51080000      12.44254000      15.39330000  T      -0.00075000      -0.02317200      -0.00869500
Cu      10.02576000      -0.00168000      15.34966000  T      -0.00165700      -0.00107400      -0.00394400
Cu       0.04706000       2.50204000      15.34270000  T      -0.00366400       0.00025200      -0.00638200
Cu       2.49101000       2.50079000      15.34383000  T       0.00015000      -0.00039800      -0.00559200
Cu       4.94428000       2.45072000      15.39642000  T       0.00212700      -0.00188600       0.00290000
Cu       7.51197000       2.38894000      15.57211000  T       0.00189300      -0.03250400       0.01483300
Cu      10.11225000       2.45935000      15.38834000  T      -0.00307200       0.00084300       0.00049300
Cu      12.49319000       5.00482000      15.32381000  T      -0.00112800       0.00115600       0.00200300
Cu       2.40006000       4.99936000      15.34686000  T       0.00120600       0.00098500      -0.00380000
Pd       4.90323000       5.09294000      15.49361000  T       0.00173200      -0.00565200       0.00763800
Y        7.51386000       4.90717000      17.29331000  T       0.00108100      -0.00701700       0.00950900
Cu      10.00840000       5.11397000      15.39952000  T      -0.00187600      -0.01335500       0.00845200
Cu       0.05392000       7.50469000      15.36014000  T      -0.00309300       0.00342800      -0.00399300
Cu       2.53440000       7.49274000      15.35978000  T       0.00091900       0.00246100      -0.00112000
Cu       5.01691000       7.64879000      15.50071000  T       0.00183400      -0.00697400       0.00284900
Cu       7.54776000       7.45176000      15.50538000  T       0.00289900      -0.00175600      -0.01015100
Cu      10.09053000       7.60395000      15.47376000  T      -0.00504000      -0.00582000       0.00381200
Cu      12.51104000      10.00349000      15.37211000  T       0.00156900       0.00368600      -0.00274200
Cu       2.50975000       9.99951000      15.37201000  T      -0.00050300       0.00186400      -0.00141000
Cu       5.01131000      10.08358000      15.36796000  T      -0.00029300       0.00162300      -0.00411800
Cu       7.50692000       9.98887000      15.35478000  T       0.00007000      -0.02322300      -0.00022700
Cu      10.01113000      10.06130000      15.36083000  T      -0.00055000      -0.00389400      -0.00371700
O        6.02242000       3.57315000      16.47707000  T       0.00913900      -0.01295100      -0.00392500
O        6.12181000       6.58586000      16.67408000  T       0.00360100      -0.00995000      -0.01338400
O        8.99224000       6.49224000      16.58156000  T       0.00167700      -0.02231700      -0.01233500
O        8.96924000       3.69915000      16.25814000  T      -0.00864700      -0.00757500      -0.00174900
C        7.60715000       2.55939000      18.46526000  T       0.00283500       0.00392700       0.02123500
O        7.54248000       2.21221000      19.78038000  T       0.01042200       0.00795200       0.03252400
O        7.64088000       1.58192000      17.66540000  T       0.00155400       0.00863400       0.02945100
H        7.52369000       1.22053000      19.81468000  T       0.00958400       0.01579500       0.03557700
108
Lattice="12.515153631 0.0 0.0 0.0 12.515153631 0.0 0.0 0.0 25.30973" Properties=species:S:1:pos:R:3:move_mask:L:1:forces:R:3 stress="0.0077548316700540385 -2.414839880804233e-05 -4.990086546143665e-05 -2.414839880804233e-05 0.007732312305127852 0.00013947900443611318 -4.990086546143665e-05 0.00013947900443611318 0.0017600369168986939" free_energy=-444.04559375 energy=-444.04188564 pbc="T T T"
Cu       1.25152000       1.25152000      10.00000000  F       0.00186000      -0.01903200      -0.08214900
Cu       3.75455000       1.25152000      10.00000000  F       0.00732700       0.00268800      -0.07155100
Cu       6.25758000       1.25152000      10.00000000  F      -0.01527000       0.01445700      -0.05374300
Cu       8.76061000       1.25152000      10.00000000  F       0.01376700       0.00845300      -0.04645500
Cu      11.26364000       1.25152000      10.00000000  F      -0.00847000       0.00040500      -0.07227000
Cu       1.25152000       3.75455000      10.00000000  F      -0.00021800       0.00452300      -0.06631000
Cu       3.75455000       3.75455000      10.00000000  F       0.01327300      -0.01414000      -0.05725700
Cu       6.25758000       3.75455000      10.00000000  F      -0.01754400      -0.01339400      -0.08664800
Cu       8.76061000       3.75455000      10.00000000  F       0.01835700      -0.01217600      -0.08990900
Cu      11.26364000       3.75455000      10.00000000  F      -0.01283400       0.00127000      -0.05836100
Cu       1.25152000       6.25758000      10.00000000  F      -0.00458000      -0.00022300      -0.07734200
Cu       3.75455000       6.25758000      10.00000000  F       0.01360700       0.02080300      -0.06378800
Cu       6.25758000       6.25758000      10.00000000  F      -0.01767500       0.01838700      -0.08478800
Cu       8.76061000       6.25758000      10.00000000  F       0.01879700       0.01833800      -0.08250200
Cu      11.26364000       6.25758000      10.00000000  F      -0.00877500       0.00598600      -0.06705500
Cu       1.25152000       8.76061000      10.00000000  F      -0.00169800       0.00719600      -0.07694200
Cu       3.75455000       8.76061000      10.00000000  F       0.00369100      -0.01335300      -0.07081600
Cu       6.25758000       8.76061000      10.00000000  F      -0.01020200      -0.01971700      -0.05894800
Cu       8.76061000       8.76061000      10.00000000  F       0.01222800      -0.01469900      -0.05348600
Cu      11.26364000       8.76061000      10.00000000  F      -0.00632600      -0.01303600      -0.07403000
Cu       1.25152000      11.26364000      10.00000000  F      -0.00361200       0.00738700      -0.01896300
Cu       3.75455000      11.26364000      10.00000000  F      -0.00895700       0.00392200      -0.07029900
Cu       6.25758000      11.26364000      10.00000000  F      -0.00010900       0.00376500      -0.07038000
Cu       8.76061000      11.26364000      10.00000000  F      -0.00352300      -0.00032600      -0.06947200
Cu      11.26364000      11.26364000      10.00000000  F       0.01410300       0.00261500      -0.06724100
Cu       0.00000000       0.00000000      11.76991000  F      -0.01804400       0.02682400       0.03880200
Cu       2.50303000       0.00000000      11.76991000  F       0.03803300       0.00193500       0.02883400
Cu       5.00606000       0.00000000      11.76991000  F       0.06250100       0.06814200       0.06419600
Cu       7.50909000       0.00000000      11.76991000  F       0.01449800       0.06617700       0.04961500
Cu      10.01212000       0.00000000      11.76991000  F      -0.05704400       0.06852100       0.08425400
Cu       0.00000000       2.50303000      11.76991000  F      -0.08840600       0.02239000       0.02224400
Cu       2.50303000       2.50303000      11.76991000  F       0.06682000       0.02486800       0.01327300
Cu       5.00606000       2.50303000      11.76991000  F       0.01759200      -0.02502800       0.08517300
Cu       7.50909000       2.50303000      11.76991000  F      -0.01799600      -0.01072600       0.14957100
Cu      10.01212000       2.50303000      11.76991000  F      -0.01343500      -0.02493300       0.08678700
Cu       0.00000000       5.00606000      11.76991000  F      -0.08606200       0.03662300       0.00904500
Cu       2.50303000       5.00606000      11.76991000  F       0.05648400       0.01739800       0.02002900
Cu       5.00606000       5.00606000      11.76991000  F      -0.00161200      -0.00160500       0.11536000
Cu       7.50909000       5.00606000      11.76991000  F      -0.05182200      -0.03321300       0.14735600
Cu      10.01212000       5.00606000      11.76991000  F      -0.02353800      -0.00515900       0.08460400
Cu       0.00000000       7.50909000      11.76991000  F      -0.05577900       0.00351400       0.04825400
Cu       2.50303000       7.50909000      11.76991000  F       0.04577100       0.04527400       0.00439000
Cu       5.00606000       7.50909000      11.76991000  F       0.00450300       0.07483500       0.03497100
Cu       7.50909000       7.50909000      11.76991000  F      -0.04049600       0.05859300       0.06876500
Cu      10.01212000       7.50909000      11.76991000  F       0.05614200       0.09459900       0.00535300
Cu       0.00000000      10.01212000      11.76991000  F      -0.01555300      -0.04715400       0.06978500
Cu       2.50303000      10.01212000      11.76991000  F       0.04753600      -0.04122300       0.07938200
Cu       5.00606000      10.01212000      11.76991000  F       0.07154300      -0.07185500       0.08776700
Cu       7.50909000      10.01212000      11.76991000  F       0.01836400      -0.07458400       0.08949500
Cu      10.01212000      10.01212000      11.76991000  F      -0.05725700      -0.07147300       0.09862500
Cu       1.25939000       1.23577000      13.56878000  T      -0.00114600       0.00094300       0.00010400
Cu       3.77010000       1.25989000      13.58343000  T       0.00131200       0.00174500       0.00062100
Cu       6.28667000       1.26761000      13.61667000  T       0.00193300      -0.00016800       0.00269900
Cu       8.74761000       1.26835000      13.61717000  T      -0.00306700      -0.00236500       0.00173700
Cu      11.26382000       1.26312000      13.58474000  T      -0.00414900       0.00278600       0.00110000
Cu       1.23820000       3.74812000      13.55500000  T      -0.00030200       0.00249200       0.00276400
Cu       3.75264000       3.76867000      13.58789000  T       0.00432100      -0.00128500      -0.00159000
Cu       6.26888000       3.76027000      13.58751000  T       0.00466700      -0.00122600       0.00308000
Cu       8.72557000       3.76159000      13.58394000  T      -0.00311000      -0.00059400       0.00533900
Cu      11.23050000       3.77980000      13.58744000  T      -0.00506000       0.00189900       0.00237300
Cu       1.24428000       6.26155000      13.56260000  T       0.00080300       0.00084600       0.00390800
Cu       3.75393000       6.29232000      13.57671000  T       0.00574900      -0.00451500       0.00256600
Cu       6.26824000       6.25442000      13.57305000  T       0.00390300      -0.00758300       0.00246300
Cu       8.74069000       6.26148000      13.54709000  T      -0.00129800      -0.00857600       0.00145200
Cu      11.23847000       6.28186000      13.59404000  T      -0.00420900      -0.00220500       0.00339200
Cu       1.26543000       8.76422000      13.58008000  T      -0.00011700      -0.00015000       0.00128300
Cu       3.78887000       8.76564000      13.60871000  T       0.00176000      -0.00278500       0.00048800
Cu       6.28278000       8.73134000      13.61744000  T      -0.00025500      -0.00988800      -0.00148700
Cu       8.76102000       8.73207000      13.61832000  T      -0.00046200      -0.01105900      -0.00011700
Cu      11.25963000       8.76239000      13.60253000  T      -0.00306300      -0.00293300       0.00188400
Cu       1.25097000      11.25743000      13.59527000  T      -0.00007500      -0.00008600       0.00014300
Cu       3.74693000      11.26774000      13.57469000  T       0.00083900       0.00018200      -0.00038900
Cu       6.26120000      11.26491000      13.57339000  T       0.00081700      -0.00708100       0.00171600
Cu       8.75777000      11.26406000      13.57807000  T      -0.00110600      -0.00914600       0.00146200
Cu      11.27433000      11.26721000      13.57397000  T      -0.00092200       0.00048000       0.00040100
Cu       0.00310000       0.00445000      15.36767000  T      -0.00054400      -0.00002600      -0.00632800
Cu       2.51180000       0.00221000      15.36483000  T      -0.00135300      -0.00156400      -0.00350900
Cu       5.00555000       0.00622000      15.35300000  T      -0.00050300       0.00142300      -0.00478200
Cu       7.51076000      12.44142000      15.39254000  T      -0.00098300      -0.02401000      -0.00883600
Cu      10.02563000      -0.00175000      15.34914000  T      -0.00245800      -0.00085000      -0.00398900
Cu       0.04690000       2.50208000      15.34209000  T      -0.00378100       0.00097600      -0.00640000
Cu       2.49101000       2.50075000      15.34326000  T      -0.00007300       0.00017900      -0.00568900
Cu       4.94435000       2.45074000      15.39620000  T       0.00125200      -0.00254500       0.00293400
Cu       7.51202000       2.38730000      15.57316000  T       0.00191100      -0.03259300       0.01689000
Cu      10.11208000       2.45927000      15.38805000  T      -0.00294200       0.00020300       0.00089400
Cu      12.49314000       5.00487000      15.32344000  T      -0.00127200       0.00170900       0.00172200
Cu       2.40024000       4.99935000      15.34634000  T       0.00164800       0.00134400      -0.00373600
Pd       4.90350000       5.09269000      15.49353000  T       0.01823500      -0.01689600      -0.00680300
Y        7.51394000       4.90661000      17.29357000  T       0.00230500      -0.02686000       0.01331200
Cu      10.00820000       5.11366000      15.39955000  T      -0.00105600      -0.01281200       0.00760800
Cu       0.05381000       7.50479000      15.35967000  T      -0.00344200       0.00348300      -0.00413500
Cu       2.53450000       7.49280000      15.35940000  T       0.00074100       0.00251100      -0.00165800
Cu       5.01707000       7.64862000      15.50061000  T       0.00127400      -0.00602200       0.00222400
Cu       7.54783000       7.45112000      15.50503000  T       0.00265100      -0.00321400      -0.00951500
Cu      10.09032000       7.60377000      15.47370000  T      -0.00437500      -0.00538100       0.00330300
Cu      12.51108000      10.00361000      15.37153000  T       0.00109500       0.00353300      -0.00340600
Cu       2.50973000       9.99955000      15.37147000  T      -0.00031000       0.00168600      -0.00206000
Cu       5.01132000      10.08360000      15.36752000  T      -0.00003900       0.00073500      -0.00400400
Cu       7.50692000       9.98773000      15.35441000  T      -0.00015900      -0.02364000      -0.00029800
Cu      10.01110000      10.06116000      15.36035000  T      -0.00086900      -0.00432900      -0.00388100
O        6.02274000       3.57257000      16.47696000  T       0.00792300      -0.00818700      -0.00189100
O        6.12191000       6.58528000      16.67364000  T       0.00592200      -0.00779400      -0.00992100
O        8.99227000       6.49159000      16.58131000  T      -0.00090200      -0.02051000      -0.01067200
O        8.96900000       3.69871000      16.25803000  T      -0.00850700      -0.00520000       0.00080200
C        7.60729000       2.55947000      18.46661000  T       0.00179900       0.00682600       0.02934200
O        7.54292000       2.21256000      19.78192000  T       0.00794300       0.01345200       0.02992900
O        7.64095000       1.58199000      17.66686000  T       0.00083300       0.00983700       0.02345200
H        7.52415000       1.22095000      19.81665000  T       0.01031600       0.01197300       0.03648200
108
Lattice="12.515153631 0.0 0.0 0.0 12.515153631 0.0 0.0 0.0 25.30973" Properties=species:S:1:pos:R:3:move_mask:L:1:forces:R:3 stress="0.007703489015984523 -2.5009727067414217e-05 -4.609354489464786e-05 -2.5009727067414217e-05 0.007670602504400244 0.0001078158286405074 -4.609354489464786e-05 0.0001078158286405074 0.001685663094154669" free_energy=-444.04932902 energy=-444.04560164 pbc="T T T"
Cu       1.25152000       1.25152000      10.00000000  F       0.00175100      -0.01941900      -0.08218000
Cu       3.75455000       1.25152000      10.00000000  F       0.00732700       0.00236600      -0.07157700
Cu       6.25758000       1.25152000      10.00000000  F      -0.01494600       0.01405500      -0.05382200
Cu       8.76061000       1.25152000      10.00000000  F       0.01398700       0.00805600      -0.04639100
Cu      11.26364000       1.25152000      10.00000000  F      -0.00830000      -0.00001600      -0.07191600
Cu       1.25152000       3.75455000      10.00000000  F      -0.00024100       0.00403600      -0.06640400
Cu       3.75455000       3.75455000      10.00000000  F       0.01324600      -0.01467400      -0.05737600
Cu       6.25758000       3.75455000      10.00000000  F      -0.01729900      -0.01390300      -0.08719700
Cu       8.76061000       3.75455000      10.00000000  F       0.01862500      -0.01273400      -0.09024200
Cu      11.26364000       3.75455000      10.00000000  F      -0.01266800       0.00068900      -0.05811900
Cu       1.25152000       6.25758000      10.00000000  F      -0.00457300      -0.00064600      -0.07746800
Cu       3.75455000       6.25758000      10.00000000  F       0.01369300       0.02054500      -0.06411100
Cu       6.25758000       6.25758000      10.00000000  F      -0.01753900       0.01811700      -0.08497800
Cu       8.76061000       6.25758000      10.00000000  F       0.01904200       0.01807300      -0.08239700
Cu      11.26364000       6.25758000      10.00000000  F      -0.00866300       0.00573300      -0.06709200
Cu       1.25152000       8.76061000      10.00000000  F      -0.00177000       0.00707900      -0.07662800
Cu       3.75455000       8.76061000      10.00000000  F       0.00381600      -0.01360000      -0.07128700
Cu       6.25758000       8.76061000      10.00000000  F      -0.01011900      -0.01989700      -0.05931600
Cu       8.76061000       8.76061000      10.00000000  F       0.01260200      -0.01478700      -0.05358400
Cu      11.26364000       8.76061000      10.00000000  F      -0.00621000      -0.01313100      -0.07412600
Cu       1.25152000      11.26364000      10.00000000  F      -0.00372100       0.00728900      -0.01887600
Cu       3.75455000      11.26364000      10.00000000  F      -0.00896500       0.00375300      -0.07029500
Cu       6.25758000      11.26364000      10.00000000  F       0.00016700       0.00359000      -0.07035400
Cu       8.76061000      11.26364000      10.00000000  F      -0.00326700      -0.00046800      -0.06927600
Cu      11.26364000      11.26364000      10.00000000  F       0.01431400       0.00245400      -0.06692200
Cu       0.00000000       0.00000000      11.76991000  F      -0.01922100       0.02705300       0.03299800
Cu       2.50303000       0.00000000      11.76991000  F       0.03871500       0.00224700       0.02335600
Cu       5.00606000       0.00000000      11.76991000  F       0.06449200       0.06848800       0.06057500
Cu       7.50909000       0.00000000      11.76991000  F       0.01454300       0.06526800       0.04656300
Cu      10.01212000       0.00000000      11.76991000  F      -0.05868900       0.06812100       0.08017300
Cu       0.00000000       2.50303000      11.76991000  F      -0.09013600       0.02361100       0.01821800
Cu       2.50303000       2.50303000      11.76991000  F       0.06708600       0.02536000       0.00813700
Cu       5.00606000       2.50303000      11.76991000  F       0.02112000      -0.02505800       0.08144500
Cu       7.50909000       2.50303000      11.76991000  F      -0.01728900      -0.01039900       0.14773200
Cu      10.01212000       2.50303000      11.76991000  F      -0.01673600      -0.02442700       0.08400300
Cu       0.00000000       5.00606000      11.76991000  F      -0.08781000       0.03666900       0.00630900
Cu       2.50303000       5.00606000      11.76991000  F       0.05758800       0.01764000       0.01662600
Cu       5.00606000       5.00606000      11.76991000  F       0.00102500      -0.00292000       0.11158900
Cu       7.50909000       5.00606000      11.76991000  F      -0.05108100      -0.03759300       0.14426700
Cu      10.01212000       5.00606000      11.76991000  F      -0.02538500      -0.00703500       0.08104300
Cu       0.00000000       7.50909000      11.76991000  F      -0.05705200       0.00199000       0.04540600
Cu       2.50303000       7.50909000      11.76991000  F       0.04756900       0.04327800       0.00176600
Cu       5.00606000       7.50909000      11.76991000  F       0.00543800       0.07166100       0.03015700
Cu       7.50909000       7.50909000      11.76991000  F      -0.03966200       0.05456500       0.06332700
Cu      10.01212000       7.50909000      11.76991000  F       0.05568500       0.09139400       0.00065800
Cu       0.00000000      10.01212000      11.76991000  F      -0.01665200      -0.04897800       0.06508700
Cu       2.50303000      10.01212000      11.76991000  F       0.04857500      -0.04264600       0.07473600
Cu       5.00606000      10.01212000      11.76991000  F       0.07171100      -0.07460800       0.08204900
Cu       7.50909000      10.01212000      11.76991000  F       0.01866200      -0.07919300       0.08372900
Cu      10.01212000      10.01212000      11.76991000  F      -0.05718900      -0.07484600       0.09295600
Cu       1.25920000       1.23602000      13.56723000  T      -0.00106700      -0.00035800       0.00206900
Cu       3.77057000       1.26043000      13.58225000  T      -0.00117000      -0.00165700       0.00100500
Cu       6.28723000       1.26768000      13.61634000  T       0.00053600      -0.00372700       0.00195500
Cu       8.74675000       1.26787000      13.61662000  T      -0.00042700      -0.00469500       0.00200200
Cu      11.26289000       1.26357000      13.58352000  T      -0.00116000      -0.00021300       0.00098200
Cu       1.23818000       3.74849000      13.55401000  T      -0.00101600       0.00109500       0.00253800
Cu       3.75356000       3.76862000      13.58668000  T       0.00180500      -0.00200200       0.00183100
Cu       6.26972000       3.75977000      13.58791000  T       0.00118600      -0.00319000       0.00245900
Cu       8.72463000       3.76093000      13.58483000  T      -0.00031400      -0.00352400       0.00246300
Cu      11.22931000       3.78011000      13.58682000  T      -0.00059000      -0.00011900       0.00257200
Cu       1.24454000       6.26149000      13.56186000  T      -0.00067900       0.00207300       0.00355200
Cu       3.75519000       6.29161000      13.57629000  T       0.00136500      -0.00156200       0.00302700
Cu       6.26883000       6.25310000      13.57273000  T       0.00133200      -0.00685700       0.00073500
Cu       8.74043000       6.25985000      13.54675000  T       0.00187200      -0.00757500       0.00004700
Cu      11.23756000       6.28143000      13.59372000  T      -0.00078400      -0.00093200       0.00338800
Cu       1.26545000       8.76381000      13.57884000  T      -0.00032500       0.00194100       0.00273200
Cu       3.78948000       8.76497000      13.60782000  T      -0.00115800      -0.00029000       0.00160700
Cu       6.28277000       8.72924000      13.61632000  T      -0.00237600      -0.00560300      -0.00140000
Cu       8.76081000       8.72958000      13.61746000  T       0.00252700      -0.00601200      -0.00160800
Cu      11.25888000       8.76172000      13.60168000  T       0.00021300      -0.00047100       0.00233100
Cu       1.25101000      11.25731000      13.59354000  T       0.00002300       0.00001100       0.00195800
Cu       3.74739000      11.26776000      13.57329000  T      -0.00130400      -0.00057700       0.00162700
Cu       6.26127000      11.26336000      13.57203000  T      -0.00040100      -0.00621900       0.00164100
Cu       8.75761000      11.26204000      13.57654000  T       0.00121500      -0.00754300       0.00220200
Cu      11.27401000      11.26719000      13.57251000  T       0.00007400      -0.00025600       0.00255000
Cu       0.00283000       0.00461000      15.36439000  T      -0.00106100       0.00081200       0.00059800
Cu       2.51161000       0.00191000      15.36185000  T      -0.00000600      -0.00015900       0.00327300
Cu       5.00572000       0.00669000      15.35042000  T       0.00001200      -0.00224200       0.00193700
Cu       7.51059000      12.43569000      15.38889000  T      -0.00113000      -0.02058500      -0.00114000
Cu      10.02497000      -0.00212000      15.34664000  T      -0.00214300      -0.00152000       0.00192400
Cu       0.04618000       2.50229000      15.33920000  T      -0.00132900       0.00066000       0.00084900
Cu       2.49098000       2.50057000      15.34056000  T      -0.00088100       0.00079000       0.00097500
Cu       4.94461000       2.45072000      15.39509000  T      -0.00054700      -0.00456700       0.00495900
Cu       7.51225000       2.37918000      15.57848000  T       0.00121600      -0.02542200       0.01382400
Cu      10.11129000       2.45875000      15.38667000  T      -0.00078800      -0.00254500       0.00440500
Cu      12.49296000       5.00511000      15.32170000  T       0.00090800       0.00127000       0.00705600
Cu       2.40111000       4.99932000      15.34393000  T      -0.00004800       0.00061900       0.00323100
Pd       4.90453000       5.09162000      15.49318000  T       0.00451200      -0.01044200       0.00081700
Y        7.51427000       4.90387000      17.29457000  T      -0.00171300      -0.00632800       0.00173600
Cu      10.00729000       5.11207000      15.39961000  T       0.00320000      -0.01281000       0.00586400
Cu       0.05330000       7.50527000      15.35746000  T      -0.00167000       0.00256500       0.00214600
Cu       2.53492000       7.49305000      15.35755000  T      -0.00140900       0.00117400       0.00290100
Cu       5.01784000       7.64785000      15.50008000  T      -0.00106400      -0.00361900       0.00216800
Cu       7.54811000       7.44766000      15.50343000  T       0.00130100      -0.00446000      -0.00557000
Cu      10.08934000       7.60286000      15.47337000  T      -0.00029800      -0.00566500       0.00359800
Cu      12.51124000      10.00418000      15.36875000  T       0.00014600       0.00187400       0.00295700
Cu       2.50969000       9.99972000      15.36888000  T       0.00079500       0.00046900       0.00352900
Cu       5.01145000      10.08356000      15.36542000  T       0.00059800      -0.00158800       0.00184500
Cu       7.50694000       9.98221000      15.35269000  T      -0.00034000      -0.01361600       0.00425200
Cu      10.01096000      10.06045000      15.35809000  T      -0.00075900      -0.00400500       0.00220400
O        6.02439000       3.56980000      16.47647000  T       0.00573100      -0.00556800      -0.00048800
O        6.12247000       6.58230000      16.67155000  T       0.00567000      -0.00680000      -0.00240500
O        8.99241000       6.48832000      16.58014000  T       0.00039700      -0.01720300      -0.00591700
O        8.96772000       3.69640000      16.25755000  T      -0.00811000      -0.00928600       0.00164600
C        7.60805000       2.56002000      18.47354000  T       0.00306200       0.00627000       0.02187000
O        7.54524000       2.21461000      19.78957000  T       0.00904500       0.01547900       0.02385900
O        7.64129000       1.58211000      17.67454000  T       0.00124500       0.00688500       0.02771200
H        7.52656000       1.22308000      19.82674000  T       0.01048600       0.01562000       0.02814800
108
Lattice="12.515153631 0.0 0.0 0.0 12.515153631 0.0 0.0 0.0 25.30973" Properties=species:S:1:pos:R:3:move_mask:L:1:forces:R:3 stress="0.007668648912043844 -2.4716376138497707e-05 -4.9907106970562537e-05 -2.4716376138497707e-05 0.007634345577887988 0.00010284134586717846 -4.9907106970562537e-05 0.00010284134586717846 0.0016465350734445072" free_energy=-444.04732275 energy=-444.04358026 pbc="T T T"
Cu       1.25152000       1.25152000      10.00000000  F       0.00162800      -0.01902600      -0.08150600
Cu       3.75455000       1.25152000      10.00000000  F       0.00710800       0.00285300      -0.07087500
Cu       6.25758000       1.25152000      10.00000000  F      -0.01495200       0.01455200      -0.05327300
Cu       8.76061000       1.25152000      10.00000000  F       0.01405500       0.00847300      -0.04589200
Cu      11.26364000       1.25152000      10.00000000  F      -0.00827000       0.00034600      -0.07137200
Cu       1.25152000       3.75455000      10.00000000  F      -0.00027600       0.00457000      -0.06572000
Cu       3.75455000       3.75455000      10.00000000  F       0.01307900      -0.01408400      -0.05658000
Cu       6.25758000       3.75455000      10.00000000  F      -0.01738800      -0.01332900      -0.08664000
Cu       8.76061000       3.75455000      10.00000000  F       0.01860000      -0.01224100      -0.08993000
Cu      11.26364000       3.75455000      10.00000000  F      -0.01263300       0.00116700      -0.05768000
Cu       1.25152000       6.25758000      10.00000000  F      -0.00458200       0.00006100      -0.07661400
Cu       3.75455000       6.25758000      10.00000000  F       0.01350200       0.02120300      -0.06318700
Cu       6.25758000       6.25758000      10.00000000  F      -0.01767600       0.01872100      -0.08424000
Cu       8.76061000       6.25758000      10.00000000  F       0.01902400       0.01874700      -0.08195000
Cu      11.26364000       6.25758000      10.00000000  F      -0.00858100       0.00643500      -0.06656000
Cu       1.25152000       8.76061000      10.00000000  F      -0.00184900       0.00778000      -0.07569200
Cu       3.75455000       8.76061000      10.00000000  F       0.00356900      -0.01297800      -0.07035500
Cu       6.25758000       8.76061000      10.00000000  F      -0.01021000      -0.01925500      -0.05860800
Cu       8.76061000       8.76061000      10.00000000  F       0.01271300      -0.01407700      -0.05302800
Cu      11.26364000       8.76061000      10.00000000  F      -0.00616600      -0.01237800      -0.07339200
Cu       1.25152000      11.26364000      10.00000000  F      -0.00389300       0.00777900      -0.01800600
Cu       3.75455000      11.26364000      10.00000000  F      -0.00923200       0.00420900      -0.06954000
Cu       6.25758000      11.26364000      10.00000000  F       0.00012800       0.00409900      -0.06967800
Cu       8.76061000      11.26364000      10.00000000  F      -0.00311000       0.00006500      -0.06865700
Cu      11.26364000      11.26364000      10.00000000  F       0.01434500       0.00298200      -0.06614700
Cu       0.00000000       0.00000000      11.76991000  F      -0.01913300       0.02734100       0.03377400
Cu       2.50303000       0.00000000      11.76991000  F       0.03852700       0.00259100       0.02414400
Cu       5.00606000       0.00000000      11.76991000  F       0.06430300       0.06873700       0.06146600
Cu       7.50909000       0.00000000      11.76991000  F       0.01442200       0.06514900       0.04741600
Cu      10.01212000       0.00000000      11.76991000  F      -0.05870600       0.06822400       0.08087200
Cu       0.00000000       2.50303000      11.76991000  F      -0.08993200       0.02423100       0.01899700
Cu       2.50303000       2.50303000      11.76991000  F       0.06700000       0.02598100       0.00901900
Cu       5.00606000       2.50303000      11.76991000  F       0.02105100      -0.02463100       0.08228300
Cu       7.50909000       2.50303000      11.76991000  F      -0.01757100      -0.01007700       0.14865200
Cu      10.01212000       2.50303000      11.76991000  F      -0.01689700      -0.02411300       0.08457600
Cu       0.00000000       5.00606000      11.76991000  F      -0.08749600       0.03745700       0.00714500
Cu       2.50303000       5.00606000      11.76991000  F       0.05773800       0.01846800       0.01785400
Cu       5.00606000       5.00606000      11.76991000  F       0.00066400      -0.00235100       0.11228900
Cu       7.50909000       5.00606000      11.76991000  F      -0.05142400      -0.03756000       0.14462000
Cu      10.01212000       5.00606000      11.76991000  F      -0.02517800      -0.00662600       0.08128100
Cu       0.00000000       7.50909000      11.76991000  F      -0.05677100       0.00269100       0.04637800
Cu       2.50303000       7.50909000      11.76991000  F       0.04764400       0.04384400       0.00295200
Cu       5.00606000       7.50909000      11.76991000  F       0.00500600       0.07185200       0.03102500
Cu       7.50909000       7.50909000      11.76991000  F      -0.03991500       0.05466800       0.06375700
Cu      10.01212000       7.50909000      11.76991000  F       0.05594000       0.09177500       0.00103800
Cu       0.00000000      10.01212000      11.76991000  F      -0.01655000      -0.04841500       0.06596200
Cu       2.50303000      10.01212000      11.76991000  F       0.04847100      -0.04219400       0.07558500
Cu       5.00606000      10.01212000      11.76991000  F       0.07119400      -0.07442800       0.08261600
Cu       7.50909000      10.01212000      11.76991000  F       0.01849900      -0.07910200       0.08408300
Cu      10.01212000      10.01212000      11.76991000  F      -0.05683300      -0.07453700       0.09333400
Cu       1.25915000       1.23605000      13.56717000  T      -0.00084800       0.00034000       0.00033200
Cu       3.77058000       1.26044000      13.58220000  T      -0.00061200      -0.00025600       0.00042900
Cu       6.28729000       1.26756000      13.61640000  T       0.00057400      -0.00307700       0.00214800
Cu       8.74665000       1.26767000      13.61666000  T      -0.00157000      -0.00478400       0.00153200
Cu      11.26277000       1.26361000      13.58346000  T      -0.00179400       0.00044300      -0.00014200
Cu       1.23816000       3.74857000      13.55402000  T      -0.00018000       0.00207200       0.00149900
Cu       3.75370000       3.76855000      13.58665000  T       0.00212100      -0.00118000       0.00108100
Cu       6.26982000       3.75961000      13.58804000  T       0.00117000      -0.00321200       0.00315500
Cu       8.72454000       3.76075000      13.58500000  T      -0.00165600      -0.00384500       0.00360700
Cu      11.22919000       3.78014000      13.58687000  T      -0.00138900       0.00066400       0.00206300
Cu       1.24454000       6.26156000      13.56192000  T       0.00042000       0.00242300       0.00265400
Cu       3.75534000       6.29150000      13.57638000  T       0.00236200      -0.00144900       0.00340900
Cu       6.26892000       6.25276000      13.57273000  T       0.00110000      -0.00682200       0.00099000
Cu       8.74047000       6.25946000      13.54673000  T       0.00096400      -0.00782000       0.00029200
Cu      11.23746000       6.28136000      13.59382000  T      -0.00115800      -0.00069800       0.00308700
Cu       1.26545000       8.76385000      13.57884000  T       0.00007100       0.00177800       0.00132000
Cu       3.78950000       8.76491000      13.60781000  T      -0.00062800      -0.00070700       0.00123400
Cu       6.28268000       8.72887000      13.61620000  T      -0.00243100      -0.00697500      -0.00156200
Cu       8.76087000       8.72917000      13.61735000  T       0.00152700      -0.00755800      -0.00172300
Cu      11.25883000       8.76165000      13.60169000  T      -0.00021300      -0.00032000       0.00142700
Cu       1.25102000      11.25731000      13.59347000  T       0.00013500       0.00029000       0.00011400
Cu       3.74739000      11.26775000      13.57324000  T      -0.00075800      -0.00024500       0.00055300
Cu       6.26125000      11.26303000      13.57197000  T      -0.00091900      -0.00724700      -0.00005900
Cu       8.75763000      11.26162000      13.57649000  T       0.00091500      -0.00869100      -0.00002600
Cu      11.27398000      11.26719000      13.57249000  T       0.00001800       0.00006900       0.00067700
Cu       0.00277000       0.00466000      15.36418000  T      -0.00112400       0.00135900      -0.00333000
Cu       2.51160000       0.00190000      15.36174000  T      -0.00029800       0.00003700      -0.00077100
Cu       5.00574000       0.00666000      15.35030000  T       0.00004100      -0.00106500      -0.00098200
Cu       7.51053000      12.43451000      15.38858000  T      -0.00160900      -0.02493000      -0.00462300
Cu      10.02484000      -0.00220000      15.34653000  T      -0.00283000      -0.00176000      -0.00071300
Cu       0.04608000       2.50235000      15.33902000  T      -0.00164400       0.00131100      -0.00217400
Cu       2.49095000       2.50060000      15.34039000  T      -0.00050500       0.00109900      -0.00212500
Cu       4.94462000       2.45056000      15.39519000  T      -0.00061900      -0.00390100       0.00366300
Cu       7.51230000       2.37763000      15.57943000  T       0.00053100      -0.03202700       0.02050200
Cu      10.11120000       2.45861000      15.38673000  T      -0.00087300      -0.00370100       0.00291000
Cu      12.49298000       5.00519000      15.32182000  T       0.00131800       0.00215500       0.00449000
Cu       2.40120000       4.99935000      15.34387000  T       0.00235400       0.00129400       0.00031500
Pd       4.90482000       5.09119000      15.49316000  T       0.01394500      -0.01822000      -0.00180200
Y        7.51423000       4.90330000      17.29479000  T      -0.00071800      -0.01881900       0.01004300
Cu      10.00732000       5.11150000      15.39983000  T       0.00224700      -0.01262400       0.00547200
Cu       0.05320000       7.50541000      15.35738000  T      -0.00150900       0.00371700      -0.00030100
Cu       2.53491000       7.49312000      15.35752000  T      -0.00040000       0.00188900       0.00039800
Cu       5.01786000       7.64766000      15.50012000  T      -0.00003500      -0.00437700       0.00192900
Cu       7.54818000       7.44720000      15.50313000  T       0.00086100      -0.00849100      -0.00555100
Cu      10.08925000       7.60259000      15.47349000  T      -0.00119100      -0.00541000       0.00349100
Cu      12.51126000      10.00431000      15.36865000  T       0.00066100       0.00307500      -0.00072600
Cu       2.50972000       9.99977000      15.36882000  T       0.00069400       0.00110000      -0.00019000
Cu       5.01148000      10.08350000      15.36533000  T       0.00040400      -0.00167400      -0.00046800
Cu       7.50692000       9.98128000      15.35272000  T      -0.00071200      -0.01933700       0.00206300
Cu      10.01093000      10.06026000      15.35802000  T      -0.00067800      -0.00415300      -0.00021900
O        6.02469000       3.56936000      16.47643000  T       0.00195700      -0.00526000       0.00051100
O        6.12271000       6.58180000      16.67132000  T       0.00406900      -0.00616800      -0.00236600
O        8.99241000       6.48743000      16.57987000  T      -0.00064900      -0.01415200      -0.00374800
O        8.96732000       3.69586000      16.25760000  T      -0.00547200      -0.00879300       0.00298800
C        7.60820000       2.56037000      18.47493000  T       0.00209600       0.01281900       0.03081300
O        7.54573000       2.21538000      19.79116000  T       0.00774000       0.01279500       0.02830200
O        7.64134000       1.58240000      17.67621000  T       0.00050500       0.00528500       0.02683200
H        7.52711000       1.22378000      19.82843000  T       0.01123800       0.01808500       0.03127600
108
Lattice="12.515153631 0.0 0.0 0.0 12.515153631 0.0 0.0 0.0 25.30973" Properties=species:S:1:pos:R:3:move_mask:L:1:forces:R:3 stress="0.00773321108244198 -2.494731197615538e-05 -4.5438186436430124e-05 -2.494731197615538e-05 0.007694014405131433 9.352901425136064e-05 -4.5438186436430124e-05 9.352901425136064e-05 0.0017268383298581211" free_energy=-444.04849011 energy=-444.04474144 pbc="T T T"
Cu       1.25152000       1.25152000      10.00000000  F       0.00188700      -0.01935900      -0.08226700
Cu       3.75455000       1.25152000      10.00000000  F       0.00746100       0.00250100      -0.07130800
Cu       6.25758000       1.25152000      10.00000000  F      -0.01486700       0.01418700      -0.05350100
Cu       8.76061000       1.25152000      10.00000000  F       0.01373900       0.00818200      -0.04624400
Cu      11.26364000       1.25152000      10.00000000  F      -0.00832300       0.00010000      -0.07197900
Cu       1.25152000       3.75455000      10.00000000  F      -0.00006300       0.00404900      -0.06616400
Cu       3.75455000       3.75455000      10.00000000  F       0.01339400      -0.01464500      -0.05686300
Cu       6.25758000       3.75455000      10.00000000  F      -0.01732200      -0.01393200      -0.08680900
Cu       8.76061000       3.75455000      10.00000000  F       0.01843100      -0.01280100      -0.09015600
Cu      11.26364000       3.75455000      10.00000000  F      -0.01272000       0.00064600      -0.05798500
Cu       1.25152000       6.25758000      10.00000000  F      -0.00433600      -0.00084000      -0.07711300
Cu       3.75455000       6.25758000      10.00000000  F       0.01385400       0.02036200      -0.06354800
Cu       6.25758000       6.25758000      10.00000000  F      -0.01764400       0.01796100      -0.08435000
Cu       8.76061000       6.25758000      10.00000000  F       0.01886500       0.01793900      -0.08209000
Cu      11.26364000       6.25758000      10.00000000  F      -0.00871200       0.00553700      -0.06693400
Cu       1.25152000       8.76061000      10.00000000  F      -0.00158200       0.00696600      -0.07647800
Cu       3.75455000       8.76061000      10.00000000  F       0.00398200      -0.01377400      -0.07097000
Cu       6.25758000       8.76061000      10.00000000  F      -0.01021800      -0.02005500      -0.05898000
Cu       8.76061000       8.76061000      10.00000000  F       0.01248400      -0.01496000      -0.05352700
Cu      11.26364000       8.76061000      10.00000000  F      -0.00627800      -0.01325600      -0.07418100
Cu       1.25152000      11.26364000      10.00000000  F      -0.00357700       0.00726100      -0.01901800
Cu       3.75455000      11.26364000      10.00000000  F      -0.00886200       0.00366000      -0.07016500
Cu       6.25758000      11.26364000      10.00000000  F       0.00013800       0.00355100      -0.07002100
Cu       8.76061000      11.26364000      10.00000000  F      -0.00343700      -0.00045800      -0.06919100
Cu      11.26364000      11.26364000      10.00000000  F       0.01430200       0.00243300      -0.06710800
Cu       0.00000000       0.00000000      11.76991000  F      -0.01907800       0.02689500       0.03453600
Cu       2.50303000       0.00000000      11.76991000  F       0.03878200       0.00217000       0.02464500
Cu       5.00606000       0.00000000      11.76991000  F       0.06467500       0.06779000       0.06232900
Cu       7.50909000       0.00000000      11.76991000  F       0.01423900       0.06372300       0.04865600
Cu      10.01212000       0.00000000      11.76991000  F      -0.05919200       0.06733700       0.08184500
Cu       0.00000000       2.50303000      11.76991000  F      -0.08984200       0.02421900       0.01999200
Cu       2.50303000       2.50303000      11.76991000  F       0.06709400       0.02571300       0.00989200
Cu       5.00606000       2.50303000      11.76991000  F       0.02144800      -0.02576400       0.08285300
Cu       7.50909000       2.50303000      11.76991000  F      -0.01764500      -0.01122500       0.14969700
Cu      10.01212000       2.50303000      11.76991000  F      -0.01727500      -0.02467700       0.08557300
Cu       0.00000000       5.00606000      11.76991000  F      -0.08753200       0.03690000       0.00839600
Cu       2.50303000       5.00606000      11.76991000  F       0.05800900       0.01785600       0.01908300
Cu       5.00606000       5.00606000      11.76991000  F       0.00062300      -0.00355200       0.11257700
Cu       7.50909000       5.00606000      11.76991000  F      -0.05120500      -0.03955100       0.14476500
Cu      10.01212000       5.00606000      11.76991000  F      -0.02477300      -0.00803800       0.08186700
Cu       0.00000000       7.50909000      11.76991000  F      -0.05675700       0.00152200       0.04756400
Cu       2.50303000       7.50909000      11.76991000  F       0.04787500       0.04255400       0.00406300
Cu       5.00606000       7.50909000      11.76991000  F       0.00487300       0.07017100       0.03149700
Cu       7.50909000       7.50909000      11.76991000  F      -0.03974400       0.05257300       0.06432900
Cu      10.01212000       7.50909000      11.76991000  F       0.05628500       0.08979600       0.00178800
Cu       0.00000000      10.01212000      11.76991000  F      -0.01653400      -0.04919700       0.06674700
Cu       2.50303000      10.01212000      11.76991000  F       0.04884000      -0.04288000       0.07598700
Cu       5.00606000      10.01212000      11.76991000  F       0.07094300      -0.07544000       0.08266300
Cu       7.50909000      10.01212000      11.76991000  F       0.01829400      -0.08058800       0.08424700
Cu      10.01212000      10.01212000      11.76991000  F      -0.05661300      -0.07569900       0.09355400
Cu       1.25910000       1.23601000      13.56740000  T      -0.00048600       0.00043500       0.00078200
Cu       3.77047000       1.26026000      13.58236000  T      -0.00008100      -0.00084400       0.00087000
Cu       6.28729000       1.26715000      13.61661000  T       0.00070200      -0.00353500       0.00193900
Cu       8.74660000       1.26719000      13.61687000  T      -0.00144300      -0.00420300       0.00191200
Cu      11.26272000       1.26355000      13.58360000  T      -0.00118300       0.00001800       0.00078200
Cu       1.23812000       3.74868000      13.55427000  T      -0.00013300       0.00152200       0.00141500
Cu       3.75377000       3.76836000      13.58687000  T       0.00058300      -0.00166000       0.00026600
Cu       6.26986000       3.75922000      13.58823000  T       0.00133600      -0.00467500       0.00113200
Cu       8.72452000       3.76034000      13.58519000  T      -0.00055400      -0.00446600       0.00228200
Cu      11.22923000       3.78010000      13.58714000  T      -0.00027900      -0.00022200       0.00193500
Cu       1.24452000       6.26173000      13.56226000  T      -0.00009400       0.00076500       0.00195300
Cu       3.75540000       6.29139000      13.57673000  T       0.00135300      -0.00155800       0.00277000
Cu       6.26897000       6.25218000      13.57279000  T       0.00099700      -0.00424000      -0.00022700
Cu       8.74065000       6.25881000      13.54677000  T       0.00148600      -0.00551000       0.00094800
Cu      11.23747000       6.28127000      13.59416000  T      -0.00028200      -0.00156000       0.00285200
Cu       1.26545000       8.76402000      13.57911000  T      -0.00007800       0.00081300       0.00133600
Cu       3.78935000       8.76488000      13.60801000  T      -0.00055400      -0.00077300       0.00103800
Cu       6.28246000       8.72841000      13.61614000  T      -0.00099300      -0.00503000      -0.00067200
Cu       8.76106000       8.72868000      13.61726000  T       0.00071100      -0.00580300      -0.00010700
Cu      11.25891000       8.76163000      13.60194000  T      -0.00009400      -0.00101300       0.00184100
Cu       1.25104000      11.25731000      13.59371000  T       0.00018300       0.00033700       0.00107900
Cu       3.74727000      11.26766000      13.57346000  T      -0.00006500      -0.00056200       0.00103000
Cu       6.26116000      11.26245000      13.57211000  T      -0.00061200      -0.00566100      -0.00018500
Cu       8.75773000      11.26097000      13.57668000  T       0.00034500      -0.00620500       0.00022700
Cu      11.27401000      11.26714000      13.57275000  T      -0.00039600      -0.00036200       0.00147300
Cu       0.00268000       0.00474000      15.36430000  T      -0.00113000       0.00108000       0.00019200
Cu       2.51161000       0.00190000      15.36208000  T      -0.00020800       0.00013100       0.00147200
Cu       5.00574000       0.00639000      15.35053000  T       0.00049000      -0.00242500       0.00068800
Cu       7.51038000      12.43258000      15.38852000  T      -0.00104700      -0.01704600      -0.00259300
Cu      10.02462000      -0.00240000      15.34678000  T      -0.00211500      -0.00239000       0.00103500
Cu       0.04601000       2.50240000      15.33918000  T      -0.00097500       0.00085000       0.00025800
Cu       2.49090000       2.50067000      15.34054000  T      -0.00074000       0.00032200       0.00022300
Cu       4.94452000       2.45002000      15.39566000  T      -0.00128500      -0.00626000       0.00203500
Cu       7.51234000       2.37519000      15.58088000  T       0.00039300      -0.02403000       0.01521100
Cu      10.11121000       2.45823000      15.38717000  T       0.00008200      -0.00422700       0.00193400
Cu      12.49315000       5.00532000      15.32247000  T       0.00123300       0.00124300       0.00337200
Cu       2.40134000       4.99943000      15.34421000  T       0.00247500       0.00086500       0.00146200
Pd       4.90540000       5.09024000      15.49317000  T       0.00026800       0.00082100      -0.00154700
Y        7.51426000       4.90149000      17.29567000  T      -0.00174900       0.00774500      -0.00243100
Cu      10.00764000       5.11035000      15.40035000  T       0.00056500      -0.00841400       0.00408500
Cu       0.05312000       7.50565000      15.35764000  T      -0.00106200       0.00190700       0.00161000
Cu       2.53478000       7.49322000      15.35780000  T      -0.00102700       0.00100600       0.00168500
Cu       5.01774000       7.64725000      15.50031000  T       0.00065100      -0.00575100       0.00210600
Cu       7.54824000       7.44660000      15.50276000  T       0.00065900      -0.01008600      -0.00154500
Cu      10.08924000       7.60199000      15.47386000  T      -0.00147400      -0.00657400       0.00259200
Cu      12.51130000      10.00447000      15.36897000  T       0.00024800       0.00165000       0.00170300
Cu       2.50981000       9.99979000      15.36916000  T       0.00057400       0.00046300       0.00214200
Cu       5.01153000      10.08325000      15.36555000  T       0.00057600      -0.00262200       0.00098500
Cu       7.50686000       9.97995000      15.35310000  T      -0.00022500      -0.01393800       0.00121400
Cu      10.01087000      10.05985000      15.35829000  T      -0.00059200      -0.00404800       0.00136200
O        6.02485000       3.56881000      16.47640000  T       0.00458600      -0.01019200       0.00290300
O        6.12309000       6.58124000      16.67113000  T       0.00435900      -0.00692900      -0.00249400
O        8.99235000       6.48601000      16.57940000  T       0.00055000      -0.01411900      -0.00559500
O        8.96674000       3.69490000      16.25776000  T      -0.00443300      -0.01165700       0.00051500
C        7.60847000       2.56134000      18.47756000  T       0.00260200       0.00091000       0.01136500
O        7.54659000       2.21686000      19.79362000  T       0.00946900       0.02279800       0.03192600
O        7.64143000       1.58302000      17.67893000  T       0.00108700       0.01110400       0.03269400
H        7.52833000       1.22552000      19.83170000  T       0.01044200       0.00793700       0.02856900
108
Lattice="12.515153631 0.0 0.0 0.0 12.515153631 0.0 0.0 0.0 25.30973" Properties=species:S:1:pos:R:3:move_mask:L:1:forces:R:3 stress="0.007643295901974506 -2.3649078077971667e-05 -4.957630698689072e-05 -2.3649078077971667e-05 0.0076006851191721 8.711274286995263e-05 -4.957630698689072e-05 8.711274286995263e-05 0.0016237223575894038" free_energy=-444.05317976 energy=-444.04942248 pbc="T T T"
Cu       1.25152000       1.25152000      10.00000000  F       0.00160500      -0.01914100      -0.08247700
Cu       3.75455000       1.25152000      10.00000000  F       0.00714300       0.00274800      -0.07178000
Cu       6.25758000       1.25152000      10.00000000  F      -0.01474200       0.01442000      -0.05418800
Cu       8.76061000       1.25152000      10.00000000  F       0.01405200       0.00836400      -0.04669100
Cu      11.26364000       1.25152000      10.00000000  F      -0.00819000       0.00029300      -0.07212500
Cu       1.25152000       3.75455000      10.00000000  F      -0.00029300       0.00416600      -0.06634900
Cu       3.75455000       3.75455000      10.00000000  F       0.01315700      -0.01442400      -0.05721900
Cu       6.25758000       3.75455000      10.00000000  F      -0.01723500      -0.01365400      -0.08735200
Cu       8.76061000       3.75455000      10.00000000  F       0.01867300      -0.01258100      -0.09067400
Cu      11.26364000       3.75455000      10.00000000  F      -0.01262400       0.00080200      -0.05821100
Cu       1.25152000       6.25758000      10.00000000  F      -0.00452200      -0.00061600      -0.07729200
Cu       3.75455000       6.25758000      10.00000000  F       0.01372400       0.02061900      -0.06390300
Cu       6.25758000       6.25758000      10.00000000  F      -0.01758200       0.01821200      -0.08472500
Cu       8.76061000       6.25758000      10.00000000  F       0.01904600       0.01823900      -0.08249400
Cu      11.26364000       6.25758000      10.00000000  F      -0.00868400       0.00575100      -0.06721200
Cu       1.25152000       8.76061000      10.00000000  F      -0.00179600       0.00723600      -0.07675100
Cu       3.75455000       8.76061000      10.00000000  F       0.00379600      -0.01355800      -0.07136800
Cu       6.25758000       8.76061000      10.00000000  F      -0.01012000      -0.01987500      -0.05933800
Cu       8.76061000       8.76061000      10.00000000  F       0.01277700      -0.01470900      -0.05394200
Cu      11.26364000       8.76061000      10.00000000  F      -0.00629500      -0.01296700      -0.07442500
Cu       1.25152000      11.26364000      10.00000000  F      -0.00383700       0.00755100      -0.01926600
Cu       3.75455000      11.26364000      10.00000000  F      -0.00909900       0.00383800      -0.07072100
Cu       6.25758000      11.26364000      10.00000000  F       0.00025700       0.00372300      -0.07061600
Cu       8.76061000      11.26364000      10.00000000  F      -0.00312900      -0.00029700      -0.06963500
Cu      11.26364000      11.26364000      10.00000000  F       0.01434900       0.00269500      -0.06721000
Cu       0.00000000       0.00000000      11.76991000  F      -0.01922200       0.02710200       0.03428000
Cu       2.50303000       0.00000000      11.76991000  F       0.03819200       0.00246400       0.02435000
Cu       5.00606000       0.00000000      11.76991000  F       0.06446100       0.06784500       0.06234000
Cu       7.50909000       0.00000000      11.76991000  F       0.01459800       0.06331500       0.04883200
Cu      10.01212000       0.00000000      11.76991000  F      -0.05891300       0.06732600       0.08173400
Cu       0.00000000       2.50303000      11.76991000  F      -0.08982400       0.02468000       0.01990900
Cu       2.50303000       2.50303000      11.76991000  F       0.06651800       0.02605300       0.00980600
Cu       5.00606000       2.50303000      11.76991000  F       0.02134700      -0.02581600       0.08277600
Cu       7.50909000       2.50303000      11.76991000  F      -0.01745900      -0.01136400       0.14988200
Cu      10.01212000       2.50303000      11.76991000  F      -0.01700300      -0.02468400       0.08544800
Cu       0.00000000       5.00606000      11.76991000  F      -0.08753200       0.03718900       0.00847700
Cu       2.50303000       5.00606000      11.76991000  F       0.05775000       0.01815900       0.01950800
Cu       5.00606000       5.00606000      11.76991000  F       0.00024000      -0.00358200       0.11253900
Cu       7.50909000       5.00606000      11.76991000  F      -0.05090000      -0.04009800       0.14450500
Cu      10.01212000       5.00606000      11.76991000  F      -0.02415400      -0.00821600       0.08157500
Cu       0.00000000       7.50909000      11.76991000  F      -0.05681300       0.00161100       0.04774600
Cu       2.50303000       7.50909000      11.76991000  F       0.04744000       0.04253900       0.00434800
Cu       5.00606000       7.50909000      11.76991000  F       0.00450900       0.06973100       0.03162900
Cu       7.50909000       7.50909000      11.76991000  F      -0.03936900       0.05196400       0.06421300
Cu      10.01212000       7.50909000      11.76991000  F       0.05691800       0.08947800       0.00164800
Cu       0.00000000      10.01212000      11.76991000  F      -0.01677700      -0.04886900       0.06661500
Cu       2.50303000      10.01212000      11.76991000  F       0.04835900      -0.04263200       0.07576000
Cu       5.00606000      10.01212000      11.76991000  F       0.07042100      -0.07560600       0.08229100
Cu       7.50909000      10.01212000      11.76991000  F       0.01864100      -0.08096600       0.08384900
Cu      10.01212000      10.01212000      11.76991000  F      -0.05592900      -0.07584500       0.09315300
Cu       1.25905000       1.23602000      13.56752000  T      -0.00070500       0.00095200       0.00025900
Cu       3.77041000       1.26017000      13.58245000  T      -0.00031300      -0.00060400       0.00069600
Cu       6.28731000       1.26688000      13.61675000  T       0.00096500      -0.00389200       0.00221100
Cu       8.74655000       1.26688000      13.61700000  T      -0.00154600      -0.00450800       0.00195700
Cu      11.26266000       1.26354000      13.58366000  T      -0.00101000       0.00008500       0.00030300
Cu       1.23810000       3.74878000      13.55441000  T       0.00002300       0.00202000       0.00115700
Cu       3.75380000       3.76824000      13.58696000  T      -0.00002900      -0.00168900      -0.00015000
Cu       6.26992000       3.75894000      13.58832000  T       0.00152400      -0.00538800       0.00082800
Cu       8.72451000       3.76005000      13.58532000  T      -0.00037000      -0.00492500       0.00240000
Cu      11.22924000       3.78009000      13.58730000  T       0.00006600      -0.00005500       0.00168700
Cu       1.24450000       6.26185000      13.56245000  T       0.00006900       0.00078800       0.00176900
Cu       3.75546000       6.29132000      13.57696000  T       0.00173500      -0.00194600       0.00398500
Cu       6.26902000       6.25183000      13.57280000  T       0.00081200      -0.00412500      -0.00011600
Cu       8.74078000       6.25840000      13.54679000  T       0.00163300      -0.00538900       0.00097500
Cu      11.23747000       6.28120000      13.59437000  T       0.00008500      -0.00161200       0.00262200
Cu       1.26543000       8.76413000      13.57926000  T      -0.00035000       0.00087000       0.00097700
Cu       3.78927000       8.76486000      13.60811000  T      -0.00066500      -0.00115400       0.00109000
Cu       6.28234000       8.72810000      13.61609000  T      -0.00081200      -0.00558600      -0.00048100
Cu       8.76116000       8.72834000      13.61720000  T       0.00066600      -0.00625100       0.00009400
Cu      11.25894000       8.76161000      13.60208000  T      -0.00005400      -0.00104000       0.00166700
Cu       1.25104000      11.25734000      13.59383000  T      -0.00016100       0.00068600       0.00076400
Cu       3.74722000      11.26763000      13.57358000  T      -0.00018200      -0.00053800       0.00092200
Cu       6.26111000      11.26206000      13.57215000  T      -0.00068300      -0.00615200      -0.00083800
Cu       8.75780000      11.26054000      13.57675000  T       0.00057800      -0.00657800      -0.00045400
Cu      11.27401000      11.26712000      13.57290000  T      -0.00036800      -0.00030800       0.00102400
Cu       0.00260000       0.00482000      15.36437000  T      -0.00134500       0.00153100       0.00061400
Cu       2.51160000       0.00192000      15.36228000  T      -0.00041300       0.00060800       0.00181900
Cu       5.00576000       0.00621000      15.35066000  T       0.00085400      -0.00262300       0.00145300
Cu       7.51030000      12.43129000      15.38843000  T      -0.00107400      -0.01718000      -0.00237300
Cu      10.02447000      -0.00253000      15.34693000  T      -0.00246300      -0.00277400       0.00161900
Cu       0.04594000       2.50247000      15.33927000  T      -0.00072800       0.00131400       0.00054700
Cu       2.49084000       2.50073000      15.34061000  T      -0.00084500       0.00083100       0.00052200
Cu       4.94445000       2.44962000      15.39591000  T      -0.00150600      -0.00794500       0.00187300
Cu       7.51237000       2.37352000      15.58190000  T       0.00058100      -0.02461300       0.01720200
Cu      10.11122000       2.45797000      15.38741000  T       0.00067900      -0.00549100       0.00179700
Cu      12.49324000       5.00542000      15.32286000  T       0.00171400       0.00163900       0.00311800
Cu       2.40146000       4.99950000      15.34441000  T       0.00438900       0.00151100       0.00146600
Pd       4.90609000       5.08917000      15.49312000  T      -0.00265400       0.00874300      -0.00322800
Y        7.51420000       4.90062000      17.29620000  T       0.00039600       0.01361600      -0.00368800
Cu      10.00780000       5.10964000      15.40067000  T       0.00091600      -0.00754400       0.00368800
Cu       0.05304000       7.50583000      15.35780000  T      -0.00099300       0.00210800       0.00203400
Cu       2.53468000       7.49331000      15.35797000  T      -0.00114900       0.00126400       0.00186200
Cu       5.01770000       7.64694000      15.50044000  T       0.00094600      -0.00816300       0.00205200
Cu       7.54829000       7.44609000      15.50256000  T       0.00020800      -0.01208900      -0.00147500
Cu      10.08919000       7.60157000      15.47408000  T      -0.00086600      -0.00623300       0.00162300
Cu      12.51131000      10.00461000      15.36917000  T       0.00018700       0.00186100       0.00197800
Cu       2.50986000       9.99984000      15.36938000  T       0.00044200       0.00057400       0.00260700
Cu       5.01157000      10.08310000      15.36568000  T       0.00065900      -0.00346300       0.00158600
Cu       7.50683000       9.97902000      15.35330000  T      -0.00015200      -0.01501100       0.00132500
Cu      10.01082000      10.05958000      15.35845000  T      -0.00053500      -0.00438800       0.00171900
O        6.02496000       3.56834000      16.47645000  T       0.00602200      -0.01441600       0.00480000
O        6.12333000       6.58085000      16.67094000  T       0.00297900      -0.00893500      -0.00384900
O        8.99233000       6.48515000      16.57908000  T       0.00014900      -0.01625100      -0.00544100
O        8.96647000       3.69426000      16.25783000  T      -0.00703900      -0.01397700       0.00141400
C        7.60860000       2.56195000      18.47912000  T       0.00131100       0.00231900       0.02023400
O        7.54710000       2.21790000      19.79563000  T       0.01072800       0.02060100       0.02914900
O        7.64147000       1.58354000      17.68073000  T       0.00105600       0.00836400       0.03606600
H        7.52911000       1.22641000      19.83376000  T       0.01070500       0.01194100       0.02929500
108
Lattice="12.515153631 0.0 0.0 0.0 12.515153631 0.0 0.0 0.0 25.30973" Properties=species:S:1:pos:R:3:move_mask:L:1:forces:R:3 stress="0.00767220033073647 -2.419833088104939e-05 -4.772257877650339e-05 -2.419833088104939e-05 0.007629096468713121 8.560229766148888e-05 -4.772257877650339e-05 8.560229766148888e-05 0.00165535432583938" free_energy=-444.05231237 energy=-444.04855709 pbc="T T T"
Cu       1.25152000       1.25152000      10.00000000  F       0.00165600      -0.01947600      -0.08239000
Cu       3.75455000       1.25152000      10.00000000  F       0.00733400       0.00241200      -0.07141700
Cu       6.25758000       1.25152000      10.00000000  F      -0.01478500       0.01411400      -0.05358400
Cu       8.76061000       1.25152000      10.00000000  F       0.01375200       0.00807800      -0.04625100
Cu      11.26364000       1.25152000      10.00000000  F      -0.00845900      -0.00003600      -0.07200100
Cu       1.25152000       3.75455000      10.00000000  F      -0.00027700       0.00403100      -0.06638100
Cu       3.75455000       3.75455000      10.00000000  F       0.01329800      -0.01465800      -0.05700900
Cu       6.25758000       3.75455000      10.00000000  F      -0.01725100      -0.01392800      -0.08696800
Cu       8.76061000       3.75455000      10.00000000  F       0.01842500      -0.01280400      -0.09033300
Cu      11.26364000       3.75455000      10.00000000  F      -0.01288300       0.00065800      -0.05810300
Cu       1.25152000       6.25758000      10.00000000  F      -0.00456300      -0.00063900      -0.07724300
Cu       3.75455000       6.25758000      10.00000000  F       0.01375700       0.02055000      -0.06369500
Cu       6.25758000       6.25758000      10.00000000  F      -0.01759700       0.01812700      -0.08440400
Cu       8.76061000       6.25758000      10.00000000  F       0.01889400       0.01813100      -0.08212600
Cu      11.26364000       6.25758000      10.00000000  F      -0.00887600       0.00572600      -0.06701500
Cu       1.25152000       8.76061000      10.00000000  F      -0.00181900       0.00716300      -0.07642200
Cu       3.75455000       8.76061000      10.00000000  F       0.00386000      -0.01359400      -0.07105200
Cu       6.25758000       8.76061000      10.00000000  F      -0.01017700      -0.01987700      -0.05903500
Cu       8.76061000       8.76061000      10.00000000  F       0.01256300      -0.01475600      -0.05346600
Cu      11.26364000       8.76061000      10.00000000  F      -0.00644500      -0.01305200      -0.07407600
Cu       1.25152000      11.26364000      10.00000000  F      -0.00383700       0.00727600      -0.01897700
Cu       3.75455000      11.26364000      10.00000000  F      -0.00898800       0.00367000      -0.07019700
Cu       6.25758000      11.26364000      10.00000000  F       0.00020800       0.00356900      -0.06999000
Cu       8.76061000      11.26364000      10.00000000  F      -0.00336000      -0.00045300      -0.06909900
Cu      11.26364000      11.26364000      10.00000000  F       0.01414300       0.00243900      -0.06695600
Cu       0.00000000       0.00000000      11.76991000  F      -0.01942000       0.02677200       0.03436700
Cu       2.50303000       0.00000000      11.76991000  F       0.03852900       0.00208300       0.02447400
Cu       5.00606000       0.00000000      11.76991000  F       0.06473900       0.06753000       0.06243900
Cu       7.50909000       0.00000000      11.76991000  F       0.01433200       0.06310100       0.04888400
Cu      10.01212000       0.00000000      11.76991000  F      -0.05942000       0.06703700       0.08183500
Cu       0.00000000       2.50303000      11.76991000  F      -0.09013200       0.02435400       0.01999100
Cu       2.50303000       2.50303000      11.76991000  F       0.06683400       0.02566900       0.00980700
Cu       5.00606000       2.50303000      11.76991000  F       0.02167900      -0.02620600       0.08289600
Cu       7.50909000       2.50303000      11.76991000  F      -0.01757300      -0.01175100       0.14999000
Cu      10.01212000       2.50303000      11.76991000  F      -0.01758200      -0.02496900       0.08567200
Cu       0.00000000       5.00606000      11.76991000  F      -0.08781400       0.03711000       0.00847100
Cu       2.50303000       5.00606000      11.76991000  F       0.05801100       0.01816900       0.01938200
Cu       5.00606000       5.00606000      11.76991000  F       0.00056700      -0.00368500       0.11264600
Cu       7.50909000       5.00606000      11.76991000  F      -0.05101500      -0.04027100       0.14475600
Cu      10.01212000       5.00606000      11.76991000  F      -0.02469100      -0.00835200       0.08174900
Cu       0.00000000       7.50909000      11.76991000  F      -0.05703300       0.00169100       0.04769600
Cu       2.50303000       7.50909000      11.76991000  F       0.04782200       0.04255900       0.00438900
Cu       5.00606000       7.50909000      11.76991000  F       0.00465100       0.06984700       0.03155700
Cu       7.50909000       7.50909000      11.76991000  F      -0.03951600       0.05204900       0.06420800
Cu      10.01212000       7.50909000      11.76991000  F       0.05646100       0.08952000       0.00169000
Cu       0.00000000      10.01212000      11.76991000  F      -0.01692000      -0.04906700       0.06667600
Cu       2.50303000      10.01212000      11.76991000  F       0.04866900      -0.04274400       0.07583900
Cu       5.00606000      10.01212000      11.76991000  F       0.07061700      -0.07571900       0.08231500
Cu       7.50909000      10.01212000      11.76991000  F       0.01840400      -0.08111400       0.08383100
Cu      10.01212000      10.01212000      11.76991000  F      -0.05642100      -0.07600800       0.09317000
Cu       1.25904000       1.23606000      13.56745000  T      -0.00026900      -0.00011900       0.00094300
Cu       3.77043000       1.26021000      13.58242000  T      -0.00005500      -0.00133600       0.00071800
Cu       6.28734000       1.26689000      13.61675000  T       0.00038600      -0.00340400       0.00147900
Cu       8.74652000       1.26688000      13.61699000  T      -0.00123500      -0.00376200       0.00146000
Cu      11.26264000       1.26356000      13.58363000  T      -0.00098700      -0.00064800       0.00059400
Cu       1.23810000       3.74881000      13.55437000  T      -0.00001300       0.00082700       0.00127800
Cu       3.75379000       3.76824000      13.58690000  T       0.00069100      -0.00149700       0.00063900
Cu       6.26995000       3.75889000      13.58831000  T       0.00064000      -0.00368400       0.00113100
Cu       8.72450000       3.76002000      13.58535000  T      -0.00058700      -0.00362700       0.00163200
Cu      11.22922000       3.78010000      13.58727000  T      -0.00029800      -0.00038000       0.00159700
Cu       1.24451000       6.26182000      13.56240000  T       0.00003100       0.00104100       0.00166300
Cu       3.75549000       6.29129000      13.57697000  T       0.00083900      -0.00055300       0.00183300
Cu       6.26903000       6.25185000      13.57278000  T       0.00068100      -0.00332600      -0.00034400
Cu       8.74078000       6.25839000      13.54681000  T       0.00081500      -0.00413600       0.00029600
Cu      11.23746000       6.28118000      13.59435000  T      -0.00030800      -0.00086100       0.00206000
Cu       1.26542000       8.76411000      13.57920000  T      -0.00000200       0.00105300       0.00134200
Cu       3.78929000       8.76483000      13.60809000  T      -0.00027600      -0.00030300       0.00106300
Cu       6.28237000       8.72804000      13.61608000  T      -0.00101600      -0.00340200      -0.00037500
Cu       8.76114000       8.72826000      13.61722000  T       0.00037600      -0.00384500      -0.00022400
Cu      11.25891000       8.76158000      13.60205000  T      -0.00022800      -0.00034700       0.00144900
Cu       1.25102000      11.25735000      13.59378000  T       0.00017300       0.00016100       0.00119700
Cu       3.74723000      11.26764000      13.57354000  T       0.00003000      -0.00065600       0.00114700
Cu       6.26111000      11.26203000      13.57208000  T      -0.00056000      -0.00436300       0.00007500
Cu       8.75779000      11.26051000      13.57668000  T      -0.00000700      -0.00475000       0.00040400
Cu      11.27400000      11.26713000      13.57285000  T      -0.00054800      -0.00046300       0.00135600
Cu       0.00258000       0.00485000      15.36432000  T      -0.00102200       0.00074100       0.00086900
Cu       2.51158000       0.00193000      15.36222000  T       0.00001000       0.00007400       0.00174900
Cu       5.00578000       0.00622000      15.35062000  T       0.00048200      -0.00256900       0.00100900
Cu       7.51030000      12.43125000      15.38835000  T      -0.00101400      -0.01372800      -0.00148100
Cu      10.02446000      -0.00256000      15.34688000  T      -0.00206100      -0.00222300       0.00141400
Cu       0.04593000       2.50249000      15.33921000  T      -0.00061000       0.00049700       0.00111700
Cu       2.49083000       2.50074000      15.34057000  T      -0.00048500       0.00026900       0.00097500
Cu       4.94444000       2.44957000      15.39584000  T      -0.00019700      -0.00404100       0.00260100
Cu       7.51237000       2.37340000      15.58205000  T      -0.00000400      -0.01867300       0.01277700
Cu      10.11123000       2.45793000      15.38733000  T      -0.00015600      -0.00372500       0.00211600
Cu      12.49325000       5.00543000      15.32276000  T       0.00112800       0.00101200       0.00362700
Cu       2.40155000       4.99952000      15.34434000  T       0.00162800       0.00063800       0.00199800
Pd       4.90589000       5.08957000      15.49306000  T       0.01122000      -0.01795200       0.00026800
Y        7.51422000       4.90097000      17.29606000  T      -0.00079500      -0.00846800       0.00449200
Cu      10.00772000       5.10968000      15.40064000  T       0.00080400      -0.00742000       0.00300900
Cu       0.05303000       7.50582000      15.35777000  T      -0.00077000       0.00173200       0.00192700
Cu       2.53468000       7.49332000      15.35794000  T      -0.00076100       0.00096900       0.00182600
Cu       5.01775000       7.64683000      15.50044000  T       0.00010600      -0.00342200       0.00128200
Cu       7.54829000       7.44590000      15.50259000  T       0.00027600      -0.00718300      -0.00171700
Cu      10.08917000       7.60155000      15.47403000  T      -0.00086000      -0.00454300       0.00194700
Cu      12.51131000      10.00462000      15.36911000  T       0.00003900       0.00132200       0.00185800
Cu       2.50984000       9.99985000      15.36934000  T       0.00058800       0.00040400       0.00192800
Cu       5.01157000      10.08306000      15.36566000  T       0.00054100      -0.00238100       0.00099000
Cu       7.50684000       9.97889000      15.35323000  T      -0.00042700      -0.01049100       0.00129800
Cu      10.01083000      10.05955000      15.35841000  T      -0.00072100      -0.00317100       0.00144700
O        6.02506000       3.56812000      16.47657000  T       0.00226600      -0.00821600       0.00161500
O        6.12333000       6.58071000      16.67093000  T       0.00265200      -0.00568600      -0.00121100
O        8.99234000       6.48506000      16.57909000  T      -0.00016600      -0.00999600      -0.00253000
O        8.96646000       3.69417000      16.25782000  T      -0.00392000      -0.00884400       0.00096400
C        7.60859000       2.56192000      18.47920000  T       0.00193900       0.00742000       0.02145300
O        7.54720000       2.21794000      19.79571000  T       0.00798900       0.01440200       0.02328800
O        7.64149000       1.58352000      17.68103000  T       0.00095100       0.00275800       0.02262500
H        7.52914000       1.22648000      19.83390000  T       0.01072700       0.01259800       0.02952000
108
Lattice="12.515153631 0.0 0.0 0.0 12.515153631 0.0 0.0 0.0 25.30973" Properties=species:S:1:pos:R:3:move_mask:L:1:forces:R:3 stress="0.00772024746798752 -2.487241386664478e-05 -4.598743923950784e-05 -2.487241386664478e-05 0.0076704152591264676 6.110437434239709e-05 -4.598743923950784e-05 6.110437434239709e-05 0.0017145425568801309" free_energy=-444.05011392 energy=-444.04634058 pbc="T T T"
Cu       1.25152000       1.25152000      10.00000000  F       0.00166200      -0.01962100      -0.08208700
Cu       3.75455000       1.25152000      10.00000000  F       0.00711900       0.00221600      -0.07105100
Cu       6.25758000       1.25152000      10.00000000  F      -0.01469400       0.01394200      -0.05331900
Cu       8.76061000       1.25152000      10.00000000  F       0.01388500       0.00802100      -0.04595400
Cu      11.26364000       1.25152000      10.00000000  F      -0.00814500      -0.00008000      -0.07154100
Cu       1.25152000       3.75455000      10.00000000  F      -0.00032100       0.00378900      -0.06595600
Cu       3.75455000       3.75455000      10.00000000  F       0.01304000      -0.01494700      -0.05670200
Cu       6.25758000       3.75455000      10.00000000  F      -0.01717000      -0.01425700      -0.08696000
Cu       8.76061000       3.75455000      10.00000000  F       0.01871100      -0.01310400      -0.09026500
Cu      11.26364000       3.75455000      10.00000000  F      -0.01261600       0.00041100      -0.05760600
Cu       1.25152000       6.25758000      10.00000000  F      -0.00453200      -0.00093300      -0.07681600
Cu       3.75455000       6.25758000      10.00000000  F       0.01356600       0.02037800      -0.06340600
Cu       6.25758000       6.25758000      10.00000000  F      -0.01764400       0.01796800      -0.08409800
Cu       8.76061000       6.25758000      10.00000000  F       0.01918800       0.01789500      -0.08181300
Cu      11.26364000       6.25758000      10.00000000  F      -0.00863600       0.00539300      -0.06661000
Cu       1.25152000       8.76061000      10.00000000  F      -0.00174500       0.00709500      -0.07586700
Cu       3.75455000       8.76061000      10.00000000  F       0.00372500      -0.01365600      -0.07081300
Cu       6.25758000       8.76061000      10.00000000  F      -0.01031600      -0.01994000      -0.05890400
Cu       8.76061000       8.76061000      10.00000000  F       0.01282800      -0.01490600      -0.05334600
Cu      11.26364000       8.76061000      10.00000000  F      -0.00618500      -0.01319100      -0.07389800
Cu       1.25152000      11.26364000      10.00000000  F      -0.00375700       0.00729300      -0.01864200
Cu       3.75455000      11.26364000      10.00000000  F      -0.00916900       0.00362100      -0.06982700
Cu       6.25758000      11.26364000      10.00000000  F       0.00013400       0.00355000      -0.06964000
Cu       8.76061000      11.26364000      10.00000000  F      -0.00321800      -0.00041900      -0.06879700
Cu      11.26364000      11.26364000      10.00000000  F       0.01449400       0.00245400      -0.06663900
Cu       0.00000000       0.00000000      11.76991000  F      -0.01936200       0.02645100       0.03594200
Cu       2.50303000       0.00000000      11.76991000  F       0.03815700       0.00176900       0.02583300
Cu       5.00606000       0.00000000      11.76991000  F       0.06460500       0.06641700       0.06426700
Cu       7.50909000       0.00000000      11.76991000  F       0.01437500       0.06108400       0.05113300
Cu      10.01212000       0.00000000      11.76991000  F      -0.05938000       0.06594900       0.08371600
Cu       0.00000000       2.50303000      11.76991000  F      -0.08997000       0.02478000       0.02178100
Cu       2.50303000       2.50303000      11.76991000  F       0.06618800       0.02544100       0.01116200
Cu       5.00606000       2.50303000      11.76991000  F       0.02192100      -0.02793400       0.08431400
Cu       7.50909000       2.50303000      11.76991000  F      -0.01720600      -0.01375800       0.15212100
Cu      10.01212000       2.50303000      11.76991000  F      -0.01771800      -0.02586400       0.08777900
Cu       0.00000000       5.00606000      11.76991000  F      -0.08778300       0.03708100       0.01043300
Cu       2.50303000       5.00606000      11.76991000  F       0.05800700       0.01844000       0.02142800
Cu       5.00606000       5.00606000      11.76991000  F       0.00005900      -0.00494100       0.11387100
Cu       7.50909000       5.00606000      11.76991000  F      -0.05020500      -0.04332600       0.14602400
Cu      10.01212000       5.00606000      11.76991000  F      -0.02347900      -0.01002800       0.08310700
Cu       0.00000000       7.50909000      11.76991000  F      -0.05694200       0.00117600       0.04996700
Cu       2.50303000       7.50909000      11.76991000  F       0.04776700       0.04171900       0.00686800
Cu       5.00606000       7.50909000      11.76991000  F       0.00355100       0.06830500       0.03272600
Cu       7.50909000       7.50909000      11.76991000  F      -0.03865300       0.04969100       0.06517000
Cu      10.01212000       7.50909000      11.76991000  F       0.05781700       0.08753500       0.00328600
Cu       0.00000000      10.01212000      11.76991000  F      -0.01695400      -0.04923500       0.06859900
Cu       2.50303000      10.01212000      11.76991000  F       0.04852400      -0.04274900       0.07725100
Cu       5.00606000      10.01212000      11.76991000  F       0.06922700      -0.07701800       0.08277400
Cu       7.50909000      10.01212000      11.76991000  F       0.01853000      -0.08335100       0.08415700
Cu      10.01212000      10.01212000      11.76991000  F      -0.05515400      -0.07749100       0.09391200
Cu       1.25891000       1.23614000      13.56771000  T      -0.00009900       0.00028700      -0.00030800
Cu       3.77031000       1.25994000      13.58267000  T       0.00032700      -0.00130100      -0.00004900
Cu       6.28748000       1.26598000      13.61724000  T       0.00060000      -0.00369300       0.00111200
Cu       8.74628000       1.26586000      13.61746000  T      -0.00133800      -0.00361600       0.00117600
Cu      11.26245000       1.26347000      13.58381000  T      -0.00060500      -0.00108000      -0.00035900
Cu       1.23807000       3.74914000      13.55475000  T       0.00024900       0.00046500      -0.00009800
Cu       3.75387000       3.76783000      13.58710000  T       0.00062300      -0.00103000      -0.00005600
Cu       6.27018000       3.75778000      13.58867000  T       0.00015300      -0.00355100       0.00168900
Cu       8.72445000       3.75895000      13.58589000  T      -0.00017500      -0.00392700       0.00188200
Cu      11.22925000       3.78002000      13.58775000  T      -0.00025300      -0.00070600       0.00071700
Cu       1.24449000       6.26204000      13.56289000  T       0.00026800       0.00049500      -0.00007300
Cu       3.75569000       6.29099000      13.57766000  T      -0.00044000       0.00069900      -0.00153800
Cu       6.26922000       6.25082000      13.57276000  T       0.00082400      -0.00222200      -0.00168400
Cu       8.74117000       6.25712000      13.54699000  T       0.00076000      -0.00289600       0.00000500
Cu      11.23749000       6.28085000      13.59499000  T       0.00021300      -0.00115800       0.00075500
Cu       1.26536000       8.76434000      13.57957000  T      -0.00006100       0.00044000       0.00010200
Cu       3.78910000       8.76463000      13.60843000  T       0.00017200      -0.00050700       0.00052200
Cu       6.28210000       8.72690000      13.61603000  T      -0.00027800      -0.00307500       0.00002300
Cu       8.76137000       8.72700000      13.61722000  T      -0.00028000      -0.00394600       0.00065000
Cu      11.25896000       8.76139000      13.60250000  T      -0.00041700      -0.00088400       0.00075200
Cu       1.25101000      11.25744000      13.59411000  T       0.00009300       0.00042700       0.00019800
Cu       3.74713000      11.26747000      13.57388000  T       0.00036100      -0.00081400       0.00052000
Cu       6.26094000      11.26072000      13.57210000  T      -0.00060600      -0.00409900      -0.00108700
Cu       8.75795000      11.25910000      13.57678000  T      -0.00017700      -0.00420500      -0.00100700
Cu      11.27395000      11.26702000      13.57323000  T      -0.00049500      -0.00060700       0.00029900
Cu       0.00230000       0.00513000      15.36456000  T      -0.00118200       0.00095200       0.00080700
Cu       2.51151000       0.00202000      15.36276000  T      -0.00039900       0.00017100       0.00023800
Cu       5.00589000       0.00551000      15.35100000  T       0.00082600      -0.00389200       0.00015400
Cu       7.51006000      12.42723000      15.38798000  T      -0.00044600      -0.01103400      -0.00236700
Cu      10.02397000      -0.00319000      15.34732000  T      -0.00175800      -0.00363800       0.00069500
Cu       0.04578000       2.50270000      15.33946000  T      -0.00029200       0.00045800       0.00069700
Cu       2.49065000       2.50088000      15.34082000  T      -0.00056100      -0.00029600       0.00065200
Cu       4.94426000       2.44826000      15.39654000  T       0.00115100      -0.00067300       0.00217400
Cu       7.51243000       2.36795000      15.58571000  T      -0.00003900      -0.01505400       0.01427300
Cu      10.11130000       2.45686000      15.38790000  T      -0.00016900      -0.00460200       0.00081000
Cu      12.49362000       5.00574000      15.32370000  T       0.00092600       0.00069400       0.00070100
Cu       2.40216000       4.99973000      15.34485000  T      -0.00012300      -0.00013800       0.00057100
Pd       4.90643000       5.08875000      15.49308000  T       0.00705500      -0.01160300       0.00270100
Y        7.51416000       4.89911000      17.29703000  T      -0.00268200       0.00121800      -0.00398000
Cu      10.00798000       5.10750000      15.40153000  T      -0.00111000      -0.00700600       0.00117100
Cu       0.05282000       7.50628000      15.35830000  T      -0.00042000       0.00113900       0.00147800
Cu       2.53441000       7.49355000      15.35847000  T      -0.00043000       0.00109500       0.00123200
Cu       5.01776000       7.64557000      15.50085000  T       0.00104300       0.00028700       0.00019600
Cu       7.54841000       7.44368000      15.50215000  T       0.00054600      -0.00858700      -0.00073400
Cu      10.08899000       7.60012000      15.47458000  T      -0.00103200      -0.00394200       0.00040600
Cu      12.51135000      10.00500000      15.36967000  T      -0.00005600       0.00114800       0.00087700
Cu       2.50995000       9.99995000      15.37000000  T      -0.00004600       0.00079400       0.00072600
Cu       5.01170000      10.08229000      15.36608000  T       0.00072900      -0.00337400       0.00050400
Cu       7.50679000       9.97570000      15.35370000  T       0.00019400      -0.00946600      -0.00052300
Cu      10.01072000      10.05858000      15.35889000  T      -0.00041100      -0.00324200       0.00075500
O        6.02572000       3.56583000      16.47712000  T      -0.00125000      -0.00702300      -0.00068700
O        6.12413000       6.57887000      16.67060000  T      -0.00129000      -0.00375700       0.00041400
O        8.99234000       6.48178000      16.57825000  T       0.00326200      -0.00669000      -0.00009900
O        8.96535000       3.69168000      16.25808000  T      -0.00187200      -0.00876300       0.00011900
C        7.60919000       2.56385000      18.48467000  T       0.00329300       0.01227400       0.02445700
O        7.54959000       2.22173000      19.80182000  T       0.00873700       0.01764200       0.02798500
O        7.64180000       1.58464000      17.68806000  T       0.00174100      -0.00758300       0.01497400
H        7.53197000       1.23034000      19.84166000  T       0.01051800       0.01388300       0.02741500
108
Lattice="12.515153631 0.0 0.0 0.0 12.515153631 0.0 0.0 0.0 25.30973" Properties=species:S:1:pos:R:3:move_mask:L:1:forces:R:3 stress="0.007694064337204439 -2.49785195217848e-05 -4.5444427945556e-05 -2.49785195217848e-05 0.0076453181509312925 5.875132540193911e-05 -4.5444427945556e-05 5.875132540193911e-05 0.001696098897413146" free_energy=-444.05032001 energy=-444.04654108 pbc="T T T"
Cu       1.25152000       1.25152000      10.00000000  F       0.00137400      -0.01867600      -0.08328500
Cu       3.75455000       1.25152000      10.00000000  F       0.00712800       0.00325500      -0.07229200
Cu       6.25758000       1.25152000      10.00000000  F      -0.01450600       0.01501700      -0.05444000
Cu       8.76061000       1.25152000      10.00000000  F       0.01385300       0.00902600      -0.04692300
Cu      11.26364000       1.25152000      10.00000000  F      -0.00843700       0.00084400      -0.07252900
Cu       1.25152000       3.75455000      10.00000000  F      -0.00056500       0.00483600      -0.06700600
Cu       3.75455000       3.75455000      10.00000000  F       0.01311800      -0.01387100      -0.05773200
Cu       6.25758000       3.75455000      10.00000000  F      -0.01699200      -0.01316400      -0.08788600
Cu       8.76061000       3.75455000      10.00000000  F       0.01862700      -0.01200900      -0.09109800
Cu      11.26364000       3.75455000      10.00000000  F      -0.01295300       0.00148400      -0.05846100
Cu       1.25152000       6.25758000      10.00000000  F      -0.00482700       0.00002800      -0.07783800
Cu       3.75455000       6.25758000      10.00000000  F       0.01364400       0.02126000      -0.06448400
Cu       6.25758000       6.25758000      10.00000000  F      -0.01745300       0.01887500      -0.08495100
Cu       8.76061000       6.25758000      10.00000000  F       0.01914700       0.01886400      -0.08252700
Cu      11.26364000       6.25758000      10.00000000  F      -0.00898900       0.00639800      -0.06742500
Cu       1.25152000       8.76061000      10.00000000  F      -0.00212900       0.00796300      -0.07698100
Cu       3.75455000       8.76061000      10.00000000  F       0.00375000      -0.01288100      -0.07205400
Cu       6.25758000       8.76061000      10.00000000  F      -0.01008200      -0.01918800      -0.05999400
Cu       8.76061000       8.76061000      10.00000000  F       0.01286500      -0.01410000      -0.05417000
Cu      11.26364000       8.76061000      10.00000000  F      -0.00651400      -0.01232400      -0.07473500
Cu       1.25152000      11.26364000      10.00000000  F      -0.00412000       0.00814200      -0.01986400
Cu       3.75455000      11.26364000      10.00000000  F      -0.00920200       0.00451300      -0.07117400
Cu       6.25758000      11.26364000      10.00000000  F       0.00033900       0.00440300      -0.07086700
Cu       8.76061000      11.26364000      10.00000000  F      -0.00316000       0.00039200      -0.06978000
Cu      11.26364000      11.26364000      10.00000000  F       0.01421200       0.00325200      -0.06762400
Cu       0.00000000       0.00000000      11.76991000  F      -0.01984700       0.02730400       0.03604100
Cu       2.50303000       0.00000000      11.76991000  F       0.03779900       0.00276400       0.02585500
Cu       5.00606000       0.00000000      11.76991000  F       0.06472400       0.06736100       0.06415100
Cu       7.50909000       0.00000000      11.76991000  F       0.01467700       0.06176900       0.05102400
Cu      10.01212000       0.00000000      11.76991000  F      -0.05949200       0.06670800       0.08372600
Cu       0.00000000       2.50303000      11.76991000  F      -0.09044000       0.02593000       0.02216200
Cu       2.50303000       2.50303000      11.76991000  F       0.06597300       0.02660100       0.01144200
Cu       5.00606000       2.50303000      11.76991000  F       0.02217800      -0.02693400       0.08452300
Cu       7.50909000       2.50303000      11.76991000  F      -0.01698400      -0.01277600       0.15250900
Cu      10.01212000       2.50303000      11.76991000  F      -0.01798300      -0.02486000       0.08815000
Cu       0.00000000       5.00606000      11.76991000  F      -0.08832700       0.03809100       0.01093600
Cu       2.50303000       5.00606000      11.76991000  F       0.05789800       0.01936700       0.02187300
Cu       5.00606000       5.00606000      11.76991000  F       0.00021100      -0.00421200       0.11410400
Cu       7.50909000       5.00606000      11.76991000  F      -0.04983400      -0.04290400       0.14623300
Cu      10.01212000       5.00606000      11.76991000  F      -0.02355400      -0.00923100       0.08344400
Cu       0.00000000       7.50909000      11.76991000  F      -0.05750800       0.00197100       0.05029100
Cu       2.50303000       7.50909000      11.76991000  F       0.04742400       0.04241700       0.00705200
Cu       5.00606000       7.50909000      11.76991000  F       0.00371700       0.06874900       0.03265800
Cu       7.50909000       7.50909000      11.76991000  F      -0.03816200       0.05005400       0.06502400
Cu      10.01212000       7.50909000      11.76991000  F       0.05778100       0.08805100       0.00350700
Cu       0.00000000      10.01212000      11.76991000  F      -0.01756700      -0.04846700       0.06870100
Cu       2.50303000      10.01212000      11.76991000  F       0.04816500      -0.04195800       0.07724800
Cu       5.00606000      10.01212000      11.76991000  F       0.06919300      -0.07654400       0.08234400
Cu       7.50909000      10.01212000      11.76991000  F       0.01893600      -0.08308100       0.08365300
Cu      10.01212000      10.01212000      11.76991000  F      -0.05507600      -0.07708400       0.09371600
Cu       1.25890000       1.23616000      13.56773000  T      -0.00085300       0.00173700       0.00026700
Cu       3.77032000       1.25987000      13.58270000  T       0.00000200      -0.00037300       0.00052900
Cu       6.28750000       1.26576000      13.61734000  T       0.00098200      -0.00416800       0.00198200
Cu       8.74620000       1.26562000      13.61755000  T      -0.00162000      -0.00456600       0.00195200
Cu      11.26241000       1.26343000      13.58382000  T      -0.00118900      -0.00012300      -0.00008300
Cu       1.23809000       3.74919000      13.55480000  T      -0.00020700       0.00225700       0.00089800
Cu       3.75391000       3.76776000      13.58713000  T       0.00067300      -0.00066900       0.00055400
Cu       6.27020000       3.75754000      13.58876000  T       0.00072400      -0.00477100       0.00203800
Cu       8.72443000       3.75870000      13.58601000  T      -0.00012400      -0.00509100       0.00292500
Cu      11.22925000       3.77999000      13.58783000  T      -0.00040700       0.00020200       0.00176900
Cu       1.24451000       6.26208000      13.56295000  T      -0.00022900       0.00173300       0.00115200
Cu       3.75572000       6.29097000      13.57772000  T       0.00032200       0.00024000       0.00073500
Cu       6.26925000       6.25062000      13.57271000  T       0.00114600      -0.00401600      -0.00170200
Cu       8.74123000       6.25688000      13.54701000  T       0.00187900      -0.00508100       0.00025700
Cu      11.23750000       6.28077000      13.59509000  T      -0.00006100      -0.00103800       0.00208000
Cu       1.26536000       8.76437000      13.57962000  T      -0.00078700       0.00159400       0.00075000
Cu       3.78908000       8.76458000      13.60849000  T      -0.00045600      -0.00038600       0.00091900
Cu       6.28205000       8.72667000      13.61603000  T      -0.00054600      -0.00509300      -0.00068500
Cu       8.76138000       8.72673000      13.61724000  T       0.00054900      -0.00615100       0.00015600
Cu      11.25895000       8.76134000      13.60257000  T      -0.00057800      -0.00074600       0.00137900
Cu       1.25102000      11.25746000      13.59416000  T      -0.00051200       0.00155000       0.00066500
Cu       3.74713000      11.26743000      13.57394000  T      -0.00019100      -0.00019800       0.00093700
Cu       6.26090000      11.26044000      13.57206000  T      -0.00074100      -0.00609100      -0.00155500
Cu       8.75796000      11.25881000      13.57676000  T       0.00054800      -0.00650300      -0.00126100
Cu      11.27393000      11.26698000      13.57328000  T      -0.00077900      -0.00007900       0.00086300
Cu       0.00223000       0.00520000      15.36462000  T      -0.00216400       0.00289800       0.00014600
Cu       2.51150000       0.00204000      15.36283000  T      -0.00080800       0.00171200       0.00057500
Cu       5.00592000       0.00531000      15.35105000  T       0.00110000      -0.00395100       0.00030300
Cu       7.51001000      12.42640000      15.38786000  T      -0.00087400      -0.01873200      -0.00389300
Cu      10.02385000      -0.00338000      15.34739000  T      -0.00305300      -0.00399100       0.00057300
Cu       0.04576000       2.50274000      15.33952000  T      -0.00083900       0.00232900      -0.00010100
Cu       2.49062000       2.50090000      15.34086000  T      -0.00097700       0.00149800       0.00001800
Cu       4.94427000       2.44807000      15.39667000  T       0.00009500      -0.00325400       0.00176800
Cu       7.51243000       2.36680000      15.58661000  T       0.00018800      -0.02505900       0.02145100
Cu      10.11131000       2.45658000      15.38799000  T      -0.00027800      -0.00553900       0.00094500
Cu      12.49370000       5.00579000      15.32384000  T       0.00142700       0.00237300       0.00154900
Cu       2.40226000       4.99975000      15.34493000  T       0.00171200       0.00137900       0.00039500
Pd       4.90667000       5.08836000      15.49313000  T       0.01181100      -0.01813600       0.00115500
Y        7.51409000       4.89883000      17.29706000  T      -0.00101600      -0.00881100       0.00046300
Cu      10.00799000       5.10701000      15.40166000  T      -0.00092000      -0.01087300       0.00176600
Cu       0.05279000       7.50637000      15.35841000  T      -0.00121600       0.00276100       0.00138700
Cu       2.53437000       7.49361000      15.35858000  T      -0.00122600       0.00198600       0.00144300
Cu       5.01779000       7.64540000      15.50090000  T       0.00081300      -0.00283000      -0.00025300
Cu       7.54844000       7.44314000      15.50206000  T       0.00092700      -0.01297400      -0.00335800
Cu      10.08894000       7.59983000      15.47465000  T      -0.00154800      -0.00677100       0.00008500
Cu      12.51135000      10.00508000      15.36977000  T      -0.00024500       0.00278600       0.00100200
Cu       2.50997000       9.99998000      15.37010000  T      -0.00006700       0.00174200       0.00140500
Cu       5.01174000      10.08209000      15.36614000  T       0.00101300      -0.00441700       0.00066900
Cu       7.50678000       9.97501000      15.35374000  T       0.00027500      -0.01627500      -0.00029800
Cu      10.01069000      10.05835000      15.35897000  T      -0.00064900      -0.00508300       0.00063000
O        6.02573000       3.56537000      16.47717000  T      -0.00031600      -0.00726000      -0.00076600
O        6.12416000       6.57853000      16.67057000  T      -0.00004100      -0.00477200      -0.00143200
O        8.99242000       6.48120000      16.57816000  T       0.00310600      -0.00822300      -0.00319400
O        8.96516000       3.69114000      16.25813000  T      -0.00109500      -0.00869600      -0.00218100
C        7.60938000       2.56431000      18.48601000  T       0.00315300       0.00744100       0.02020000
O        7.55014000       2.22270000      19.80336000  T       0.00955300       0.01998200       0.03037400
O        7.64187000       1.58472000      17.68951000  T       0.00111700       0.00622600       0.02802400
H        7.53267000       1.23127000      19.84350000  T       0.01147000       0.01493900       0.02738200
108
Lattice="12.515153631 0.0 0.0 0.0 12.515153631 0.0 0.0 0.0 25.30973" Properties=species:S:1:pos:R:3:move_mask:L:1:forces:R:3 stress="0.007701086034971058 -2.49785195217848e-05 -4.624334111366906e-05 -2.49785195217848e-05 0.007651178928000496 5.7621612250154244e-05 -4.624334111366906e-05 5.7621612250154244e-05 0.0017020408141009869" free_energy=-444.05096554 energy=-444.04718979 pbc="T T T"
Cu       1.25152000       1.25152000      10.00000000  F       0.00181000      -0.01938200      -0.08252200
Cu       3.75455000       1.25152000      10.00000000  F       0.00728700       0.00254700      -0.07136800
Cu       6.25758000       1.25152000      10.00000000  F      -0.01472600       0.01429500      -0.05364200
Cu       8.76061000       1.25152000      10.00000000  F       0.01364800       0.00829400      -0.04635300
Cu      11.26364000       1.25152000      10.00000000  F      -0.00823000       0.00011200      -0.07199900
Cu       1.25152000       3.75455000      10.00000000  F      -0.00011700       0.00416500      -0.06635800
Cu       3.75455000       3.75455000      10.00000000  F       0.01327100      -0.01454200      -0.05690800
Cu       6.25758000       3.75455000      10.00000000  F      -0.01723200      -0.01384000      -0.08719200
Cu       8.76061000       3.75455000      10.00000000  F       0.01841800      -0.01268400      -0.09064900
Cu      11.26364000       3.75455000      10.00000000  F      -0.01273600       0.00081300      -0.05803900
Cu       1.25152000       6.25758000      10.00000000  F      -0.00438300      -0.00051500      -0.07719400
Cu       3.75455000       6.25758000      10.00000000  F       0.01379900       0.02072200      -0.06366100
Cu       6.25758000       6.25758000      10.00000000  F      -0.01769000       0.01834500      -0.08423900
Cu       8.76061000       6.25758000      10.00000000  F       0.01894700       0.01834600      -0.08205200
Cu      11.26364000       6.25758000      10.00000000  F      -0.00878300       0.00586700      -0.06700700
Cu       1.25152000       8.76061000      10.00000000  F      -0.00169100       0.00745500      -0.07620800
Cu       3.75455000       8.76061000      10.00000000  F       0.00390700      -0.01338700      -0.07117200
Cu       6.25758000       8.76061000      10.00000000  F      -0.01030100      -0.01968200      -0.05921100
Cu       8.76061000       8.76061000      10.00000000  F       0.01266600      -0.01459400      -0.05362000
Cu      11.26364000       8.76061000      10.00000000  F      -0.00632000      -0.01281700      -0.07423200
Cu       1.25152000      11.26364000      10.00000000  F      -0.00369800       0.00753000      -0.01906000
Cu       3.75455000      11.26364000      10.00000000  F      -0.00903700       0.00389700      -0.07021100
Cu       6.25758000      11.26364000      10.00000000  F       0.00012800       0.00379000      -0.07000000
Cu       8.76061000      11.26364000      10.00000000  F      -0.00336400      -0.00022700      -0.06910600
Cu      11.26364000      11.26364000      10.00000000  F       0.01440700       0.00264200      -0.06698900
Cu       0.00000000       0.00000000      11.76991000  F      -0.01932100       0.02662400       0.03589100
Cu       2.50303000       0.00000000      11.76991000  F       0.03825800       0.00207100       0.02579000
Cu       5.00606000       0.00000000      11.76991000  F       0.06457700       0.06664100       0.06416800
Cu       7.50909000       0.00000000      11.76991000  F       0.01422900       0.06101800       0.05099600
Cu      10.01212000       0.00000000      11.76991000  F      -0.05953300       0.06598300       0.08360100
Cu       0.00000000       2.50303000      11.76991000  F      -0.08990600       0.02521800       0.02204700
Cu       2.50303000       2.50303000      11.76991000  F       0.06642000       0.02585600       0.01139600
Cu       5.00606000       2.50303000      11.76991000  F       0.02205800      -0.02774800       0.08454000
Cu       7.50909000       2.50303000      11.76991000  F      -0.01743300      -0.01360700       0.15251700
Cu      10.01212000       2.50303000      11.76991000  F      -0.01802700      -0.02564300       0.08804600
Cu       0.00000000       5.00606000      11.76991000  F      -0.08775900       0.03749500       0.01081800
Cu       2.50303000       5.00606000      11.76991000  F       0.05833900       0.01878600       0.02184200
Cu       5.00606000       5.00606000      11.76991000  F       0.00005400      -0.00486300       0.11410300
Cu       7.50909000       5.00606000      11.76991000  F      -0.05026300      -0.04365600       0.14620000
Cu      10.01212000       5.00606000      11.76991000  F      -0.02354400      -0.00990600       0.08329600
Cu       0.00000000       7.50909000      11.76991000  F      -0.05696200       0.00150700       0.05019000
Cu       2.50303000       7.50909000      11.76991000  F       0.04786100       0.04199200       0.00700800
Cu       5.00606000       7.50909000      11.76991000  F       0.00350900       0.06827300       0.03259500
Cu       7.50909000       7.50909000      11.76991000  F      -0.03859500       0.04953400       0.06490100
Cu      10.01212000       7.50909000      11.76991000  F       0.05782800       0.08753500       0.00330000
Cu       0.00000000      10.01212000      11.76991000  F      -0.01703800      -0.04899300       0.06857500
Cu       2.50303000      10.01212000      11.76991000  F       0.04862500      -0.04247700       0.07718000
Cu       5.00606000      10.01212000      11.76991000  F       0.06898200      -0.07711800       0.08228400
Cu       7.50909000      10.01212000      11.76991000  F       0.01848400      -0.08369900       0.08351700
Cu      10.01212000      10.01212000      11.76991000  F      -0.05505500      -0.07765000       0.09352900
Cu       1.25890000       1.23616000      13.56774000  T      -0.00019100       0.00094000      -0.00030500
Cu       3.77032000       1.25986000      13.58271000  T       0.00035400      -0.00055800       0.00000900
Cu       6.28750000       1.26573000      13.61735000  T       0.00059200      -0.00334500       0.00116600
Cu       8.74619000       1.26559000      13.61756000  T      -0.00151200      -0.00359800       0.00116600
Cu      11.26241000       1.26341000      13.58382000  T      -0.00068600      -0.00061700      -0.00044700
Cu       1.23810000       3.74919000      13.55481000  T       0.00030400       0.00110200      -0.00000600
Cu       3.75391000       3.76774000      13.58714000  T       0.00064900      -0.00067100      -0.00003500
Cu       6.27019000       3.75751000      13.58878000  T       0.00029300      -0.00367200       0.00130100
Cu       8.72442000       3.75866000      13.58604000  T      -0.00049000      -0.00406000       0.00186500
Cu      11.22926000       3.77998000      13.58784000  T      -0.00012200      -0.00037100       0.00076000
Cu       1.24452000       6.26210000      13.56297000  T       0.00029700       0.00080000       0.00015000
Cu       3.75572000       6.29098000      13.57772000  T       0.00026900      -0.00007800      -0.00023900
Cu       6.26925000       6.25060000      13.57270000  T       0.00047800      -0.00310000      -0.00168700
Cu       8.74123000       6.25685000      13.54701000  T       0.00098100      -0.00375400      -0.00032600
Cu      11.23750000       6.28078000      13.59511000  T       0.00020000      -0.00117000       0.00091000
Cu       1.26537000       8.76440000      13.57962000  T      -0.00017700       0.00058400       0.00006300
Cu       3.78908000       8.76460000      13.60849000  T      -0.00008100      -0.00066700       0.00023400
Cu       6.28204000       8.72665000      13.61602000  T      -0.00044000      -0.00391700      -0.00077900
Cu       8.76138000       8.72671000      13.61724000  T       0.00001800      -0.00466000      -0.00008000
Cu      11.25896000       8.76135000      13.60258000  T      -0.00033000      -0.00099300       0.00056700
Cu       1.25103000      11.25747000      13.59416000  T      -0.00006000       0.00074400       0.00003600
Cu       3.74712000      11.26743000      13.57394000  T       0.00013000      -0.00060100       0.00025600
Cu       6.26088000      11.26041000      13.57205000  T      -0.00069000      -0.00462700      -0.00155500
Cu       8.75796000      11.25877000      13.57675000  T       0.00006100      -0.00485900      -0.00138500
Cu      11.27394000      11.26698000      13.57329000  T      -0.00044700      -0.00051900       0.00018200
Cu       0.00223000       0.00521000      15.36461000  T      -0.00129900       0.00168300       0.00063900
Cu       2.51149000       0.00204000      15.36282000  T      -0.00032500       0.00086800       0.00050700
Cu       5.00592000       0.00528000      15.35103000  T       0.00077700      -0.00341300       0.00035900
Cu       7.50999000      12.42627000      15.38783000  T      -0.00080400      -0.01338700      -0.00266300
Cu      10.02384000      -0.00341000      15.34739000  T      -0.00215800      -0.00369800       0.00072100
Cu       0.04576000       2.50275000      15.33951000  T      -0.00013900       0.00122800       0.00039000
Cu       2.49062000       2.50090000      15.34085000  T      -0.00032900       0.00053000       0.00038400
Cu       4.94427000       2.44805000      15.39668000  T      -0.00010300      -0.00272800       0.00101300
Cu       7.51242000       2.36664000      15.58675000  T      -0.00006500      -0.01835500       0.01623600
Cu      10.11131000       2.45654000      15.38799000  T      -0.00003000      -0.00504600       0.00079400
Cu      12.49372000       5.00581000      15.32385000  T       0.00129500       0.00124800       0.00094200
Cu       2.40227000       4.99976000      15.34493000  T       0.00119200       0.00048400       0.00037200
Pd       4.90668000       5.08833000      15.49314000  T       0.00459900      -0.00775900       0.00047000
Y        7.51409000       4.89878000      17.29706000  T      -0.00130400      -0.00992100       0.00280600
Cu      10.00798000       5.10695000      15.40168000  T      -0.00060100      -0.00771500       0.00087900
Cu       0.05280000       7.50640000      15.35841000  T      -0.00036300       0.00148500       0.00134200
Cu       2.53437000       7.49363000      15.35858000  T      -0.00048000       0.00102500       0.00121400
Cu       5.01779000       7.64540000      15.50089000  T       0.00074100      -0.00193600      -0.00000200
Cu       7.54844000       7.44306000      15.50203000  T       0.00035600      -0.00993500      -0.00183900
Cu      10.08893000       7.59980000      15.47465000  T      -0.00085300      -0.00482500       0.00002800
Cu      12.51136000      10.00511000      15.36976000  T       0.00008200       0.00158900       0.00097100
Cu       2.50997000      10.00000000      15.37009000  T       0.00012200       0.00095500       0.00106900
Cu       5.01173000      10.08207000      15.36613000  T       0.00072400      -0.00354500       0.00066100
Cu       7.50677000       9.97492000      15.35373000  T       0.00003800      -0.01155500      -0.00019500
Cu      10.01069000      10.05833000      15.35897000  T      -0.00046700      -0.00390800       0.00075900
O        6.02571000       3.56533000      16.47715000  T      -0.00035400      -0.00619800       0.00056300
O        6.12415000       6.57851000      16.67056000  T      -0.00098100      -0.00424200       0.00061700
O        8.99244000       6.48116000      16.57815000  T       0.00235500      -0.00693400       0.00016600
O        8.96516000       3.69109000      16.25811000  T      -0.00157400      -0.00768800      -0.00052200
C        7.60940000       2.56434000      18.48608000  T       0.00336000       0.00741500       0.02120400
O        7.55020000       2.22281000      19.80351000  T       0.00913400       0.01577000       0.02514100
O        7.64188000       1.58475000      17.68967000  T       0.00113300       0.00340200       0.02535200
H        7.53273000       1.23135000      19.84363000  T       0.01115400       0.01645000       0.02846700
108
Lattice="12.515153631 0.0 0.0 0.0 12.515153631 0.0 0.0 0.0 25.30973" Properties=species:S:1:pos:R:3:move_mask:L:1:forces:R:3 stress="0.007679952285070817 -2.4516647846469437e-05 -4.643058638744556e-05 -2.4516647846469437e-05 0.00763114368370641 6.584167976894249e-05 -4.643058638744556e-05 6.584167976894249e-05 0.0016815436981315861" free_energy=-444.04957204 energy=-444.04579741 pbc="T T T"
Cu       1.25152000       1.25152000      10.00000000  F       0.00159500      -0.01901500      -0.08277300
Cu       3.75455000       1.25152000      10.00000000  F       0.00725400       0.00296400      -0.07181200
Cu       6.25758000       1.25152000      10.00000000  F      -0.01468900       0.01471800      -0.05401800
Cu       8.76061000       1.25152000      10.00000000  F       0.01370300       0.00866000      -0.04656500
Cu      11.26364000       1.25152000      10.00000000  F      -0.00836300       0.00046300      -0.07214600
Cu       1.25152000       3.75455000      10.00000000  F      -0.00027900       0.00453400      -0.06642600
Cu       3.75455000       3.75455000      10.00000000  F       0.01324000      -0.01415800      -0.05712600
Cu       6.25758000       3.75455000      10.00000000  F      -0.01720800      -0.01346800      -0.08732500
Cu       8.76061000       3.75455000      10.00000000  F       0.01841900      -0.01234500      -0.09065700
Cu      11.26364000       3.75455000      10.00000000  F      -0.01285200       0.00114800      -0.05808000
Cu       1.25152000       6.25758000      10.00000000  F      -0.00453200      -0.00029000      -0.07719600
Cu       3.75455000       6.25758000      10.00000000  F       0.01373600       0.02091900      -0.06377300
Cu       6.25758000       6.25758000      10.00000000  F      -0.01766200       0.01851300      -0.08444300
Cu       8.76061000       6.25758000      10.00000000  F       0.01891900       0.01851700      -0.08217600
Cu      11.26364000       6.25758000      10.00000000  F      -0.00884900       0.00606900      -0.06699900
Cu       1.25152000       8.76061000      10.00000000  F      -0.00186100       0.00751800      -0.07644000
Cu       3.75455000       8.76061000      10.00000000  F       0.00381400      -0.01334100      -0.07141600
Cu       6.25758000       8.76061000      10.00000000  F      -0.01026000      -0.01963600      -0.05949000
Cu       8.76061000       8.76061000      10.00000000  F       0.01268100      -0.01447700      -0.05381900
Cu      11.26364000       8.76061000      10.00000000  F      -0.00639200      -0.01269800      -0.07429900
Cu       1.25152000      11.26364000      10.00000000  F      -0.00390200       0.00769000      -0.01933700
Cu       3.75455000      11.26364000      10.00000000  F      -0.00911000       0.00405200      -0.07068700
Cu       6.25758000      11.26364000      10.00000000  F       0.00020400       0.00399100      -0.07050600
Cu       8.76061000      11.26364000      10.00000000  F      -0.00329100      -0.00001800      -0.06949600
Cu      11.26364000      11.26364000      10.00000000  F       0.01429300       0.00284000      -0.06721600
Cu       0.00000000       0.00000000      11.76991000  F      -0.01954500       0.02692400       0.03552500
Cu       2.50303000       0.00000000      11.76991000  F       0.03805900       0.00238100       0.02557600
Cu       5.00606000       0.00000000      11.76991000  F       0.06461400       0.06725300       0.06397400
Cu       7.50909000       0.00000000      11.76991000  F       0.01443700       0.06188200       0.05061800
Cu      10.01212000       0.00000000      11.76991000  F      -0.05943900       0.06658600       0.08317900
Cu       0.00000000       2.50303000      11.76991000  F      -0.09005500       0.02549200       0.02159200
Cu       2.50303000       2.50303000      11.76991000  F       0.06629600       0.02635700       0.01120400
Cu       5.00606000       2.50303000      11.76991000  F       0.02189400      -0.02675800       0.08435000
Cu       7.50909000       2.50303000      11.76991000  F      -0.01735600      -0.01258100       0.15188800
Cu      10.01212000       2.50303000      11.76991000  F      -0.01785200      -0.02498200       0.08739200
Cu       0.00000000       5.00606000      11.76991000  F      -0.08784000       0.03777700       0.01027900
Cu       2.50303000       5.00606000      11.76991000  F       0.05818600       0.01904700       0.02154000
Cu       5.00606000       5.00606000      11.76991000  F       0.00009600      -0.00416600       0.11413800
Cu       7.50909000       5.00606000      11.76991000  F      -0.05045900      -0.04236200       0.14595400
Cu      10.01212000       5.00606000      11.76991000  F      -0.02378600      -0.00914100       0.08289500
Cu       0.00000000       7.50909000      11.76991000  F      -0.05704300       0.00163100       0.04964600
Cu       2.50303000       7.50909000      11.76991000  F       0.04774100       0.04202300       0.00668100
Cu       5.00606000       7.50909000      11.76991000  F       0.00369400       0.06855900       0.03280700
Cu       7.50909000       7.50909000      11.76991000  F      -0.03878500       0.05014400       0.06507200
Cu      10.01212000       7.50909000      11.76991000  F       0.05754100       0.08813300       0.00301300
Cu       0.00000000      10.01212000      11.76991000  F      -0.01716400      -0.04890400       0.06808900
Cu       2.50303000      10.01212000      11.76991000  F       0.04840000      -0.04255400       0.07692300
Cu       5.00606000      10.01212000      11.76991000  F       0.06932800      -0.07672800       0.08257400
Cu       7.50909000      10.01212000      11.76991000  F       0.01860000      -0.08286900       0.08383500
Cu      10.01212000      10.01212000      11.76991000  F      -0.05527300      -0.07705600       0.09344500
Cu       1.25892000       1.23611000      13.56772000  T      -0.00029700       0.00143000      -0.00027100
Cu       3.77030000       1.25992000      13.58267000  T       0.00045500      -0.00011300       0.00022100
Cu       6.28745000       1.26601000      13.61722000  T       0.00059500      -0.00321300       0.00133900
Cu       8.74631000       1.26590000      13.61744000  T      -0.00177700      -0.00349900       0.00122900
Cu      11.26247000       1.26347000      13.58382000  T      -0.00095500      -0.00021700      -0.00050700
Cu       1.23808000       3.74910000      13.55476000  T       0.00038600       0.00176300       0.00024400
Cu       3.75386000       3.76782000      13.58711000  T       0.00093200      -0.00026200       0.00034100
Cu       6.27015000       3.75783000      13.58866000  T       0.00009500      -0.00383400       0.00191900
Cu       8.72447000       3.75900000      13.58587000  T      -0.00066900      -0.00435800       0.00223600
Cu      11.22927000       3.78002000      13.58774000  T      -0.00027800       0.00007900       0.00091300
Cu       1.24449000       6.26201000      13.56289000  T       0.00037500       0.00110600       0.00036900
Cu       3.75566000       6.29101000      13.57763000  T       0.00031200       0.00029300      -0.00024900
Cu       6.26922000       6.25087000      13.57278000  T       0.00047200      -0.00322200      -0.00169300
Cu       8.74115000       6.25718000      13.54700000  T       0.00097100      -0.00390500      -0.00022800
Cu      11.23749000       6.28086000      13.59499000  T       0.00003900      -0.00101000       0.00119100
Cu       1.26538000       8.76432000      13.57957000  T      -0.00024000       0.00074000       0.00012000
Cu       3.78910000       8.76464000      13.60844000  T       0.00000700      -0.00085500       0.00054900
Cu       6.28210000       8.72697000      13.61607000  T      -0.00058100      -0.00437100      -0.00053200
Cu       8.76136000       8.72708000      13.61724000  T      -0.00017900      -0.00509300       0.00006600
Cu      11.25897000       8.76141000      13.60250000  T      -0.00056100      -0.00092700       0.00073800
Cu       1.25103000      11.25741000      13.59412000  T      -0.00010300       0.00094800       0.00008000
Cu       3.74713000      11.26747000      13.57389000  T       0.00015900      -0.00053400       0.00044900
Cu       6.26094000      11.26080000      13.57214000  T      -0.00076700      -0.00501300      -0.00171600
Cu       8.75794000      11.25919000      13.57682000  T       0.00001500      -0.00518700      -0.00150800
Cu      11.27397000      11.26702000      13.57324000  T      -0.00066800      -0.00029200       0.00018600
Cu       0.00233000       0.00508000      15.36458000  T      -0.00156900       0.00219500       0.00063300
Cu       2.51152000       0.00198000      15.36277000  T      -0.00038600       0.00125900       0.00064600
Cu       5.00587000       0.00555000      15.35101000  T       0.00080000      -0.00358500       0.00035300
Cu       7.51007000      12.42743000      15.38805000  T      -0.00098800      -0.01523900      -0.00283900
Cu      10.02402000      -0.00313000      15.34733000  T      -0.00255400      -0.00373500       0.00072900
Cu       0.04578000       2.50266000      15.33948000  T      -0.00031000       0.00170100       0.00034200
Cu       2.49065000       2.50085000      15.34083000  T      -0.00024700       0.00105100       0.00034400
Cu       4.94429000       2.44836000      15.39659000  T       0.00004200      -0.00172100       0.00119800
Cu       7.51242000       2.36824000      15.58546000  T      -0.00032500      -0.01965700       0.01838900
Cu      10.11131000       2.45696000      15.38792000  T      -0.00018700      -0.00486000       0.00060700
Cu      12.49361000       5.00570000      15.32372000  T       0.00161600       0.00172200       0.00111200
Cu       2.40211000       4.99970000      15.34488000  T       0.00163000       0.00079100       0.00032400
Pd       4.90640000       5.08874000      15.49314000  T       0.01496400      -0.02369800       0.00173800
Y        7.51413000       4.89922000      17.29702000  T      -0.00145400      -0.02088900       0.00612300
Cu      10.00799000       5.10756000      15.40157000  T      -0.00107200      -0.00915700       0.00124500
Cu       0.05283000       7.50625000      15.35830000  T      -0.00058100       0.00195000       0.00142900
Cu       2.53441000       7.49353000      15.35848000  T      -0.00038400       0.00129100       0.00128000
Cu       5.01774000       7.64565000      15.50088000  T       0.00128500      -0.00208100       0.00017500
Cu       7.54842000       7.44387000      15.50220000  T       0.00019300      -0.01082600      -0.00162500
Cu      10.08899000       7.60020000      15.47463000  T      -0.00143900      -0.00528500       0.00031500
Cu      12.51135000      10.00497000      15.36969000  T       0.00006600       0.00202900       0.00104400
Cu       2.50995000       9.99992000      15.37000000  T       0.00019900       0.00116400       0.00124000
Cu       5.01168000      10.08234000      15.36609000  T       0.00078500      -0.00425000       0.00070800
Cu       7.50678000       9.97589000      15.35372000  T      -0.00013400      -0.01360100      -0.00034200
Cu      10.01073000      10.05865000      15.35891000  T      -0.00063500      -0.00424800       0.00075100
O        6.02567000       3.56592000      16.47707000  T      -0.00288400      -0.00376300      -0.00135700
O        6.12418000       6.57893000      16.67062000  T      -0.00132800      -0.00313100      -0.00069900
O        8.99230000       6.48187000      16.57825000  T       0.00111000      -0.00499900       0.00000300
O        8.96538000       3.69177000      16.25813000  T      -0.00020400      -0.00584000      -0.00094600
C        7.60916000       2.56377000      18.48446000  T       0.00353500       0.00491500       0.02243300
O        7.54944000       2.22145000      19.80164000  T       0.00789800       0.02044100       0.02583700
O        7.64178000       1.58447000      17.68755000  T       0.00073200       0.00950900       0.02688200
H        7.53184000       1.23013000      19.84137000  T       0.01118900       0.01085600       0.02847300
108
Lattice="12.515153631 0.0 0.0 0.0 12.515153631 0.0 0.0 0.0 25.30973" Properties=species:S:1:pos:R:3:move_mask:L:1:forces:R:3 stress="0.007706166623399528 -2.4398059173077655e-05 -4.664903920685148e-05 -2.4398059173077655e-05 0.007655254633459697 5.7515506595014216e-05 -4.664903920685148e-05 5.7515506595014216e-05 0.0017074147534583725" free_energy=-444.05092129 energy=-444.04714365 pbc="T T T"
Cu       1.25152000       1.25152000      10.00000000  F       0.00149200      -0.01873900      -0.08286100
Cu       3.75455000       1.25152000      10.00000000  F       0.00727500       0.00323400      -0.07182200
Cu       6.25758000       1.25152000      10.00000000  F      -0.01449900       0.01500000      -0.05399000
Cu       8.76061000       1.25152000      10.00000000  F       0.01369000       0.00898200      -0.04654500
Cu      11.26364000       1.25152000      10.00000000  F      -0.00848200       0.00076900      -0.07217500
Cu       1.25152000       3.75455000      10.00000000  F      -0.00037200       0.00490200      -0.06666400
Cu       3.75455000       3.75455000      10.00000000  F       0.01329900      -0.01374300      -0.05723900
Cu       6.25758000       3.75455000      10.00000000  F      -0.01704900      -0.01306400      -0.08739900
Cu       8.76061000       3.75455000      10.00000000  F       0.01841600      -0.01199300      -0.09075200
Cu      11.26364000       3.75455000      10.00000000  F      -0.01300100       0.00148600      -0.05818900
Cu       1.25152000       6.25758000      10.00000000  F      -0.00457100       0.00020900      -0.07744500
Cu       3.75455000       6.25758000      10.00000000  F       0.01382200       0.02143800      -0.06390700
Cu       6.25758000       6.25758000      10.00000000  F      -0.01757500       0.01901700      -0.08442100
Cu       8.76061000       6.25758000      10.00000000  F       0.01889100       0.01898800      -0.08221000
Cu      11.26364000       6.25758000      10.00000000  F      -0.00899500       0.00653300      -0.06721500
Cu       1.25152000       8.76061000      10.00000000  F      -0.00188000       0.00801100      -0.07648200
Cu       3.75455000       8.76061000      10.00000000  F       0.00388500      -0.01288200      -0.07141200
Cu       6.25758000       8.76061000      10.00000000  F      -0.01019500      -0.01919300      -0.05946400
Cu       8.76061000       8.76061000      10.00000000  F       0.01265200      -0.01403400      -0.05386800
Cu      11.26364000       8.76061000      10.00000000  F      -0.00650800      -0.01223300      -0.07447700
Cu       1.25152000      11.26364000      10.00000000  F      -0.00397000       0.00803800      -0.01940100
Cu       3.75455000      11.26364000      10.00000000  F      -0.00909300       0.00435100      -0.07064200
Cu       6.25758000      11.26364000      10.00000000  F       0.00030900       0.00430200      -0.07038800
Cu       8.76061000      11.26364000      10.00000000  F      -0.00332100       0.00035000      -0.06943300
Cu      11.26364000      11.26364000      10.00000000  F       0.01420800       0.00322500      -0.06726600
Cu       0.00000000       0.00000000      11.76991000  F      -0.01961100       0.02729500       0.03556200
Cu       2.50303000       0.00000000      11.76991000  F       0.03804300       0.00268800       0.02566100
Cu       5.00606000       0.00000000      11.76991000  F       0.06463900       0.06726700       0.06409200
Cu       7.50909000       0.00000000      11.76991000  F       0.01441100       0.06170900       0.05081500
Cu      10.01212000       0.00000000      11.76991000  F      -0.05958000       0.06671300       0.08328900
Cu       0.00000000       2.50303000      11.76991000  F      -0.09022000       0.02589900       0.02165000
Cu       2.50303000       2.50303000      11.76991000  F       0.06623500       0.02661800       0.01111900
Cu       5.00606000       2.50303000      11.76991000  F       0.02219600      -0.02693400       0.08432900
Cu       7.50909000       2.50303000      11.76991000  F      -0.01727400      -0.01281800       0.15232800
Cu      10.01212000       2.50303000      11.76991000  F      -0.01812200      -0.02498600       0.08766600
Cu       0.00000000       5.00606000      11.76991000  F      -0.08797600       0.03811800       0.01031500
Cu       2.50303000       5.00606000      11.76991000  F       0.05825400       0.01950200       0.02144700
Cu       5.00606000       5.00606000      11.76991000  F       0.00017000      -0.00403900       0.11383900
Cu       7.50909000       5.00606000      11.76991000  F      -0.05022400      -0.04294100       0.14592700
Cu      10.01212000       5.00606000      11.76991000  F      -0.02372000      -0.00929300       0.08285100
Cu       0.00000000       7.50909000      11.76991000  F      -0.05711200       0.00210200       0.04972800
Cu       2.50303000       7.50909000      11.76991000  F       0.04780500       0.04260600       0.00668900
Cu       5.00606000       7.50909000      11.76991000  F       0.00360800       0.06885200       0.03249700
Cu       7.50909000       7.50909000      11.76991000  F      -0.03862300       0.05010900       0.06472100
Cu      10.01212000       7.50909000      11.76991000  F       0.05764200       0.08812600       0.00292100
Cu       0.00000000      10.01212000      11.76991000  F      -0.01723700      -0.04840700       0.06824400
Cu       2.50303000      10.01212000      11.76991000  F       0.04849400      -0.04201600       0.07701900
Cu       5.00606000      10.01212000      11.76991000  F       0.06902500      -0.07673400       0.08225800
Cu       7.50909000      10.01212000      11.76991000  F       0.01855600      -0.08324600       0.08341800
Cu      10.01212000      10.01212000      11.76991000  F      -0.05515000      -0.07704900       0.09322100
Cu       1.25890000       1.23618000      13.56772000  T      -0.00044600       0.00173100      -0.00022900
Cu       3.77032000       1.25987000      13.58270000  T       0.00035100      -0.00047300       0.00022100
Cu       6.28751000       1.26572000      13.61736000  T       0.00086500      -0.00441500       0.00177300
Cu       8.74618000       1.26558000      13.61756000  T      -0.00217300      -0.00479000       0.00168900
Cu      11.26240000       1.26342000      13.58380000  T      -0.00115200      -0.00036400      -0.00054000
Cu       1.23810000       3.74921000      13.55479000  T       0.00027200       0.00215700       0.00016700
Cu       3.75392000       3.76776000      13.58713000  T       0.00088400      -0.00058300      -0.00018200
Cu       6.27019000       3.75750000      13.58879000  T       0.00069400      -0.00480700       0.00122900
Cu       8.72442000       3.75865000      13.58603000  T      -0.00075500      -0.00534300       0.00238300
Cu      11.22925000       3.77999000      13.58783000  T      -0.00034900      -0.00012600       0.00114600
Cu       1.24452000       6.26210000      13.56295000  T       0.00036400       0.00209100       0.00045400
Cu       3.75571000       6.29098000      13.57770000  T       0.00100500       0.00032900       0.00071900
Cu       6.26925000       6.25059000      13.57268000  T       0.00075400      -0.00369000      -0.00207400
Cu       8.74123000       6.25684000      13.54699000  T       0.00116200      -0.00489400      -0.00029500
Cu      11.23751000       6.28077000      13.59509000  T       0.00006400      -0.00096500       0.00136900
Cu       1.26536000       8.76439000      13.57961000  T      -0.00016900       0.00189000       0.00027100
Cu       3.78908000       8.76458000      13.60849000  T      -0.00015500      -0.00011000       0.00052900
Cu       6.28205000       8.72662000      13.61602000  T      -0.00087000      -0.00514100      -0.00105400
Cu       8.76137000       8.72668000      13.61723000  T      -0.00009900      -0.00612800      -0.00024600
Cu      11.25895000       8.76133000      13.60257000  T      -0.00051500      -0.00052900       0.00083200
Cu       1.25102000      11.25747000      13.59415000  T      -0.00008500       0.00175100       0.00023500
Cu       3.74713000      11.26742000      13.57394000  T       0.00006100      -0.00034900       0.00066900
Cu       6.26089000      11.26038000      13.57203000  T      -0.00115500      -0.00647800      -0.00198200
Cu       8.75796000      11.25874000      13.57673000  T       0.00007000      -0.00673600      -0.00183900
Cu      11.27393000      11.26698000      13.57327000  T      -0.00069200      -0.00001800       0.00040100
Cu       0.00222000       0.00522000      15.36462000  T      -0.00209200       0.00294000       0.00029800
Cu       2.51149000       0.00205000      15.36283000  T      -0.00045100       0.00163600       0.00030500
Cu       5.00593000       0.00526000      15.35104000  T       0.00126200      -0.00435400       0.00008200
Cu       7.51000000      12.42623000      15.38782000  T      -0.00120200      -0.01876400      -0.00426500
Cu      10.02383000      -0.00344000      15.34739000  T      -0.00344900      -0.00455800       0.00059600
Cu       0.04577000       2.50276000      15.33952000  T      -0.00050900       0.00225100       0.00006300
Cu       2.49062000       2.50091000      15.34086000  T      -0.00060900       0.00129100       0.00007100
Cu       4.94427000       2.44807000      15.39668000  T      -0.00037400      -0.00466300       0.00084300
Cu       7.51242000       2.36658000      15.58685000  T       0.00009000      -0.02474200       0.02116200
Cu      10.11132000       2.45651000      15.38798000  T      -0.00047500      -0.00641300       0.00087800
Cu      12.49373000       5.00582000      15.32383000  T       0.00169600       0.00255300       0.00148600
Cu       2.40227000       4.99976000      15.34492000  T       0.00235400       0.00175500       0.00044100
Pd       4.90679000       5.08816000      15.49318000  T       0.01217800      -0.01815400      -0.00165900
Y        7.51408000       4.89855000      17.29717000  T      -0.00123200      -0.00941000       0.00267400
Cu      10.00798000       5.10691000      15.40166000  T      -0.00096500      -0.00975800       0.00121600
Cu       0.05280000       7.50640000      15.35842000  T      -0.00073100       0.00317800       0.00165000
Cu       2.53438000       7.49362000      15.35858000  T      -0.00058600       0.00251000       0.00136500
Cu       5.01781000       7.64540000      15.50089000  T       0.00118500      -0.00309700      -0.00034400
Cu       7.54843000       7.44300000      15.50204000  T       0.00025700      -0.01337500      -0.00297200
Cu      10.08893000       7.59978000      15.47465000  T      -0.00165400      -0.00627700      -0.00006300
Cu      12.51136000      10.00511000      15.36977000  T       0.00001600       0.00310700       0.00102500
Cu       2.50997000      10.00000000      15.37010000  T       0.00038800       0.00195800       0.00108700
Cu       5.01174000      10.08203000      15.36614000  T       0.00118300      -0.00447800       0.00035000
Cu       7.50678000       9.97486000      15.35372000  T      -0.00014500      -0.01620700      -0.00056700
Cu      10.01069000      10.05831000      15.35897000  T      -0.00102200      -0.00499800       0.00069700
O        6.02565000       3.56536000      16.47714000  T       0.00142600      -0.00802100       0.00198800
O        6.12409000       6.57852000      16.67058000  T       0.00028100      -0.00388500      -0.00066600
O        8.99242000       6.48120000      16.57823000  T       0.00122800      -0.00758900      -0.00112500
O        8.96517000       3.69109000      16.25813000  T      -0.00195900      -0.00899100      -0.00053400
C        7.60943000       2.56439000      18.48620000  T       0.00249600       0.00846800       0.02468700
O        7.55023000       2.22283000      19.80362000  T       0.00852200       0.02079700       0.03139500
O        7.64188000       1.58479000      17.68976000  T       0.00077900       0.00595000       0.02793900
H        7.53278000       1.23145000      19.84380000  T       0.01152900       0.01322600       0.02831800
108
Lattice="12.515153631 0.0 0.0 0.0 12.515153631 0.0 0.0 0.0 25.30973" Properties=species:S:1:pos:R:3:move_mask:L:1:forces:R:3 stress="0.007687935175242822 -2.4423025209581187e-05 -4.2080254526704926e-05 -2.4423025209581187e-05 0.007634401751470121 6.94555135528289e-05 -4.2080254526704926e-05 6.94555135528289e-05 0.0016865056978866634" free_energy=-444.05023258 energy=-444.04647134 pbc="T T T"
Cu       1.25152000       1.25152000      10.00000000  F       0.00119600      -0.01927600      -0.08315600
Cu       3.75455000       1.25152000      10.00000000  F       0.00725600       0.00262700      -0.07240300
Cu       6.25758000       1.25152000      10.00000000  F      -0.01432900       0.01428500      -0.05432100
Cu       8.76061000       1.25152000      10.00000000  F       0.01401400       0.00825600      -0.04659500
Cu      11.26364000       1.25152000      10.00000000  F      -0.00855300       0.00016600      -0.07230100
Cu       1.25152000       3.75455000      10.00000000  F      -0.00071600       0.00455900      -0.06730000
Cu       3.75455000       3.75455000      10.00000000  F       0.01319500      -0.01414900      -0.05812300
Cu       6.25758000       3.75455000      10.00000000  F      -0.01685900      -0.01342600      -0.08801800
Cu       8.76061000       3.75455000      10.00000000  F       0.01881600      -0.01228200      -0.09100800
Cu      11.26364000       3.75455000      10.00000000  F      -0.01301500       0.00118700      -0.05853400
Cu       1.25152000       6.25758000      10.00000000  F      -0.00498100       0.00005300      -0.07781600
Cu       3.75455000       6.25758000      10.00000000  F       0.01372200       0.02136400      -0.06447700
Cu       6.25758000       6.25758000      10.00000000  F      -0.01722700       0.01908300      -0.08479400
Cu       8.76061000       6.25758000      10.00000000  F       0.01925800       0.01909500      -0.08214900
Cu      11.26364000       6.25758000      10.00000000  F      -0.00906800       0.00653300      -0.06711700
Cu       1.25152000       8.76061000      10.00000000  F      -0.00231100       0.00789800      -0.07655600
Cu       3.75455000       8.76061000      10.00000000  F       0.00394300      -0.01292000      -0.07154500
Cu       6.25758000       8.76061000      10.00000000  F      -0.00977300      -0.01914200      -0.05918200
Cu       8.76061000       8.76061000      10.00000000  F       0.01290900      -0.01404000      -0.05321700
Cu      11.26364000       8.76061000      10.00000000  F      -0.00670400      -0.01231500      -0.07390500
Cu       1.25152000      11.26364000      10.00000000  F      -0.00429700       0.00761400      -0.01941900
Cu       3.75455000      11.26364000      10.00000000  F      -0.00900000       0.00390500      -0.07078300
Cu       6.25758000      11.26364000      10.00000000  F       0.00065500       0.00373800      -0.07014800
Cu       8.76061000      11.26364000      10.00000000  F      -0.00308900      -0.00027200      -0.06885300
Cu      11.26364000      11.26364000      10.00000000  F       0.01402300       0.00265100      -0.06692700
Cu       0.00000000       0.00000000      11.76991000  F      -0.02014900       0.02646100       0.03563500
Cu       2.50303000       0.00000000      11.76991000  F       0.03787600       0.00186100       0.02556700
Cu       5.00606000       0.00000000      11.76991000  F       0.06521200       0.06656500       0.06399000
Cu       7.50909000       0.00000000      11.76991000  F       0.01498500       0.06123000       0.05084700
Cu      10.01212000       0.00000000      11.76991000  F      -0.05967800       0.06594300       0.08341700
Cu       0.00000000       2.50303000      11.76991000  F      -0.09067700       0.02510900       0.02139500
Cu       2.50303000       2.50303000      11.76991000  F       0.06595700       0.02602500       0.01092100
Cu       5.00606000       2.50303000      11.76991000  F       0.02232700      -0.02721300       0.08390300
Cu       7.50909000       2.50303000      11.76991000  F      -0.01672700      -0.01299700       0.15183200
Cu      10.01212000       2.50303000      11.76991000  F      -0.01785100      -0.02526400       0.08733000
Cu       0.00000000       5.00606000      11.76991000  F      -0.08851300       0.03831200       0.01017800
Cu       2.50303000       5.00606000      11.76991000  F       0.05771200       0.01949400       0.02113000
Cu       5.00606000       5.00606000      11.76991000  F       0.00062600      -0.00340600       0.11375100
Cu       7.50909000       5.00606000      11.76991000  F      -0.04974300      -0.04134900       0.14581300
Cu      10.01212000       5.00606000      11.76991000  F      -0.02392700      -0.00834500       0.08295600
Cu       0.00000000       7.50909000      11.76991000  F      -0.05784500       0.00250400       0.04975200
Cu       2.50303000       7.50909000      11.76991000  F       0.04748000       0.04288600       0.00661000
Cu       5.00606000       7.50909000      11.76991000  F       0.00435500       0.06969100       0.03279300
Cu       7.50909000       7.50909000      11.76991000  F      -0.03815300       0.05141400       0.06535700
Cu      10.01212000       7.50909000      11.76991000  F       0.05732700       0.08916600       0.00342700
Cu       0.00000000      10.01212000      11.76991000  F      -0.01783300      -0.04877200       0.06831900
Cu       2.50303000      10.01212000      11.76991000  F       0.04822300      -0.04235800       0.07706800
Cu       5.00606000      10.01212000      11.76991000  F       0.07009100      -0.07638600       0.08279400
Cu       7.50909000      10.01212000      11.76991000  F       0.01915300      -0.08265600       0.08430800
Cu      10.01212000      10.01212000      11.76991000  F      -0.05562300      -0.07679100       0.09393100
Cu       1.25892000       1.23614000      13.56768000  T      -0.00093600       0.00050800      -0.00002200
Cu       3.77031000       1.25997000      13.58264000  T       0.00055000      -0.00141200       0.00037300
Cu       6.28746000       1.26609000      13.61718000  T       0.00157800      -0.00463900       0.00198800
Cu       8.74631000       1.26599000      13.61739000  T      -0.00173100      -0.00481500       0.00211000
Cu      11.26246000       1.26352000      13.58378000  T      -0.00148400      -0.00123700      -0.00018300
Cu       1.23807000       3.74913000      13.55471000  T      -0.00045100       0.00180000       0.00046300
Cu       3.75387000       3.76788000      13.58707000  T       0.00082800      -0.00080000      -0.00001500
Cu       6.27016000       3.75792000      13.58860000  T       0.00169200      -0.00512700       0.00199600
Cu       8.72447000       3.75909000      13.58580000  T      -0.00045800      -0.00518000       0.00336300
Cu      11.22925000       3.78006000      13.58769000  T      -0.00061000      -0.00002200       0.00121400
Cu       1.24450000       6.26202000      13.56284000  T      -0.00049300       0.00210100       0.00080200
Cu       3.75567000       6.29105000      13.57758000  T       0.00100200       0.00056800       0.00111600
Cu       6.26921000       6.25096000      13.57277000  T       0.00154100      -0.00250500      -0.00149000
Cu       8.74111000       6.25728000      13.54697000  T       0.00176900      -0.00340600       0.00059100
Cu      11.23748000       6.28089000      13.59493000  T      -0.00046900       0.00000900       0.00192100
Cu       1.26539000       8.76432000      13.57953000  T      -0.00104200       0.00146400       0.00071900
Cu       3.78913000       8.76465000      13.60842000  T       0.00011800      -0.00000300       0.00084500
Cu       6.28211000       8.72704000      13.61607000  T       0.00012100      -0.00382700      -0.00043100
Cu       8.76133000       8.72716000      13.61723000  T       0.00043200      -0.00478400       0.00051400
Cu      11.25895000       8.76143000      13.60246000  T      -0.00112100      -0.00035900       0.00136600
Cu       1.25103000      11.25743000      13.59408000  T      -0.00066700       0.00061100       0.00047600
Cu       3.74714000      11.26749000      13.57386000  T       0.00040600      -0.00105200       0.00082500
Cu       6.26096000      11.26088000      13.57212000  T       0.00016000      -0.00596500      -0.00106300
Cu       8.75793000      11.25928000      13.57680000  T       0.00018200      -0.00624900      -0.00082200
Cu      11.27395000      11.26707000      13.57319000  T      -0.00140200      -0.00099700       0.00088300
Cu       0.00234000       0.00509000      15.36457000  T      -0.00246000       0.00186000       0.00045100
Cu       2.51152000       0.00200000      15.36276000  T      -0.00065500       0.00070700       0.00082300
Cu       5.00587000       0.00560000      15.35099000  T       0.00151000      -0.00482700       0.00026500
Cu       7.51008000      12.42770000      15.38808000  T      -0.00053600      -0.01787500      -0.00365700
Cu      10.02403000      -0.00305000      15.34731000  T      -0.00314900      -0.00489300       0.00025100
Cu       0.04578000       2.50268000      15.33947000  T      -0.00099100       0.00151700       0.00069100
Cu       2.49065000       2.50088000      15.34082000  T      -0.00085700       0.00057800       0.00097900
Cu       4.94430000       2.44846000      15.39654000  T       0.00012200      -0.00484300       0.00093800
Cu       7.51242000       2.36868000      15.58517000  T       0.00051300      -0.02317700       0.02058800
Cu      10.11129000       2.45707000      15.38787000  T      -0.00095500      -0.00558400       0.00078600
Cu      12.49360000       5.00571000      15.32367000  T       0.00103600       0.00248200       0.00180400
Cu       2.40212000       4.99973000      15.34485000  T       0.00223300       0.00162800       0.00112200
Pd       4.90675000       5.08833000      15.49311000  T       0.00884400      -0.01311500       0.00099900
Y        7.51414000       4.89908000      17.29716000  T      -0.00155800      -0.01638400       0.00517600
Cu      10.00798000       5.10771000      15.40151000  T      -0.00196900      -0.00902000       0.00202300
Cu       0.05284000       7.50625000      15.35828000  T      -0.00167300       0.00290000       0.00136900
Cu       2.53444000       7.49354000      15.35845000  T      -0.00103300       0.00244600       0.00156500
Cu       5.01777000       7.64572000      15.50086000  T       0.00152000      -0.00316600       0.00011300
Cu       7.54839000       7.44404000      15.50224000  T       0.00125500      -0.01218100      -0.00102100
Cu      10.08898000       7.60032000      15.47461000  T      -0.00263800      -0.00641100       0.00063700
Cu      12.51135000      10.00497000      15.36966000  T      -0.00066800       0.00231700       0.00058600
Cu       2.50996000       9.99993000      15.36998000  T       0.00002400       0.00141900       0.00119900
Cu       5.01168000      10.08237000      15.36607000  T       0.00148200      -0.00454500       0.00026100
Cu       7.50677000       9.97607000      15.35368000  T       0.00057800      -0.01537500      -0.00117200
Cu      10.01073000      10.05873000      15.35888000  T      -0.00094500      -0.00492200      -0.00012100
O        6.02559000       3.56623000      16.47704000  T       0.00180100      -0.00622000       0.00203200
O        6.12415000       6.57920000      16.67058000  T       0.00198600      -0.00113100      -0.00033300
O        8.99213000       6.48232000      16.57835000  T       0.00147100      -0.00146300      -0.00248900
O        8.96552000       3.69212000      16.25816000  T       0.00038500      -0.00522200      -0.00098000
C        7.60902000       2.56354000      18.48397000  T       0.00333500       0.01069600       0.02299700
O        7.54899000       2.22086000      19.80102000  T       0.00667800       0.01246600       0.02253200
O        7.64170000       1.58461000      17.68673000  T       0.00105700       0.00506900       0.01882400
H        7.53144000       1.22951000      19.84035000  T       0.01106800       0.01327400       0.02884800
108
Lattice="12.515153631 0.0 0.0 0.0 12.515153631 0.0 0.0 0.0 25.30973" Properties=species:S:1:pos:R:3:move_mask:L:1:forces:R:3 stress="0.007680670058620294 -2.543414968797428e-05 -4.684876749887974e-05 -2.543414968797428e-05 0.0076243529217774495 4.02639753710729e-05 -4.684876749887974e-05 4.02639753710729e-05 0.001682891864102777" free_energy=-444.05157954 energy=-444.04779619 pbc="T T T"
Cu       1.25152000       1.25152000      10.00000000  F       0.00155600      -0.01950700      -0.08268200
Cu       3.75455000       1.25152000      10.00000000  F       0.00713000       0.00246700      -0.07151000
Cu       6.25758000       1.25152000      10.00000000  F      -0.01451000       0.01425700      -0.05375000
Cu       8.76061000       1.25152000      10.00000000  F       0.01377800       0.00824200      -0.04630700
Cu      11.26364000       1.25152000      10.00000000  F      -0.00824300       0.00000600      -0.07186500
Cu       1.25152000       3.75455000      10.00000000  F      -0.00032500       0.00425800      -0.06641900
Cu       3.75455000       3.75455000      10.00000000  F       0.01313600      -0.01443600      -0.05696900
Cu       6.25758000       3.75455000      10.00000000  F      -0.01707900      -0.01379600      -0.08736000
Cu       8.76061000       3.75455000      10.00000000  F       0.01857200      -0.01269400      -0.09073300
Cu      11.26364000       3.75455000      10.00000000  F      -0.01276800       0.00085600      -0.05791600
Cu       1.25152000       6.25758000      10.00000000  F      -0.00456000      -0.00049000      -0.07711700
Cu       3.75455000       6.25758000      10.00000000  F       0.01365800       0.02073800      -0.06367600
Cu       6.25758000       6.25758000      10.00000000  F      -0.01767900       0.01832600      -0.08414500
Cu       8.76061000       6.25758000      10.00000000  F       0.01914700       0.01831800      -0.08186500
Cu      11.26364000       6.25758000      10.00000000  F      -0.00876000       0.00586100      -0.06685500
Cu       1.25152000       8.76061000      10.00000000  F      -0.00190500       0.00728700      -0.07593800
Cu       3.75455000       8.76061000      10.00000000  F       0.00373500      -0.01362600      -0.07121800
Cu       6.25758000       8.76061000      10.00000000  F      -0.01030200      -0.01990200      -0.05932500
Cu       8.76061000       8.76061000      10.00000000  F       0.01292300      -0.01475000      -0.05359900
Cu      11.26364000       8.76061000      10.00000000  F      -0.00627000      -0.01297200      -0.07408700
Cu       1.25152000      11.26364000      10.00000000  F      -0.00395600       0.00724400      -0.01905700
Cu       3.75455000      11.26364000      10.00000000  F      -0.00923800       0.00361100      -0.07029700
Cu       6.25758000      11.26364000      10.00000000  F       0.00024700       0.00357300      -0.07008900
Cu       8.76061000      11.26364000      10.00000000  F      -0.00314800      -0.00042400      -0.06908400
Cu      11.26364000      11.26364000      10.00000000  F       0.01445300       0.00240100      -0.06683600
Cu       0.00000000       0.00000000      11.76991000  F      -0.01960300       0.02619200       0.03618900
Cu       2.50303000       0.00000000      11.76991000  F       0.03798500       0.00179200       0.02628600
Cu       5.00606000       0.00000000      11.76991000  F       0.06458000       0.06602700       0.06482100
Cu       7.50909000       0.00000000      11.76991000  F       0.01438900       0.05988600       0.05173000
Cu      10.01212000       0.00000000      11.76991000  F      -0.05965900       0.06523300       0.08412900
Cu       0.00000000       2.50303000      11.76991000  F      -0.09022500       0.02548400       0.02265600
Cu       2.50303000       2.50303000      11.76991000  F       0.06628200       0.02591700       0.01189300
Cu       5.00606000       2.50303000      11.76991000  F       0.02257300      -0.02850500       0.08547400
Cu       7.50909000       2.50303000      11.76991000  F      -0.01726300      -0.01457900       0.15414900
Cu      10.01212000       2.50303000      11.76991000  F      -0.01854000      -0.02627200       0.08916700
Cu       0.00000000       5.00606000      11.76991000  F      -0.08803500       0.03757900       0.01147300
Cu       2.50303000       5.00606000      11.76991000  F       0.05845700       0.01898800       0.02254800
Cu       5.00606000       5.00606000      11.76991000  F      -0.00007600      -0.00565300       0.11459200
Cu       7.50909000       5.00606000      11.76991000  F      -0.04976400      -0.04589900       0.14698200
Cu      10.01212000       5.00606000      11.76991000  F      -0.02316500      -0.01099000       0.08380200
Cu       0.00000000       7.50909000      11.76991000  F      -0.05710400       0.00134000       0.05074500
Cu       2.50303000       7.50909000      11.76991000  F       0.04759700       0.04179500       0.00759200
Cu       5.00606000       7.50909000      11.76991000  F       0.00300300       0.06734000       0.03251800
Cu       7.50909000       7.50909000      11.76991000  F      -0.03797700       0.04805400       0.06461900
Cu      10.01212000       7.50909000      11.76991000  F       0.05848300       0.08640900       0.00344000
Cu       0.00000000      10.01212000      11.76991000  F      -0.01738600      -0.04935400       0.06904900
Cu       2.50303000      10.01212000      11.76991000  F       0.04836000      -0.04276100       0.07758700
Cu       5.00606000      10.01212000      11.76991000  F       0.06812300      -0.07838600       0.08175500
Cu       7.50909000      10.01212000      11.76991000  F       0.01875600      -0.08566300       0.08272900
Cu      10.01212000      10.01212000      11.76991000  F      -0.05432800      -0.07901900       0.09314800
Cu       1.25885000       1.23628000      13.56778000  T      -0.00036500       0.00072000      -0.00014800
Cu       3.77035000       1.25970000      13.58279000  T       0.00012100      -0.00048400       0.00006100
Cu       6.28761000       1.26507000      13.61765000  T       0.00074100      -0.00249400       0.00125000
Cu       8.74593000       1.26486000      13.61784000  T      -0.00115200      -0.00292800       0.00108900
Cu      11.26228000       1.26325000      13.58382000  T      -0.00051800      -0.00078600      -0.00040400
Cu       1.23815000       3.74938000      13.55491000  T       0.00008200       0.00090000      -0.00014700
Cu       3.75401000       3.76757000      13.58723000  T       0.00027700      -0.00052900      -0.00017900
Cu       6.27026000       3.75677000      13.58908000  T       0.00059400      -0.00301100       0.00088200
Cu       8.72433000       3.75787000      13.58644000  T      -0.00060300      -0.00347700       0.00142500
Cu      11.22924000       3.77987000      13.58806000  T      -0.00011600      -0.00073500       0.00037500
Cu       1.24456000       6.26225000      13.56310000  T       0.00018000       0.00080600      -0.00008000
Cu       3.75581000       6.29088000      13.57789000  T       0.00059800      -0.00063900       0.00085200
Cu       6.26932000       6.24996000      13.57251000  T       0.00013600      -0.00293700      -0.00094800
Cu       8.74144000       6.25609000      13.54701000  T       0.00062900      -0.00356200      -0.00055100
Cu      11.23754000       6.28055000      13.59536000  T       0.00030800      -0.00096800       0.00018200
Cu       1.26532000       8.76452000      13.57973000  T      -0.00017100       0.00056200      -0.00010200
Cu       3.78903000       8.76446000      13.60861000  T      -0.00043500      -0.00047500       0.00001400
Cu       6.28193000       8.72587000      13.61591000  T      -0.00049000      -0.00345000      -0.00094600
Cu       8.76143000       8.72580000      13.61723000  T       0.00026200      -0.00395700      -0.00060600
Cu      11.25892000       8.76116000      13.60275000  T       0.00002300      -0.00082000      -0.00011900
Cu       1.25100000      11.25757000      13.59425000  T      -0.00029000       0.00066800      -0.00005000
Cu       3.74711000      11.26728000      13.57407000  T      -0.00021500      -0.00054000       0.00031500
Cu       6.26075000      11.25949000      13.57185000  T      -0.00058300      -0.00397700      -0.00108000
Cu       8.75801000      11.25779000      13.57658000  T       0.00026800      -0.00418200      -0.00119700
Cu      11.27388000      11.26684000      13.57340000  T      -0.00023300      -0.00049600      -0.00002800
Cu       0.00198000       0.00547000      15.36470000  T      -0.00120400       0.00156400       0.00038100
Cu       2.51142000       0.00216000      15.36293000  T      -0.00021400       0.00085300       0.00031100
Cu       5.00605000       0.00464000      15.35113000  T       0.00077100      -0.00257700       0.00045200
Cu       7.50986000      12.42360000      15.38733000  T      -0.00064800      -0.01113900      -0.00238700
Cu      10.02346000      -0.00415000      15.34753000  T      -0.00197300      -0.00321000       0.00045600
Cu       0.04573000       2.50294000      15.33959000  T      -0.00007900       0.00115100       0.00013000
Cu       2.49057000       2.50099000      15.34093000  T      -0.00015500       0.00068200       0.00031100
Cu       4.94422000       2.44736000      15.39688000  T      -0.00018800      -0.00370000       0.00034300
Cu       7.51242000       2.36287000      15.58987000  T       0.00004700      -0.01627900       0.01394900
Cu      10.11134000       2.45552000      15.38817000  T      -0.00030300      -0.00464000       0.00066000
Cu      12.49396000       5.00605000      15.32410000  T       0.00084800       0.00094300       0.00064000
Cu       2.40257000       4.99988000      15.34504000  T       0.00141800       0.00060200       0.00028800
Pd       4.90721000       5.08741000      15.49324000  T       0.00483200      -0.00764000      -0.00085000
Y        7.51395000       4.89744000      17.29730000  T      -0.00030000      -0.00520100       0.00169900
Cu      10.00794000       5.10552000      15.40190000  T      -0.00084300      -0.00577900       0.00083200
Cu       0.05273000       7.50668000      15.35864000  T      -0.00002000       0.00122600       0.00105300
Cu       2.53426000       7.49380000      15.35879000  T      -0.00016900       0.00068800       0.00084300
Cu       5.01790000       7.64482000      15.50093000  T       0.00071700      -0.00337500       0.00044100
Cu       7.54850000       7.44113000      15.50170000  T       0.00018600      -0.00912300      -0.00068100
Cu      10.08883000       7.59885000      15.47467000  T      -0.00108700      -0.00496800       0.00060200
Cu      12.51136000      10.00538000      15.36990000  T       0.00012800       0.00135900       0.00093500
Cu       2.50999000      10.00013000      15.37029000  T       0.00013600       0.00073200       0.00074000
Cu       5.01186000      10.08141000      15.36626000  T       0.00066100      -0.00269200       0.00045900
Cu       7.50679000       9.97266000      15.35375000  T      -0.00001900      -0.00964100       0.00014400
Cu      10.01062000      10.05756000      15.35909000  T      -0.00047900      -0.00353100       0.00060100
O        6.02578000       3.56392000      16.47737000  T       0.00133900      -0.00605400       0.00289800
O        6.12400000       6.57744000      16.67056000  T      -0.00049300      -0.00412000       0.00109600
O        8.99285000       6.47943000      16.57804000  T       0.00090200      -0.00595700       0.00053400
O        8.96464000       3.68941000      16.25807000  T      -0.00193100      -0.00627900       0.00016000
C        7.61010000       2.56581000      18.49014000  T       0.00301000       0.00806900       0.01866300
O        7.55225000       2.22609000      19.80814000  T       0.00853600       0.01907300       0.02346300
O        7.64215000       1.58530000      17.69497000  T       0.00131900       0.00368900       0.02274900
H        7.53509000       1.23480000      19.84969000  T       0.01115500       0.01226400       0.02784800
108
Lattice="12.515153631 0.0 0.0 0.0 12.515153631 0.0 0.0 0.0 25.30973" Properties=species:S:1:pos:R:3:move_mask:L:1:forces:R:3 stress="0.007786569743959155 -2.6208096819583804e-05 -4.380291104544871e-05 -2.6208096819583804e-05 0.007726439045040397 2.307485923839041e-05 -4.380291104544871e-05 2.307485923839041e-05 0.001805912008973936" free_energy=-444.05302619 energy=-444.04923341 pbc="T T T"
Cu       1.25152000       1.25152000      10.00000000  F       0.00173200      -0.01920000      -0.08285700
Cu       3.75455000       1.25152000      10.00000000  F       0.00726000       0.00272100      -0.07136900
Cu       6.25758000       1.25152000      10.00000000  F      -0.01452700       0.01447200      -0.05357100
Cu       8.76061000       1.25152000      10.00000000  F       0.01343900       0.00854000      -0.04634300
Cu      11.26364000       1.25152000      10.00000000  F      -0.00826700       0.00033100      -0.07199100
Cu       1.25152000       3.75455000      10.00000000  F      -0.00015500       0.00412500      -0.06636900
Cu       3.75455000       3.75455000      10.00000000  F       0.01323200      -0.01457400      -0.05669200
Cu       6.25758000       3.75455000      10.00000000  F      -0.01713000      -0.01392500      -0.08718400
Cu       8.76061000       3.75455000      10.00000000  F       0.01836500      -0.01281800      -0.09071600
Cu      11.26364000       3.75455000      10.00000000  F      -0.01283500       0.00073100      -0.05779600
Cu       1.25152000       6.25758000      10.00000000  F      -0.00437600      -0.00105400      -0.07716100
Cu       3.75455000       6.25758000      10.00000000  F       0.01386300       0.02027500      -0.06348500
Cu       6.25758000       6.25758000      10.00000000  F      -0.01776900       0.01798800      -0.08365700
Cu       8.76061000       6.25758000      10.00000000  F       0.01890600       0.01793900      -0.08148500
Cu      11.26364000       6.25758000      10.00000000  F      -0.00890300       0.00535100      -0.06679900
Cu       1.25152000       8.76061000      10.00000000  F      -0.00170900       0.00707200      -0.07602900
Cu       3.75455000       8.76061000      10.00000000  F       0.00402700      -0.01385100      -0.07122800
Cu       6.25758000       8.76061000      10.00000000  F      -0.01041000      -0.02011000      -0.05914300
Cu       8.76061000       8.76061000      10.00000000  F       0.01262200      -0.01501200      -0.05354900
Cu      11.26364000       8.76061000      10.00000000  F      -0.00642900      -0.01322800      -0.07434900
Cu       1.25152000      11.26364000      10.00000000  F      -0.00376300       0.00747400      -0.01943700
Cu       3.75455000      11.26364000      10.00000000  F      -0.00901700       0.00376400      -0.07028600
Cu       6.25758000      11.26364000      10.00000000  F       0.00015700       0.00365900      -0.06990400
Cu       8.76061000      11.26364000      10.00000000  F      -0.00351800      -0.00031400      -0.06905900
Cu      11.26364000      11.26364000      10.00000000  F       0.01439500       0.00257900      -0.06717700
Cu       0.00000000       0.00000000      11.76991000  F      -0.01957500       0.02617900       0.03705400
Cu       2.50303000       0.00000000      11.76991000  F       0.03823900       0.00185000       0.02727900
Cu       5.00606000       0.00000000      11.76991000  F       0.06468600       0.06542100       0.06581700
Cu       7.50909000       0.00000000      11.76991000  F       0.01399600       0.05866600       0.05281600
Cu      10.01212000       0.00000000      11.76991000  F      -0.06020000       0.06457300       0.08513600
Cu       0.00000000       2.50303000      11.76991000  F      -0.09028100       0.02584700       0.02370100
Cu       2.50303000       2.50303000      11.76991000  F       0.06648000       0.02597300       0.01269900
Cu       5.00606000       2.50303000      11.76991000  F       0.02309600      -0.02950300       0.08644400
Cu       7.50909000       2.50303000      11.76991000  F      -0.01741200      -0.01577800       0.15579900
Cu      10.01212000       2.50303000      11.76991000  F      -0.01936200      -0.02688000       0.09068400
Cu       0.00000000       5.00606000      11.76991000  F      -0.08816200       0.03723300       0.01261100
Cu       2.50303000       5.00606000      11.76991000  F       0.05894100       0.01889000       0.02354100
Cu       5.00606000       5.00606000      11.76991000  F      -0.00018400      -0.00668800       0.11504400
Cu       7.50909000       5.00606000      11.76991000  F      -0.04952500      -0.04848200       0.14776000
Cu      10.01212000       5.00606000      11.76991000  F      -0.02297700      -0.01246800       0.08462000
Cu       0.00000000       7.50909000      11.76991000  F      -0.05709400       0.00081500       0.05183900
Cu       2.50303000       7.50909000      11.76991000  F       0.04796800       0.04118400       0.00879400
Cu       5.00606000       7.50909000      11.76991000  F       0.00256800       0.06619200       0.03268900
Cu       7.50909000       7.50909000      11.76991000  F      -0.03770900       0.04628000       0.06456300
Cu      10.01212000       7.50909000      11.76991000  F       0.05873300       0.08482200       0.00404400
Cu       0.00000000      10.01212000      11.76991000  F      -0.01747700      -0.04962700       0.07016300
Cu       2.50303000      10.01212000      11.76991000  F       0.04868700      -0.04280500       0.07851100
Cu       5.00606000      10.01212000      11.76991000  F       0.06735400      -0.07965200       0.08148600
Cu       7.50909000      10.01212000      11.76991000  F       0.01848500      -0.08790500       0.08219200
Cu      10.01212000      10.01212000      11.76991000  F      -0.05402800      -0.08049600       0.09317800
Cu       1.25880000       1.23640000      13.56784000  T      -0.00016000       0.00068700      -0.00006200
Cu       3.77038000       1.25952000      13.58289000  T      -0.00004700      -0.00068700      -0.00024600
Cu       6.28774000       1.26435000      13.61801000  T       0.00081000      -0.00217500       0.00105400
Cu       8.74565000       1.26405000      13.61817000  T      -0.00109400      -0.00267500       0.00097700
Cu      11.26216000       1.26305000      13.58382000  T      -0.00035200      -0.00086100      -0.00031800
Cu       1.23820000       3.74956000      13.55502000  T       0.00003200       0.00068800      -0.00038700
Cu       3.75411000       3.76736000      13.58731000  T      -0.00000500      -0.00060600      -0.00079200
Cu       6.27035000       3.75594000      13.58940000  T       0.00067500      -0.00244600       0.00023300
Cu       8.72422000       3.75696000      13.58688000  T      -0.00080400      -0.00305400       0.00093500
Cu      11.22923000       3.77968000      13.58829000  T      -0.00010600      -0.00097900       0.00008200
Cu       1.24462000       6.26239000      13.56324000  T       0.00026400       0.00065800      -0.00016800
Cu       3.75594000       6.29071000      13.57813000  T       0.00065300      -0.00063700       0.00089300
Cu       6.26937000       6.24919000      13.57231000  T       0.00009400      -0.00238500      -0.00084600
Cu       8.74167000       6.25517000      13.54699000  T       0.00019500      -0.00321700      -0.00071100
Cu      11.23760000       6.28025000      13.59560000  T       0.00015900      -0.00109900      -0.00003600
Cu       1.26529000       8.76462000      13.57983000  T       0.00017100       0.00053200       0.00018700
Cu       3.78895000       8.76429000      13.60871000  T      -0.00025400      -0.00033000       0.00015300
Cu       6.28180000       8.72495000      13.61576000  T      -0.00062900      -0.00313200      -0.00069200
Cu       8.76150000       8.72475000      13.61719000  T       0.00003100      -0.00365100      -0.00052200
Cu      11.25892000       8.76092000      13.60290000  T       0.00000700      -0.00089000      -0.00008300
Cu       1.25097000      11.25767000      13.59434000  T      -0.00011200       0.00081400       0.00018200
Cu       3.74709000      11.26711000      13.57421000  T      -0.00013100      -0.00047400       0.00052600
Cu       6.26059000      11.25844000      13.57164000  T      -0.00062500      -0.00377700      -0.00063400
Cu       8.75806000      11.25668000      13.57638000  T       0.00005200      -0.00409900      -0.00086300
Cu      11.27383000      11.26667000      13.57352000  T      -0.00024200      -0.00050300       0.00014900
Cu       0.00169000       0.00575000      15.36479000  T      -0.00083700       0.00143900      -0.00004300
Cu       2.51134000       0.00227000      15.36305000  T      -0.00010800       0.00071800      -0.00028500
Cu       5.00619000       0.00393000      15.35125000  T       0.00065000      -0.00254800      -0.00018000
Cu       7.50971000      12.42057000      15.38677000  T      -0.00055200      -0.00969000      -0.00283100
Cu      10.02304000      -0.00501000      15.34767000  T      -0.00179800      -0.00299900      -0.00002000
Cu       0.04570000       2.50314000      15.33966000  T       0.00007600       0.00103300      -0.00042900
Cu       2.49051000       2.50109000      15.34102000  T      -0.00037400       0.00050100      -0.00029000
Cu       4.94415000       2.44649000      15.39708000  T      -0.00003200      -0.00383100       0.00013800
Cu       7.51243000       2.35852000      15.59345000  T       0.00018800      -0.01412700       0.01163200
Cu      10.11137000       2.45432000      15.38839000  T      -0.00011000      -0.00436000       0.00049300
Cu      12.49420000       5.00629000      15.32436000  T       0.00042800       0.00049200      -0.00012800
Cu       2.40290000       5.00000000      15.34515000  T       0.00061700       0.00043300      -0.00019200
Pd       4.90767000       5.08653000      15.49325000  T       0.00352000      -0.00694600      -0.00099800
Y        7.51382000       4.89619000      17.29749000  T       0.00041500      -0.00226000       0.00061200
Cu      10.00784000       5.10394000      15.40218000  T      -0.00060800      -0.00547700      -0.00016200
Cu       0.05269000       7.50696000      15.35886000  T       0.00029800       0.00079000       0.00024200
Cu       2.53415000       7.49396000      15.35902000  T       0.00013700       0.00057700      -0.00005000
Cu       5.01802000       7.64407000      15.50100000  T       0.00112200      -0.00366300       0.00044900
Cu       7.54856000       7.43885000      15.50138000  T       0.00018200      -0.00830900       0.00013200
Cu      10.08875000       7.59773000      15.47470000  T      -0.00198300      -0.00555100       0.00100500
Cu      12.51136000      10.00565000      15.37000000  T       0.00024000       0.00116300       0.00065200
Cu       2.50999000      10.00024000      15.37049000  T       0.00026600       0.00072800       0.00003800
Cu       5.01200000      10.08067000      15.36640000  T       0.00065000      -0.00211900      -0.00040200
Cu       7.50681000       9.97011000      15.35380000  T      -0.00020800      -0.00802000      -0.00026900
Cu      10.01054000      10.05666000      15.35920000  T      -0.00056900      -0.00346600       0.00013600
O        6.02599000       3.56214000      16.47779000  T       0.00274300      -0.00550100       0.00329200
O        6.12383000       6.57609000      16.67062000  T       0.00022600      -0.00236200       0.00063200
O        8.99335000       6.47729000      16.57791000  T       0.00045400      -0.00411800      -0.00047000
O        8.96398000       3.68736000      16.25800000  T      -0.00289400      -0.00482400       0.00006000
C        7.61097000       2.56766000      18.49502000  T       0.00350100       0.00846400       0.01565500
O        7.55483000       2.23041000      19.81386000  T       0.00850300       0.01503700       0.02018700
O        7.64254000       1.58594000      17.70154000  T       0.00199700       0.00593600       0.02520400
H        7.53807000       1.23903000      19.85727000  T       0.01084500       0.02058800       0.02635100
108
Lattice="12.515153631 0.0 0.0 0.0 12.515153631 0.0 0.0 0.0 25.30973" Properties=species:S:1:pos:R:3:move_mask:L:1:forces:R:3 stress="0.007710335951495617 -2.89293947984689e-05 -4.611226942202551e-05 -2.89293947984689e-05 0.0076252766651280805 -6.202187618390194e-05 -4.611226942202551e-05 -6.202187618390194e-05 0.0017311137636093512" free_energy=-444.05592222 energy=-444.05208948 pbc="T T T"
Cu       1.25152000       1.25152000      10.00000000  F       0.00162200      -0.01925100      -0.08299300
Cu       3.75455000       1.25152000      10.00000000  F       0.00687700       0.00271000      -0.07110700
Cu       6.25758000       1.25152000      10.00000000  F      -0.01406500       0.01448900      -0.05365400
Cu       8.76061000       1.25152000      10.00000000  F       0.01338800       0.00856700      -0.04634600
Cu      11.26364000       1.25152000      10.00000000  F      -0.00788600       0.00022500      -0.07144000
Cu       1.25152000       3.75455000      10.00000000  F      -0.00014800       0.00399200      -0.06624300
Cu       3.75455000       3.75455000      10.00000000  F       0.01293000      -0.01463500      -0.05636000
Cu       6.25758000       3.75455000      10.00000000  F      -0.01692400      -0.01407100      -0.08784300
Cu       8.76061000       3.75455000      10.00000000  F       0.01855800      -0.01304100      -0.09144100
Cu      11.26364000       3.75455000      10.00000000  F      -0.01260500       0.00063100      -0.05732500
Cu       1.25152000       6.25758000      10.00000000  F      -0.00435400      -0.00102200      -0.07716700
Cu       3.75455000       6.25758000      10.00000000  F       0.01378200       0.02038000      -0.06362200
Cu       6.25758000       6.25758000      10.00000000  F      -0.01793800       0.01819200      -0.08327300
Cu       8.76061000       6.25758000      10.00000000  F       0.01924100       0.01817000      -0.08105200
Cu      11.26364000       6.25758000      10.00000000  F      -0.00875300       0.00543200      -0.06668700
Cu       1.25152000       8.76061000      10.00000000  F      -0.00184200       0.00743400      -0.07529700
Cu       3.75455000       8.76061000      10.00000000  F       0.00398600      -0.01371300      -0.07167200
Cu       6.25758000       8.76061000      10.00000000  F      -0.01056700      -0.01992100      -0.05971300
Cu       8.76061000       8.76061000      10.00000000  F       0.01307800      -0.01467000      -0.05379300
Cu      11.26364000       8.76061000      10.00000000  F      -0.00627100      -0.01284800      -0.07444800
Cu       1.25152000      11.26364000      10.00000000  F      -0.00397400       0.00778700      -0.01949900
Cu       3.75455000      11.26364000      10.00000000  F      -0.00930600       0.00403900      -0.07027200
Cu       6.25758000      11.26364000      10.00000000  F       0.00029500       0.00391800      -0.06995100
Cu       8.76061000      11.26364000      10.00000000  F      -0.00326500      -0.00006400      -0.06891600
Cu      11.26364000      11.26364000      10.00000000  F       0.01478700       0.00283900      -0.06677800
Cu       0.00000000       0.00000000      11.76991000  F      -0.01978200       0.02546300       0.03808400
Cu       2.50303000       0.00000000      11.76991000  F       0.03778000       0.00182800       0.02913100
Cu       5.00606000       0.00000000      11.76991000  F       0.06452500       0.06319700       0.06874300
Cu       7.50909000       0.00000000      11.76991000  F       0.01371700       0.05372900       0.05638800
Cu      10.01212000       0.00000000      11.76991000  F      -0.06089100       0.06166100       0.08742800
Cu       0.00000000       2.50303000      11.76991000  F      -0.09074400       0.02684100       0.02593100
Cu       2.50303000       2.50303000      11.76991000  F       0.06641300       0.02585400       0.01414000
Cu       5.00606000       2.50303000      11.76991000  F       0.02511000      -0.03365600       0.09015300
Cu       7.50909000       2.50303000      11.76991000  F      -0.01726000      -0.02088400       0.16306700
Cu      10.01212000       2.50303000      11.76991000  F      -0.02178500      -0.03015200       0.09563500
Cu       0.00000000       5.00606000      11.76991000  F      -0.08866700       0.03663400       0.01539900
Cu       2.50303000       5.00606000      11.76991000  F       0.06029800       0.01926100       0.02641700
Cu       5.00606000       5.00606000      11.76991000  F      -0.00131700      -0.01077900       0.11633500
Cu       7.50909000       5.00606000      11.76991000  F      -0.04793200      -0.05956800       0.15030800
Cu      10.01212000       5.00606000      11.76991000  F      -0.02091500      -0.01828500       0.08644700
Cu       0.00000000       7.50909000      11.76991000  F      -0.05694000       0.00024100       0.05430900
Cu       2.50303000       7.50909000      11.76991000  F       0.04814900       0.04005000       0.01201200
Cu       5.00606000       7.50909000      11.76991000  F       0.00007700       0.06183300       0.03242200
Cu       7.50909000       7.50909000      11.76991000  F      -0.03566600       0.03940700       0.06315000
Cu      10.01212000       7.50909000      11.76991000  F       0.06134700       0.07951800       0.00471400
Cu       0.00000000      10.01212000      11.76991000  F      -0.01818300      -0.04996800       0.07241200
Cu       2.50303000      10.01212000      11.76991000  F       0.04846000      -0.04235500       0.08030900
Cu       5.00606000      10.01212000      11.76991000  F       0.06322000      -0.08436300       0.07884500
Cu       7.50909000      10.01212000      11.76991000  F       0.01879700      -0.09638500       0.07829600
Cu      10.01212000      10.01212000      11.76991000  F      -0.05087300      -0.08607900       0.09121900
Cu       1.25856000       1.23692000      13.56808000  T      -0.00004500       0.00064200      -0.00050900
Cu       3.77048000       1.25865000      13.58325000  T      -0.00040200      -0.00028500      -0.00104500
Cu       6.28837000       1.26117000      13.61956000  T       0.00099200      -0.00074300       0.00044000
Cu       8.74441000       1.26042000      13.61960000  T       0.00021500      -0.00177800       0.00008800
Cu      11.26161000       1.26208000      13.58380000  T       0.00014600      -0.00135000      -0.00073200
Cu       1.23840000       3.75035000      13.55541000  T      -0.00018700       0.00036300      -0.00137200
Cu       3.75452000       3.76640000      13.58761000  T      -0.00041400      -0.00102700      -0.00124500
Cu       6.27076000       3.75232000      13.59074000  T      -0.00035900      -0.00044200      -0.00122400
Cu       8.72371000       3.75296000      13.58877000  T      -0.00018400      -0.00160700      -0.00047600
Cu      11.22914000       3.77879000      13.58925000  T      -0.00047400      -0.00187000      -0.00084500
Cu       1.24489000       6.26304000      13.56380000  T       0.00038400       0.00092700      -0.00094600
Cu       3.75653000       6.28994000      13.57924000  T       0.00063500      -0.00052900       0.00105400
Cu       6.26958000       6.24580000      13.57146000  T      -0.00022200      -0.00156500       0.00073900
Cu       8.74257000       6.25112000      13.54684000  T      -0.00097000      -0.00223500      -0.00104400
Cu      11.23783000       6.27892000      13.59657000  T       0.00009400      -0.00058300      -0.00156200
Cu       1.26517000       8.76514000      13.58030000  T       0.00033800       0.00141300      -0.00058700
Cu       3.78861000       8.76354000      13.60918000  T      -0.00026400       0.00007300      -0.00029800
Cu       6.28118000       8.72087000      13.61512000  T      -0.00034700      -0.00211800      -0.00016400
Cu       8.76178000       8.72009000      13.61699000  T       0.00045700      -0.00244900      -0.00078100
Cu      11.25890000       8.75984000      13.60351000  T       0.00046000      -0.00041000      -0.00091600
Cu       1.25083000      11.25817000      13.59474000  T      -0.00050300       0.00132400      -0.00059200
Cu       3.74696000      11.26634000      13.57485000  T      -0.00064300       0.00053700      -0.00003900
Cu       6.25988000      11.25378000      13.57072000  T      -0.00047900      -0.00198800      -0.00044400
Cu       8.75831000      11.25170000      13.57551000  T       0.00081400      -0.00311100      -0.00091600
Cu      11.27360000      11.26589000      13.57404000  T       0.00015000      -0.00039600      -0.00061200
Cu       0.00044000       0.00700000      15.36512000  T      -0.00055600       0.00158100      -0.00086900
Cu       2.51100000       0.00276000      15.36348000  T       0.00051200       0.00115700      -0.00094200
Cu       5.00685000       0.00074000      15.35174000  T       0.00129000      -0.00161200      -0.00023800
Cu       7.50908000      12.40728000      15.38421000  T      -0.00030700      -0.00349100      -0.00102300
Cu      10.02116000      -0.00885000      15.34825000  T      -0.00206000      -0.00320100      -0.00066600
Cu       0.04560000       2.50406000      15.33991000  T       0.00006800       0.00130000      -0.00131900
Cu       2.49027000       2.50152000      15.34132000  T       0.00073600       0.00122100      -0.00110900
Cu       4.94397000       2.44259000      15.39802000  T       0.00326700      -0.00070400       0.00255600
Cu       7.51245000       2.33942000      15.60925000  T      -0.00242200      -0.00352500       0.01034400
Cu      10.11144000       2.44897000      15.38938000  T      -0.00202900      -0.00267000       0.00201300
Cu      12.49521000       5.00730000      15.32541000  T      -0.00087500       0.00030200      -0.00117500
Cu       2.40431000       5.00054000      15.34558000  T       0.00023600       0.00056900      -0.00064500
Pd       4.90983000       5.08251000      15.49331000  T       0.01056900      -0.02330800       0.00001900
Y        7.51338000       4.89114000      17.29824000  T       0.00249200      -0.00477800       0.00559500
Cu      10.00742000       5.09689000      15.40322000  T      -0.00078000      -0.00625900      -0.00204100
Cu       0.05258000       7.50818000      15.35977000  T       0.00065500       0.00083200      -0.00064100
Cu       2.53375000       7.49467000      15.35992000  T       0.00145400       0.00060800      -0.00080900
Cu       5.01860000       7.64061000      15.50130000  T       0.00057800      -0.00281100      -0.00042500
Cu       7.54883000       7.42877000      15.50004000  T      -0.00037100      -0.00418300       0.00038000
Cu      10.08820000       7.59261000      15.47487000  T      -0.00202300      -0.00497400       0.00024400
Cu      12.51135000      10.00686000      15.37049000  T       0.00041700       0.00123900       0.00058500
Cu       2.51006000      10.00077000      15.37129000  T       0.00059200       0.00100100      -0.00062300
Cu       5.01263000      10.07744000      15.36692000  T       0.00091200      -0.00178600      -0.00084600
Cu       7.50688000       9.95889000      15.35403000  T      -0.00007400      -0.00503400       0.00112900
Cu      10.01013000      10.05261000      15.35966000  T      -0.00064100      -0.00436900      -0.00070600
O        6.02706000       3.55426000      16.47970000  T      -0.00054100       0.00496000       0.00143700
O        6.12310000       6.57034000      16.67081000  T       0.00205600       0.00414200       0.00061100
O        8.99541000       6.46810000      16.57727000  T      -0.00547800       0.00875000       0.00132900
O        8.96095000       3.67851000      16.25772000  T       0.00073900       0.00699900       0.00008400
C        7.61488000       2.57620000      18.51679000  T       0.00117300       0.00610000       0.01269900
O        7.56635000       2.24979000      19.83937000  T       0.00191300       0.01498800       0.00969300
O        7.64430000       1.58883000      17.73078000  T      -0.00142000       0.01802600       0.01224900
H        7.55158000       1.25878000      19.89119000  T       0.01314400       0.01952300       0.02273700
108
Lattice="12.515153631 0.0 0.0 0.0 12.515153631 0.0 0.0 0.0 25.30973" Properties=species:S:1:pos:R:3:move_mask:L:1:forces:R:3 stress="0.007762084303658316 -3.0408632461303237e-05 -4.5881333584367835e-05 -3.0408632461303237e-05 0.007663381078341598 -0.00010166794215151239 -4.5881333584367835e-05 -0.00010166794215151239 0.0017961378056828028" free_energy=-444.05641947 energy=-444.05257069 pbc="T T T"
Cu       1.25152000       1.25152000      10.00000000  F       0.00170400      -0.01962600      -0.08340200
Cu       3.75455000       1.25152000      10.00000000  F       0.00711000       0.00233300      -0.07088400
Cu       6.25758000       1.25152000      10.00000000  F      -0.01377100       0.01417900      -0.05329800
Cu       8.76061000       1.25152000      10.00000000  F       0.01296300       0.00835600      -0.04623200
Cu      11.26364000       1.25152000      10.00000000  F      -0.00813100      -0.00008600      -0.07154700
Cu       1.25152000       3.75455000      10.00000000  F      -0.00006900       0.00378300      -0.06683400
Cu       3.75455000       3.75455000      10.00000000  F       0.01318500      -0.01485700      -0.05640300
Cu       6.25758000       3.75455000      10.00000000  F      -0.01669700      -0.01434400      -0.08799400
Cu       8.76061000       3.75455000      10.00000000  F       0.01829700      -0.01332900      -0.09184400
Cu      11.26364000       3.75455000      10.00000000  F      -0.01295300       0.00042700      -0.05760200
Cu       1.25152000       6.25758000      10.00000000  F      -0.00425900      -0.00093200      -0.07769900
Cu       3.75455000       6.25758000      10.00000000  F       0.01410100       0.02051400      -0.06377100
Cu       6.25758000       6.25758000      10.00000000  F      -0.01790800       0.01834900      -0.08284000
Cu       8.76061000       6.25758000      10.00000000  F       0.01905900       0.01829900      -0.08076200
Cu      11.26364000       6.25758000      10.00000000  F      -0.00909600       0.00549900      -0.06701600
Cu       1.25152000       8.76061000      10.00000000  F      -0.00175600       0.00781500      -0.07510800
Cu       3.75455000       8.76061000      10.00000000  F       0.00430900      -0.01338200      -0.07162200
Cu       6.25758000       8.76061000      10.00000000  F      -0.01060300      -0.01958700      -0.05946300
Cu       8.76061000       8.76061000      10.00000000  F       0.01290300      -0.01437200      -0.05364700
Cu      11.26364000       8.76061000      10.00000000  F      -0.00655100      -0.01251600      -0.07467900
Cu       1.25152000      11.26364000      10.00000000  F      -0.00391700       0.00782300      -0.01964200
Cu       3.75455000      11.26364000      10.00000000  F      -0.00905400       0.00404700      -0.06987000
Cu       6.25758000      11.26364000      10.00000000  F       0.00036600       0.00394300      -0.06929000
Cu       8.76061000      11.26364000      10.00000000  F      -0.00357200      -0.00002600      -0.06846400
Cu      11.26364000      11.26364000      10.00000000  F       0.01460000       0.00286200      -0.06674400
Cu       0.00000000       0.00000000      11.76991000  F      -0.01995900       0.02469400       0.03883600
Cu       2.50303000       0.00000000      11.76991000  F       0.03816800       0.00125000       0.03013100
Cu       5.00606000       0.00000000      11.76991000  F       0.06491800       0.06156500       0.07018800
Cu       7.50909000       0.00000000      11.76991000  F       0.01317200       0.05084900       0.05819700
Cu      10.01212000       0.00000000      11.76991000  F      -0.06197900       0.05980200       0.08872600
Cu       0.00000000       2.50303000      11.76991000  F      -0.09123100       0.02683100       0.02726600
Cu       2.50303000       2.50303000      11.76991000  F       0.06694100       0.02525000       0.01495700
Cu       5.00606000       2.50303000      11.76991000  F       0.02656200      -0.03626800       0.09178700
Cu       7.50909000       2.50303000      11.76991000  F      -0.01745600      -0.02392300       0.16645400
Cu      10.01212000       2.50303000      11.76991000  F      -0.02365400      -0.03215100       0.09809200
Cu       0.00000000       5.00606000      11.76991000  F      -0.08920000       0.03638100       0.01686600
Cu       2.50303000       5.00606000      11.76991000  F       0.06148800       0.01955300       0.02782300
Cu       5.00606000       5.00606000      11.76991000  F      -0.00142900      -0.01261300       0.11675000
Cu       7.50909000       5.00606000      11.76991000  F      -0.04745000      -0.06481600       0.15122900
Cu      10.01212000       5.00606000      11.76991000  F      -0.02055600      -0.02108800       0.08723900
Cu       0.00000000       7.50909000      11.76991000  F      -0.05699300       0.00036400       0.05549300
Cu       2.50303000       7.50909000      11.76991000  F       0.04883100       0.03999700       0.01348500
Cu       5.00606000       7.50909000      11.76991000  F      -0.00079000       0.06018300       0.03214800
Cu       7.50909000       7.50909000      11.76991000  F      -0.03505000       0.03644800       0.06232400
Cu      10.01212000       7.50909000      11.76991000  F       0.06197900       0.07719900       0.00496700
Cu       0.00000000      10.01212000      11.76991000  F      -0.01853300      -0.05008300       0.07356100
Cu       2.50303000      10.01212000      11.76991000  F       0.04895900      -0.04200000       0.08113500
Cu       5.00606000      10.01212000      11.76991000  F       0.06153900      -0.08652200       0.07745900
Cu       7.50909000      10.01212000      11.76991000  F       0.01847800      -0.10049100       0.07636200
Cu      10.01212000      10.01212000      11.76991000  F      -0.04996200      -0.08872700       0.09028100
Cu       1.25846000       1.23719000      13.56819000  T       0.00019700      -0.00011800      -0.00058800
Cu       3.77053000       1.25825000      13.58340000  T       0.00005600      -0.00062500      -0.00125300
Cu       6.28866000       1.25966000      13.62030000  T       0.00122600       0.00005100       0.00014100
Cu       8.74382000       1.25869000      13.62027000  T       0.00024200      -0.00091700      -0.00028300
Cu      11.26135000       1.26161000      13.58379000  T      -0.00003500      -0.00177700      -0.00075300
Cu       1.23851000       3.75072000      13.55558000  T      -0.00032900      -0.00029100      -0.00185000
Cu       3.75472000       3.76593000      13.58774000  T      -0.00035700      -0.00130400      -0.00181000
Cu       6.27093000       3.75062000      13.59135000  T      -0.00035100       0.00059500      -0.00254000
Cu       8.72346000       3.75105000      13.58965000  T      -0.00043700      -0.00076000      -0.00167300
Cu      11.22909000       3.77834000      13.58970000  T      -0.00102800      -0.00239600      -0.00155000
Cu       1.24503000       6.26335000      13.56405000  T       0.00045100       0.00124600      -0.00137900
Cu       3.75682000       6.28956000      13.57977000  T       0.00111400      -0.00012900       0.00094000
Cu       6.26967000       6.24416000      13.57107000  T      -0.00029800       0.00001100       0.00121100
Cu       8.74297000       6.24915000      13.54675000  T      -0.00183800      -0.00062200      -0.00125500
Cu      11.23795000       6.27826000      13.59701000  T      -0.00053100       0.00006400      -0.00226800
Cu       1.26514000       8.76539000      13.58051000  T       0.00061700       0.00213300      -0.00084700
Cu       3.78845000       8.76318000      13.60939000  T       0.00030800       0.00109200      -0.00069600
Cu       6.28087000       8.71889000      13.61480000  T       0.00004200      -0.00021700       0.00019400
Cu       8.76191000       8.71783000      13.61688000  T      -0.00002500      -0.00040300      -0.00068000
Cu      11.25891000       8.75930000      13.60378000  T       0.00022200       0.00042400      -0.00125800
Cu       1.25077000      11.25842000      13.59492000  T      -0.00046100       0.00135600      -0.00081300
Cu       3.74689000      11.26599000      13.57515000  T      -0.00028800       0.00091000      -0.00039200
Cu       6.25953000      11.25155000      13.57027000  T      -0.00005200      -0.00038100      -0.00018900
Cu       8.75844000      11.24930000      13.57507000  T       0.00045100      -0.00173900      -0.00048900
Cu      11.27350000      11.26551000      13.57427000  T      -0.00010000      -0.00036800      -0.00080500
Cu      -0.00014000       0.00761000      15.36527000  T      -0.00019800       0.00102100      -0.00139200
Cu       2.51086000       0.00301000      15.36368000  T       0.00098200       0.00092700      -0.00165100
Cu       5.00718000      -0.00077000      15.35198000  T       0.00161300      -0.00082600      -0.00091800
Cu       7.50876000      12.40101000      15.38303000  T      -0.00014900       0.00292100       0.00042700
Cu      10.02023000      -0.01071000      15.34854000  T      -0.00205200      -0.00276100      -0.00126600
Cu       0.04555000       2.50452000      15.34001000  T       0.00000300       0.00077000      -0.00159700
Cu       2.49018000       2.50175000      15.34144000  T       0.00128700       0.00085200      -0.00142800
Cu       4.94396000       2.44077000      15.39854000  T       0.00357500      -0.00102200       0.00197200
Cu       7.51238000       2.33039000      15.61690000  T      -0.00368000       0.00099200       0.00791000
Cu      10.11143000       2.44642000      15.38990000  T      -0.00221900      -0.00256000       0.00160800
Cu      12.49567000       5.00777000      15.32589000  T      -0.00178900      -0.00010600      -0.00174400
Cu       2.40498000       5.00079000      15.34577000  T      -0.00031100       0.00052200      -0.00064800
Pd       4.91089000       5.08041000      15.49335000  T       0.00953600      -0.02227900       0.00004500
Y        7.51322000       4.88881000      17.29864000  T       0.00184100      -0.01673100       0.00955200
Cu      10.00722000       5.09345000      15.40369000  T      -0.00074200      -0.00500100      -0.00316500
Cu       0.05254000       7.50874000      15.36019000  T       0.00074600       0.00078900      -0.00123200
Cu       2.53359000       7.49500000      15.36033000  T       0.00205500       0.00083300      -0.00151500
Cu       5.01886000       7.63894000      15.50141000  T       0.00098500      -0.00238500      -0.00052000
Cu       7.54893000       7.42395000      15.49937000  T      -0.00124200       0.00036800       0.00105200
Cu      10.08795000       7.59012000      15.47494000  T      -0.00229100      -0.00345800      -0.00004800
Cu      12.51136000      10.00744000      15.37074000  T       0.00031300       0.00111000       0.00006900
Cu       2.51011000      10.00103000      15.37167000  T       0.00091900       0.00118100      -0.00163200
Cu       5.01293000      10.07588000      15.36716000  T       0.00120700      -0.00071500      -0.00192200
Cu       7.50691000       9.95354000      15.35418000  T      -0.00010400       0.00016400       0.00070200
Cu      10.00994000      10.05062000      15.35988000  T      -0.00094100      -0.00342600      -0.00148500
O        6.02753000       3.55055000      16.48060000  T       0.00148900       0.00551500       0.00300200
O        6.12275000       6.56757000      16.67092000  T       0.00327200       0.00528100       0.00205400
O        8.99634000       6.46376000      16.57700000  T      -0.00690000       0.01070200       0.00305400
O        8.95948000       3.67433000      16.25756000  T      -0.00160100       0.00807800      -0.00023800
C        7.61674000       2.58029000      18.52732000  T       0.00140100       0.01308700       0.00678000
O        7.57192000       2.25939000      19.85166000  T       0.00367200       0.01118300       0.00580500
O        7.64513000       1.59044000      17.74497000  T       0.00011100       0.01604600       0.01191900
H        7.55823000       1.26850000      19.90771000  T       0.01336000       0.02623200       0.02223300
108
Lattice="12.515153631 0.0 0.0 0.0 12.515153631 0.0 0.0 0.0 25.30973" Properties=species:S:1:pos:R:3:move_mask:L:1:forces:R:3 stress="0.007770603963615147 -3.052097962556913e-05 -4.493886570635946e-05 -3.052097962556913e-05 0.007669953387451153 -0.00010407716467410335 -4.493886570635946e-05 -0.00010407716467410335 0.001801218394111272" free_energy=-444.05675785 energy=-444.05290597 pbc="T T T"
Cu       1.25152000       1.25152000      10.00000000  F       0.00147500      -0.01928300      -0.08349900
Cu       3.75455000       1.25152000      10.00000000  F       0.00661600       0.00266000      -0.07114200
Cu       6.25758000       1.25152000      10.00000000  F      -0.01389100       0.01456200      -0.05362400
Cu       8.76061000       1.25152000      10.00000000  F       0.01334400       0.00877400      -0.04642100
Cu      11.26364000       1.25152000      10.00000000  F      -0.00777300       0.00031100      -0.07154800
Cu       1.25152000       3.75455000      10.00000000  F      -0.00034700       0.00427000      -0.06653000
Cu       3.75455000       3.75455000      10.00000000  F       0.01265700      -0.01444500      -0.05642200
Cu       6.25758000       3.75455000      10.00000000  F      -0.01678300      -0.01399800      -0.08817800
Cu       8.76061000       3.75455000      10.00000000  F       0.01872500      -0.01294400      -0.09183900
Cu      11.26364000       3.75455000      10.00000000  F      -0.01259600       0.00090000      -0.05728100
Cu       1.25152000       6.25758000      10.00000000  F      -0.00456700      -0.00060800      -0.07725400
Cu       3.75455000       6.25758000      10.00000000  F       0.01346500       0.02078500      -0.06372900
Cu       6.25758000       6.25758000      10.00000000  F      -0.01806200       0.01853900      -0.08307400
Cu       8.76061000       6.25758000      10.00000000  F       0.01956700       0.01847300      -0.08076800
Cu      11.26364000       6.25758000      10.00000000  F      -0.00862700       0.00576800      -0.06661500
Cu       1.25152000       8.76061000      10.00000000  F      -0.00203300       0.00782000      -0.07494700
Cu       3.75455000       8.76061000      10.00000000  F       0.00367100      -0.01330800      -0.07181700
Cu       6.25758000       8.76061000      10.00000000  F      -0.01081300      -0.01948100      -0.05992100
Cu       8.76061000       8.76061000      10.00000000  F       0.01341000      -0.01429700      -0.05392600
Cu      11.26364000       8.76061000      10.00000000  F      -0.00604600      -0.01250900      -0.07455100
Cu       1.25152000      11.26364000      10.00000000  F      -0.00412500       0.00789400      -0.01970700
Cu       3.75455000      11.26364000      10.00000000  F      -0.00961700       0.00419500      -0.07019800
Cu       6.25758000      11.26364000      10.00000000  F       0.00018400       0.00418000      -0.06982800
Cu       8.76061000      11.26364000      10.00000000  F      -0.00314600       0.00018700      -0.06887500
Cu      11.26364000      11.26364000      10.00000000  F       0.01503200       0.00296700      -0.06685700
Cu       0.00000000       0.00000000      11.76991000  F      -0.01986500       0.02496900       0.03869900
Cu       2.50303000       0.00000000      11.76991000  F       0.03757700       0.00158300       0.02996400
Cu       5.00606000       0.00000000      11.76991000  F       0.06453300       0.06205300       0.07011400
Cu       7.50909000       0.00000000      11.76991000  F       0.01340200       0.05128800       0.05821300
Cu      10.01212000       0.00000000      11.76991000  F      -0.06145900       0.06024400       0.08868900
Cu       0.00000000       2.50303000      11.76991000  F      -0.09121100       0.02748300       0.02725000
Cu       2.50303000       2.50303000      11.76991000  F       0.06638100       0.02585500       0.01492500
Cu       5.00606000       2.50303000      11.76991000  F       0.02622500      -0.03583100       0.09175500
Cu       7.50909000       2.50303000      11.76991000  F      -0.01721800      -0.02340500       0.16653500
Cu      10.01212000       2.50303000      11.76991000  F      -0.02317800      -0.03161700       0.09810400
Cu       0.00000000       5.00606000      11.76991000  F      -0.08920400       0.03679400       0.01680400
Cu       2.50303000       5.00606000      11.76991000  F       0.06091300       0.01995700       0.02776100
Cu       5.00606000       5.00606000      11.76991000  F      -0.00201600      -0.01238400       0.11662000
Cu       7.50909000       5.00606000      11.76991000  F      -0.04714700      -0.06479400       0.15103100
Cu      10.01212000       5.00606000      11.76991000  F      -0.01985000      -0.02089300       0.08711300
Cu       0.00000000       7.50909000      11.76991000  F      -0.05683900       0.00028900       0.05521500
Cu       2.50303000       7.50909000      11.76991000  F       0.04812400       0.03989900       0.01324800
Cu       5.00606000       7.50909000      11.76991000  F      -0.00146900       0.05999700       0.03184800
Cu       7.50909000       7.50909000      11.76991000  F      -0.03473000       0.03621400       0.06202900
Cu      10.01212000       7.50909000      11.76991000  F       0.06279400       0.07701000       0.00472800
Cu       0.00000000      10.01212000      11.76991000  F      -0.01842400      -0.05016000       0.07331200
Cu       2.50303000      10.01212000      11.76991000  F       0.04831700      -0.04201000       0.08084300
Cu       5.00606000      10.01212000      11.76991000  F       0.06088100      -0.08649300       0.07705400
Cu       7.50909000      10.01212000      11.76991000  F       0.01873000      -0.10048400       0.07602900
Cu      10.01212000      10.01212000      11.76991000  F      -0.04915600      -0.08884900       0.08996600
Cu       1.25846000       1.23720000      13.56818000  T      -0.00015200       0.00067100      -0.00056400
Cu       3.77053000       1.25822000      13.58339000  T      -0.00024700      -0.00006000      -0.00108800
Cu       6.28869000       1.25959000      13.62034000  T       0.00132400       0.00034500       0.00063400
Cu       8.74380000       1.25860000      13.62030000  T       0.00024700      -0.00065700       0.00034200
Cu      11.26134000       1.26156000      13.58377000  T       0.00010800      -0.00125400      -0.00069500
Cu       1.23851000       3.75074000      13.55556000  T      -0.00058900       0.00049200      -0.00166100
Cu       3.75472000       3.76588000      13.58772000  T      -0.00087400      -0.00112800      -0.00170200
Cu       6.27093000       3.75054000      13.59134000  T      -0.00002700      -0.00043800      -0.00217400
Cu       8.72345000       3.75095000      13.58967000  T      -0.00025300      -0.00166300      -0.00100600
Cu      11.22907000       3.77828000      13.58970000  T      -0.00057800      -0.00204200      -0.00132200
Cu       1.24504000       6.26338000      13.56405000  T       0.00010600       0.00124700      -0.00138100
Cu       3.75684000       6.28954000      13.57981000  T       0.00080400      -0.00067500       0.00147600
Cu       6.26967000       6.24408000      13.57107000  T      -0.00053200      -0.00082200       0.00102600
Cu       8.74297000       6.24904000      13.54673000  T      -0.00071200      -0.00151600      -0.00113000
Cu      11.23795000       6.27823000      13.59700000  T      -0.00012100      -0.00018500      -0.00187500
Cu       1.26514000       8.76543000      13.58051000  T       0.00013000       0.00196100      -0.00108400
Cu       3.78845000       8.76317000      13.60939000  T      -0.00039400       0.00069600      -0.00088600
Cu       6.28085000       8.71879000      13.61479000  T      -0.00009100      -0.00103800      -0.00006200
Cu       8.76192000       8.71771000      13.61686000  T       0.00058100      -0.00141600      -0.00069200
Cu      11.25891000       8.75928000      13.60378000  T       0.00063400      -0.00007600      -0.00116300
Cu       1.25076000      11.25845000      13.59492000  T      -0.00077700       0.00160700      -0.00090200
Cu       3.74687000      11.26598000      13.57516000  T      -0.00087100       0.00108500      -0.00047900
Cu       6.25951000      11.25143000      13.57025000  T      -0.00013100      -0.00071500      -0.00036900
Cu       8.75846000      11.24916000      13.57505000  T       0.00085500      -0.00212600      -0.00052200
Cu      11.27350000      11.26548000      13.57427000  T       0.00022700      -0.00030600      -0.00069000
Cu      -0.00017000       0.00765000      15.36526000  T      -0.00061900       0.00182500      -0.00117100
Cu       2.51086000       0.00303000      15.36366000  T       0.00041900       0.00156200      -0.00122300
Cu       5.00722000      -0.00086000      15.35198000  T       0.00135500      -0.00116300      -0.00064700
Cu       7.50875000      12.40075000      15.38298000  T      -0.00005900      -0.00039200      -0.00029000
Cu      10.02016000      -0.01084000      15.34853000  T      -0.00193400      -0.00342500      -0.00114200
Cu       0.04555000       2.50455000      15.33998000  T      -0.00005900       0.00143500      -0.00174400
Cu       2.49019000       2.50178000      15.34142000  T       0.00084100       0.00140900      -0.00144000
Cu       4.94401000       2.44066000      15.39859000  T       0.00283100      -0.00205400       0.00108000
Cu       7.51233000       2.32996000      15.61738000  T      -0.00298400      -0.00289900       0.01051700
Cu      10.11140000       2.44626000      15.38995000  T      -0.00181100      -0.00312000       0.00097200
Cu      12.49566000       5.00779000      15.32588000  T      -0.00147800       0.00043500      -0.00191300
Cu       2.40500000       5.00081000      15.34577000  T       0.00008200       0.00090200      -0.00093500
Pd       4.91107000       5.08001000      15.49335000  T       0.01264000      -0.02783100      -0.00053000
Y        7.51324000       4.88843000      17.29881000  T       0.00182900      -0.02395200       0.01418800
Cu      10.00720000       5.09322000      15.40367000  T      -0.00111300      -0.00635900      -0.00277200
Cu       0.05255000       7.50878000      15.36019000  T       0.00041500       0.00104900      -0.00123000
Cu       2.53361000       7.49502000      15.36032000  T       0.00127900       0.00102600      -0.00127600
Cu       5.01889000       7.63883000      15.50141000  T       0.00093000      -0.00406000       0.00014100
Cu       7.54892000       7.42372000      15.49935000  T      -0.00068200      -0.00189200       0.00244400
Cu      10.08790000       7.58995000      15.47494000  T      -0.00216500      -0.00484600       0.00039500
Cu      12.51137000      10.00748000      15.37075000  T       0.00026100       0.00163000       0.00021600
Cu       2.51012000      10.00105000      15.37166000  T       0.00038500       0.00155500      -0.00107700
Cu       5.01296000      10.07579000      15.36714000  T       0.00089700      -0.00139200      -0.00127700
Cu       7.50691000       9.95328000      15.35420000  T       0.00024500      -0.00242900       0.00102800
Cu      10.00992000      10.05047000      15.35987000  T      -0.00040700      -0.00432700      -0.00112900
O        6.02758000       3.55042000      16.48070000  T      -0.00010400       0.00872000       0.00204700
O        6.12277000       6.56749000      16.67096000  T       0.00486500       0.00780600       0.00192900
O        8.99631000       6.46366000      16.57702000  T      -0.00836300       0.01575700       0.00289000
O        8.95938000       3.67421000      16.25754000  T       0.00203000       0.01300300      -0.00085500
C        7.61686000       2.58067000      18.52796000  T       0.00181600       0.01826200       0.01017500
O        7.57227000       2.26013000      19.85239000  T       0.00082500       0.00821900       0.00363100
O        7.64517000       1.59075000      17.74590000  T       0.00013700       0.01993100       0.00507200
H        7.55874000       1.26931000      19.90884000  T       0.01320200       0.02549700       0.02259700
108
Lattice="12.515153631 0.0 0.0 0.0 12.515153631 0.0 0.0 0.0 25.30973" Properties=species:S:1:pos:R:3:move_mask:L:1:forces:R:3 stress="0.007742592070658181 -3.03087683152891e-05 -4.900208814730946e-05 -3.03087683152891e-05 0.007634688860889913 -0.00011446927736869896 -4.900208814730946e-05 -0.00011446927736869896 0.0017694366296422742" free_energy=-444.05654745 energy=-444.05268875 pbc="T T T"
Cu       1.25152000       1.25152000      10.00000000  F       0.00178600      -0.01939600      -0.08404900
Cu       3.75455000       1.25152000      10.00000000  F       0.00732100       0.00249800      -0.07117700
Cu       6.25758000       1.25152000      10.00000000  F      -0.01359000       0.01436300      -0.05350200
Cu       8.76061000       1.25152000      10.00000000  F       0.01266500       0.00860400      -0.04654600
Cu      11.26364000       1.25152000      10.00000000  F      -0.00834200       0.00019300      -0.07204100
Cu       1.25152000       3.75455000      10.00000000  F      -0.00007200       0.00406100      -0.06695800
Cu       3.75455000       3.75455000      10.00000000  F       0.01327500      -0.01472800      -0.05643900
Cu       6.25758000       3.75455000      10.00000000  F      -0.01656400      -0.01439500      -0.08813300
Cu       8.76061000       3.75455000      10.00000000  F       0.01817000      -0.01333400      -0.09210500
Cu      11.26364000       3.75455000      10.00000000  F      -0.01308800       0.00068100      -0.05769600
Cu       1.25152000       6.25758000      10.00000000  F      -0.00431200      -0.00104500      -0.07761500
Cu       3.75455000       6.25758000      10.00000000  F       0.01404400       0.02031900      -0.06382600
Cu       6.25758000       6.25758000      10.00000000  F      -0.01792500       0.01811000      -0.08295700
Cu       8.76061000       6.25758000      10.00000000  F       0.01909600       0.01806300      -0.08086000
Cu      11.26364000       6.25758000      10.00000000  F      -0.00907800       0.00528700      -0.06705600
Cu       1.25152000       8.76061000      10.00000000  F      -0.00176400       0.00734800      -0.07534000
Cu       3.75455000       8.76061000      10.00000000  F       0.00433100      -0.01367100      -0.07196300
Cu       6.25758000       8.76061000      10.00000000  F      -0.01066800      -0.01979800      -0.05993800
Cu       8.76061000       8.76061000      10.00000000  F       0.01293200      -0.01464400      -0.05416100
Cu      11.26364000       8.76061000      10.00000000  F      -0.00658100      -0.01293300      -0.07508900
Cu       1.25152000      11.26364000      10.00000000  F      -0.00383700       0.00759200      -0.02030100
Cu       3.75455000      11.26364000      10.00000000  F      -0.00887900       0.00391100      -0.07034800
Cu       6.25758000      11.26364000      10.00000000  F       0.00038900       0.00396200      -0.06969600
Cu       8.76061000      11.26364000      10.00000000  F      -0.00374000      -0.00006100      -0.06901200
Cu      11.26364000      11.26364000      10.00000000  F       0.01442700       0.00266000      -0.06739600
Cu       0.00000000       0.00000000      11.76991000  F      -0.02009100       0.02470800       0.03845400
Cu       2.50303000       0.00000000      11.76991000  F       0.03844000       0.00138500       0.02981400
Cu       5.00606000       0.00000000      11.76991000  F       0.06540400       0.06160100       0.07049000
Cu       7.50909000       0.00000000      11.76991000  F       0.01298600       0.05036200       0.05878600
Cu      10.01212000       0.00000000      11.76991000  F      -0.06269300       0.05961500       0.08885200
Cu       0.00000000       2.50303000      11.76991000  F      -0.09149400       0.02738500       0.02715600
Cu       2.50303000       2.50303000      11.76991000  F       0.06716500       0.02556000       0.01465000
Cu       5.00606000       2.50303000      11.76991000  F       0.02729400      -0.03695700       0.09191900
Cu       7.50909000       2.50303000      11.76991000  F      -0.01759200      -0.02465800       0.16729700
Cu      10.01212000       2.50303000      11.76991000  F      -0.02452800      -0.03253600       0.09837800
Cu       0.00000000       5.00606000      11.76991000  F      -0.08951100       0.03638300       0.01671900
Cu       2.50303000       5.00606000      11.76991000  F       0.06195000       0.01977600       0.02789100
Cu       5.00606000       5.00606000      11.76991000  F      -0.00169500      -0.01309500       0.11649300
Cu       7.50909000       5.00606000      11.76991000  F      -0.04740900      -0.06657900       0.15093400
Cu      10.01212000       5.00606000      11.76991000  F      -0.02036100      -0.02207600       0.08689000
Cu       0.00000000       7.50909000      11.76991000  F      -0.05685400      -0.00027300       0.05503500
Cu       2.50303000       7.50909000      11.76991000  F       0.04904900       0.03924400       0.01341000
Cu       5.00606000       7.50909000      11.76991000  F      -0.00122600       0.05881500       0.03181000
Cu       7.50909000       7.50909000      11.76991000  F      -0.03500200       0.03478300       0.06164700
Cu      10.01212000       7.50909000      11.76991000  F       0.06226800       0.07574300       0.00434900
Cu       0.00000000      10.01212000      11.76991000  F      -0.01865400      -0.05067400       0.07309200
Cu       2.50303000      10.01212000      11.76991000  F       0.04917800      -0.04223400       0.08066000
Cu       5.00606000      10.01212000      11.76991000  F       0.06102500      -0.08735300       0.07651300
Cu       7.50909000      10.01212000      11.76991000  F       0.01831200      -0.10195900       0.07536800
Cu      10.01212000      10.01212000      11.76991000  F      -0.04963100      -0.09005900       0.08929400
Cu       1.25843000       1.23728000      13.56818000  T       0.00045500       0.00060700      -0.00049700
Cu       3.77055000       1.25810000      13.58338000  T       0.00108400       0.00012300      -0.00070200
Cu       6.28884000       1.25924000      13.62055000  T       0.00114600       0.00084200       0.00013200
Cu       8.74366000       1.25814000      13.62050000  T      -0.00058400       0.00007000       0.00010000
Cu      11.26127000       1.26136000      13.58374000  T      -0.00078500      -0.00080300      -0.00034600
Cu       1.23851000       3.75083000      13.55552000  T      -0.00001100       0.00036000      -0.00118000
Cu       3.75473000       3.76568000      13.58766000  T       0.00003000      -0.00133500      -0.00146100
Cu       6.27097000       3.75010000      13.59136000  T      -0.00009800      -0.00018100      -0.00274100
Cu       8.72336000       3.75040000      13.58982000  T      -0.00079000      -0.00095500      -0.00169800
Cu      11.22901000       3.77804000      13.58974000  T      -0.00114200      -0.00186400      -0.00137500
Cu       1.24509000       6.26351000      13.56404000  T       0.00055500       0.00055400      -0.00119400
Cu       3.75699000       6.28938000      13.58004000  T       0.00174300      -0.00150400       0.00171000
Cu       6.26966000       6.24362000      13.57105000  T      -0.00044700      -0.00048500       0.00121800
Cu       8.74300000       6.24848000      13.54666000  T      -0.00136700      -0.00069500      -0.00063100
Cu      11.23795000       6.27805000      13.59701000  T      -0.00091000      -0.00057000      -0.00162400
Cu       1.26515000       8.76558000      13.58051000  T       0.00046200       0.00106000      -0.00099300
Cu       3.78841000       8.76311000      13.60939000  T       0.00071600       0.00014400      -0.00096800
Cu       6.28078000       8.71825000      13.61471000  T       0.00024100      -0.00034100       0.00005600
Cu       8.76197000       8.71708000      13.61680000  T      -0.00034200      -0.00070700      -0.00062800
Cu      11.25894000       8.75913000      13.60379000  T      -0.00004700      -0.00048800      -0.00090800
Cu       1.25071000      11.25858000      13.59492000  T      -0.00017800       0.00105900      -0.00071600
Cu       3.74683000      11.26594000      13.57521000  T       0.00047700       0.00086100      -0.00058800
Cu       6.25943000      11.25084000      13.57012000  T       0.00035300       0.00022200      -0.00035600
Cu       8.75852000      11.24845000      13.57492000  T      -0.00049400      -0.00086600      -0.00037000
Cu      11.27348000      11.26535000      13.57429000  T      -0.00043700      -0.00052900      -0.00063500
Cu      -0.00035000       0.00787000      15.36522000  T      -0.00038200       0.00118000      -0.00080300
Cu       2.51087000       0.00316000      15.36363000  T       0.00105100       0.00126300      -0.00121100
Cu       5.00738000      -0.00129000      15.35200000  T       0.00150700      -0.00050000      -0.00106100
Cu       7.50867000      12.39926000      15.38268000  T      -0.00025200       0.00198100      -0.00100200
Cu      10.01983000      -0.01148000      15.34854000  T      -0.00169700      -0.00241900      -0.00100100
Cu       0.04552000       2.50472000      15.33991000  T      -0.00021300       0.00087200      -0.00147900
Cu       2.49024000       2.50189000      15.34137000  T       0.00160700       0.00107600      -0.00148900
Cu       4.94417000       2.44006000      15.39878000  T       0.00279600      -0.00223900       0.00047900
Cu       7.51217000       2.32760000      15.61979000  T      -0.00206300      -0.00030800       0.00465300
Cu      10.11126000       2.44547000      15.39015000  T      -0.00232900      -0.00228800       0.00065000
Cu      12.49568000       5.00791000      15.32588000  T      -0.00132500       0.00002500      -0.00216600
Cu       2.40519000       5.00091000      15.34577000  T       0.00125800       0.00064700      -0.00121000
Pd       4.91171000       5.07866000      15.49333000  T       0.00718400      -0.01116700      -0.00120000
Y        7.51330000       4.88686000      17.29959000  T       0.00184000      -0.00303700       0.00726100
Cu      10.00708000       5.09211000      15.40362000  T      -0.00129000      -0.00093300      -0.00279700
Cu       0.05257000       7.50895000      15.36021000  T       0.00010900       0.00027200      -0.00137100
Cu       2.53365000       7.49514000      15.36034000  T       0.00140400       0.00061200      -0.00146500
Cu       5.01901000       7.63813000      15.50144000  T       0.00139500      -0.00531800       0.00009100
Cu       7.54888000       7.42247000      15.49929000  T      -0.00105300      -0.00019400       0.00216400
Cu      10.08773000       7.58905000      15.47496000  T      -0.00121800      -0.00342800      -0.00039300
Cu      12.51138000      10.00768000      15.37081000  T       0.00010700       0.00095600       0.00006900
Cu       2.51017000      10.00118000      15.37167000  T       0.00085300       0.00110300      -0.00124700
Cu       5.01309000      10.07532000      15.36712000  T       0.00100400      -0.00118500      -0.00160300
Cu       7.50693000       9.95191000      15.35429000  T      -0.00000200       0.00118800       0.00026500
Cu      10.00984000      10.04974000      15.35985000  T      -0.00057900      -0.00317000      -0.00110200
O        6.02778000       3.54959000      16.48116000  T      -0.00082000      -0.00056800       0.00393600
O        6.12288000       6.56690000      16.67114000  T       0.00191100       0.00031400       0.00101000
O        8.99620000       6.46296000      16.57712000  T      -0.00680900       0.00616500       0.00301000
O        8.95896000       3.67345000      16.25741000  T      -0.00127300       0.00406000      -0.00102100
C        7.61749000       2.58270000      18.53139000  T       0.00150900       0.01227400       0.00965500
O        7.57409000       2.26390000      19.85614000  T       0.00623600       0.03269700       0.01953300
O        7.64546000       1.59202000      17.75035000  T       0.00103700       0.01824000       0.01564300
H        7.56133000       1.27333000      19.91465000  T       0.01254100       0.01669400       0.01990500
108
Lattice="12.515153631 0.0 0.0 0.0 12.515153631 0.0 0.0 0.0 25.30973" Properties=species:S:1:pos:R:3:move_mask:L:1:forces:R:3 stress="0.007766253631754405 -2.9953002295113758e-05 -4.4040088392232266e-05 -2.9953002295113758e-05 0.0076567338711225315 -0.0001166538055627581 -4.4040088392232266e-05 -0.0001166538055627581 0.001802223277080539" free_energy=-444.05732277 energy=-444.05346881 pbc="T T T"
Cu       1.25152000       1.25152000      10.00000000  F       0.00154700      -0.01938800      -0.08355800
Cu       3.75455000       1.25152000      10.00000000  F       0.00680900       0.00262900      -0.07117700
Cu       6.25758000       1.25152000      10.00000000  F      -0.01371500       0.01449600      -0.05380500
Cu       8.76061000       1.25152000      10.00000000  F       0.01306600       0.00867400      -0.04658400
Cu      11.26364000       1.25152000      10.00000000  F      -0.00790700       0.00016400      -0.07153700
Cu       1.25152000       3.75455000      10.00000000  F      -0.00017400       0.00391000      -0.06672100
Cu       3.75455000       3.75455000      10.00000000  F       0.01293000      -0.01469600      -0.05644400
Cu       6.25758000       3.75455000      10.00000000  F      -0.01669600      -0.01421700      -0.08831600
Cu       8.76061000       3.75455000      10.00000000  F       0.01843900      -0.01324000      -0.09211800
Cu      11.26364000       3.75455000      10.00000000  F      -0.01278900       0.00056500      -0.05741300
Cu       1.25152000       6.25758000      10.00000000  F      -0.00437000      -0.00112400      -0.07755500
Cu       3.75455000       6.25758000      10.00000000  F       0.01388700       0.02030800      -0.06384600
Cu       6.25758000       6.25758000      10.00000000  F      -0.01800100       0.01821300      -0.08293600
Cu       8.76061000       6.25758000      10.00000000  F       0.01923400       0.01818300      -0.08071300
Cu      11.26364000       6.25758000      10.00000000  F      -0.00894400       0.00532900      -0.06687200
Cu       1.25152000       8.76061000      10.00000000  F      -0.00193700       0.00757100      -0.07513500
Cu       3.75455000       8.76061000      10.00000000  F       0.00413200      -0.01366400      -0.07200300
Cu       6.25758000       8.76061000      10.00000000  F      -0.01072400      -0.01988700      -0.05998900
Cu       8.76061000       8.76061000      10.00000000  F       0.01316300      -0.01462300      -0.05400700
Cu      11.26364000       8.76061000      10.00000000  F      -0.00641700      -0.01272100      -0.07480500
Cu       1.25152000      11.26364000      10.00000000  F      -0.00409300       0.00780600      -0.01993500
Cu       3.75455000      11.26364000      10.00000000  F      -0.00932100       0.00398100      -0.07033300
Cu       6.25758000      11.26364000      10.00000000  F       0.00031700       0.00388600      -0.06995800
Cu       8.76061000      11.26364000      10.00000000  F      -0.00334800      -0.00009900      -0.06893900
Cu      11.26364000      11.26364000      10.00000000  F       0.01479900       0.00278100      -0.06692200
Cu       0.00000000       0.00000000      11.76991000  F      -0.02006900       0.02474200       0.03865300
Cu       2.50303000       0.00000000      11.76991000  F       0.03768400       0.00152600       0.03001700
Cu       5.00606000       0.00000000      11.76991000  F       0.06498400       0.06155400       0.07069300
Cu       7.50909000       0.00000000      11.76991000  F       0.01341400       0.05014500       0.05906600
Cu      10.01212000       0.00000000      11.76991000  F      -0.06201300       0.05944400       0.08916700
Cu       0.00000000       2.50303000      11.76991000  F      -0.09147600       0.02708400       0.02739300
Cu       2.50303000       2.50303000      11.76991000  F       0.06653700       0.02549300       0.01471600
Cu       5.00606000       2.50303000      11.76991000  F       0.02689000      -0.03701900       0.09179900
Cu       7.50909000       2.50303000      11.76991000  F      -0.01717800      -0.02471500       0.16738600
Cu      10.01212000       2.50303000      11.76991000  F      -0.02401800      -0.03284300       0.09861600
Cu       0.00000000       5.00606000      11.76991000  F      -0.08961000       0.03624900       0.01727600
Cu       2.50303000       5.00606000      11.76991000  F       0.06178700       0.01983900       0.02832600
Cu       5.00606000       5.00606000      11.76991000  F      -0.00204400      -0.01283000       0.11669400
Cu       7.50909000       5.00606000      11.76991000  F      -0.04722000      -0.06647400       0.15107500
Cu      10.01212000       5.00606000      11.76991000  F      -0.02002500      -0.02217800       0.08725700
Cu       0.00000000       7.50909000      11.76991000  F      -0.05685700      -0.00001700       0.05561000
Cu       2.50303000       7.50909000      11.76991000  F       0.04896400       0.03911800       0.01426700
Cu       5.00606000       7.50909000      11.76991000  F      -0.00147900       0.05849000       0.03233700
Cu       7.50909000       7.50909000      11.76991000  F      -0.03483800       0.03447700       0.06201100
Cu      10.01212000       7.50909000      11.76991000  F       0.06252000       0.07566200       0.00482300
Cu       0.00000000      10.01212000      11.76991000  F      -0.01867300      -0.05042900       0.07352600
Cu       2.50303000      10.01212000      11.76991000  F       0.04863400      -0.04203000       0.08113000
Cu       5.00606000      10.01212000      11.76991000  F       0.06058800      -0.08768000       0.07673000
Cu       7.50909000      10.01212000      11.76991000  F       0.01861000      -0.10258700       0.07547900
Cu      10.01212000      10.01212000      11.76991000  F      -0.04897800      -0.09024400       0.08948800
Cu       1.25843000       1.23731000      13.56816000  T      -0.00006900       0.00061600      -0.00027300
Cu       3.77058000       1.25807000      13.58336000  T       0.00033700       0.00021600      -0.00042200
Cu       6.28892000       1.25917000      13.62062000  T       0.00081900       0.00100100       0.00014700
Cu       8.74362000       1.25801000      13.62056000  T       0.00017100       0.00034900       0.00039200
Cu      11.26124000       1.26127000      13.58373000  T      -0.00022700      -0.00059200      -0.00004300
Cu       1.23850000       3.75087000      13.55547000  T      -0.00036100       0.00058600      -0.00053500
Cu       3.75473000       3.76558000      13.58759000  T      -0.00034500      -0.00070300      -0.00092000
Cu       6.27098000       3.74998000      13.59128000  T      -0.00014800       0.00024300      -0.00197100
Cu       8.72332000       3.75022000      13.58981000  T      -0.00017000      -0.00046200      -0.00102700
Cu      11.22897000       3.77790000      13.58971000  T      -0.00058300      -0.00135700      -0.00085200
Cu       1.24512000       6.26355000      13.56401000  T       0.00018700       0.00061100      -0.00048600
Cu       3.75708000       6.28928000      13.58017000  T       0.00107400      -0.00099900       0.00155800
Cu       6.26965000       6.24348000      13.57108000  T      -0.00026200       0.00004100       0.00104200
Cu       8.74298000       6.24830000      13.54663000  T      -0.00076900      -0.00013500      -0.00010500
Cu      11.23793000       6.27797000      13.59697000  T      -0.00051800      -0.00020700      -0.00093300
Cu       1.26516000       8.76565000      13.58049000  T       0.00007200       0.00093700      -0.00030800
Cu       3.78841000       8.76308000      13.60937000  T       0.00022600      -0.00007700      -0.00043500
Cu       6.28077000       8.71808000      13.61470000  T       0.00017300      -0.00020900       0.00037900
Cu       8.76198000       8.71687000      13.61677000  T       0.00006700      -0.00044500      -0.00013800
Cu      11.25895000       8.75907000      13.60378000  T       0.00022600      -0.00035200      -0.00032700
Cu       1.25069000      11.25864000      13.59490000  T      -0.00044700       0.00087500      -0.00036800
Cu       3.74682000      11.26594000      13.57520000  T      -0.00018600       0.00047100      -0.00026600
Cu       6.25941000      11.25068000      13.57008000  T       0.00039600       0.00014700       0.00000400
Cu       8.75853000      11.24822000      13.57487000  T       0.00007700      -0.00057000       0.00004200
Cu      11.27347000      11.26529000      13.57428000  T      -0.00002700      -0.00044600      -0.00018300
Cu      -0.00040000       0.00796000      15.36518000  T      -0.00029600       0.00099400      -0.00114900
Cu       2.51090000       0.00322000      15.36359000  T       0.00034500       0.00102600      -0.00113600
Cu       5.00746000      -0.00145000      15.35199000  T       0.00085900      -0.00065200      -0.00057600
Cu       7.50864000      12.39891000      15.38258000  T       0.00010500       0.00192700      -0.00049400
Cu      10.01971000      -0.01174000      15.34851000  T      -0.00080700      -0.00199300      -0.00099100
Cu       0.04551000       2.50479000      15.33984000  T      -0.00030200       0.00084000      -0.00157500
Cu       2.49030000       2.50195000      15.34132000  T       0.00082200       0.00107300      -0.00131600
Cu       4.94428000       2.43979000      15.39885000  T       0.00246600      -0.00078700       0.00103500
Cu       7.51207000       2.32692000      15.62061000  T      -0.00103300       0.00032700       0.00478200
Cu      10.11115000       2.44517000      15.39023000  T      -0.00214100      -0.00091900       0.00065200
Cu      12.49565000       5.00794000      15.32582000  T      -0.00099400       0.00035500      -0.00216700
Cu       2.40527000       5.00096000      15.34573000  T       0.00071000       0.00091300      -0.00119300
Pd       4.91196000       5.07819000      15.49328000  T       0.00735200      -0.01228800      -0.00045300
Y        7.51335000       4.88642000      17.29999000  T       0.00082200      -0.00146200       0.00582300
Cu      10.00701000       5.09179000      15.40353000  T      -0.00167000       0.00032300      -0.00165500
Cu       0.05258000       7.50900000      15.36017000  T      -0.00003000       0.00033900      -0.00158800
Cu       2.53370000       7.49519000      15.36030000  T       0.00067100       0.00088000      -0.00135200
Cu       5.01908000       7.63776000      15.50145000  T       0.00108600      -0.00444000       0.00029400
Cu       7.54885000       7.42212000      15.49935000  T      -0.00065600       0.00017200       0.00225700
Cu      10.08765000       7.58869000      15.47495000  T      -0.00097400      -0.00312000      -0.00027500
Cu      12.51140000      10.00776000      15.37083000  T       0.00016800       0.00077300      -0.00051400
Cu       2.51020000      10.00123000      15.37164000  T       0.00027700       0.00090200      -0.00127100
Cu       5.01315000      10.07514000      15.36707000  T       0.00038400      -0.00159100      -0.00122300
Cu       7.50694000       9.95157000      15.35433000  T       0.00023800       0.00121100       0.00012500
Cu      10.00981000      10.04943000      15.35981000  T       0.00004500      -0.00268100      -0.00121800
O        6.02785000       3.54931000      16.48149000  T      -0.00154200       0.00035500       0.00317900
O        6.12299000       6.56671000      16.67126000  T       0.00109700       0.00115300       0.00042900
O        8.99599000       6.46292000      16.57725000  T      -0.00396800       0.00645800       0.00107800
O        8.95883000       3.67335000      16.25736000  T       0.00163400       0.00406000      -0.00087800
C        7.61776000       2.58381000      18.53277000  T       0.00157500       0.01077800       0.00594900
O        7.57488000       2.26586000      19.85777000  T       0.00461600       0.02171200       0.01087200
O        7.64560000       1.59286000      17.75213000  T       0.00142900       0.01665600       0.01008500
H        7.56257000       1.27539000      19.91718000  T       0.01197800       0.01755500       0.01857400
