108
Lattice="12.515153631 0.0 0.0 0.0 12.515153631 0.0 0.0 0.0 25.30973" Properties=species:S:1:pos:R:3:move_mask:L:1:forces:R:3 stress="0.008201018432936056 -5.558063876599042e-05 0.0003824235056519931 -5.558063876599042e-05 0.008377459654415649 4.576274491097605e-05 0.0003824235056519931 4.576274491097605e-05 0.0032592162013902236" free_energy=-445.1421965 energy=-445.14187595 pbc="T T T"
Cu       1.25152000       1.25152000      10.00000000  F       0.00476900       0.00423900      -0.06180400
Cu       3.75455000       1.25152000      10.00000000  F       0.00484200       0.01860500      -0.06622900
Cu       6.25758000       1.25152000      10.00000000  F      -0.00926500       0.02664200      -0.06351400
Cu       8.76061000       1.25152000      10.00000000  F       0.01150600       0.00407300      -0.05260400
Cu      11.26364000       1.25152000      10.00000000  F      -0.01318700      -0.00408300      -0.07388100
Cu       1.25152000       3.75455000      10.00000000  F      -0.00458300       0.00337400      -0.07019100
Cu       3.75455000       3.75455000      10.00000000  F       0.01770400      -0.02046200      -0.05478300
Cu       6.25758000       3.75455000      10.00000000  F      -0.02043100      -0.02728200      -0.07768000
Cu       8.76061000       3.75455000      10.00000000  F       0.00816200      -0.01549400      -0.06604600
Cu      11.26364000       3.75455000      10.00000000  F       0.00188800       0.00027900      -0.05993600
Cu       1.25152000       6.25758000      10.00000000  F      -0.00707900      -0.00778300      -0.06030600
Cu       3.75455000       6.25758000      10.00000000  F       0.01748900       0.01484600      -0.04597400
Cu       6.25758000       6.25758000      10.00000000  F      -0.01793500       0.02365100      -0.07848700
Cu       8.76061000       6.25758000      10.00000000  F       0.00952200       0.01894100      -0.07481000
Cu      11.26364000       6.25758000      10.00000000  F       0.00110600      -0.00602000      -0.05682200
Cu       1.25152000       8.76061000      10.00000000  F       0.00618000       0.00663600      -0.05853600
Cu       3.75455000       8.76061000      10.00000000  F      -0.00587200      -0.01241900      -0.05453900
Cu       6.25758000       8.76061000      10.00000000  F       0.00399500      -0.02431200      -0.05819600
Cu       8.76061000       8.76061000      10.00000000  F       0.00157700      -0.01077100      -0.05229400
Cu      11.26364000       8.76061000      10.00000000  F      -0.00753600       0.00228100      -0.07098000
Cu       1.25152000      11.26364000      10.00000000  F       0.01013200      -0.00635700      -0.02123100
Cu       3.75455000      11.26364000      10.00000000  F      -0.01909500      -0.00080500      -0.06684800
Cu       6.25758000      11.26364000      10.00000000  F       0.00187100       0.00138700      -0.05325300
Cu       8.76061000      11.26364000      10.00000000  F       0.01046400       0.00232500      -0.06326500
Cu      11.26364000      11.26364000      10.00000000  F      -0.00533300       0.00683200      -0.04771700
Cu       0.00000000       0.00000000      11.76991000  F      -0.02464500       0.05394600       0.13670600
Cu       2.50303000       0.00000000      11.76991000  F       0.03177800       0.04753400       0.10140900
Cu       5.00606000       0.00000000      11.76991000  F       0.06040800       0.11060100       0.10323900
Cu       7.50909000       0.00000000      11.76991000  F       0.02361800       0.08276400       0.11271100
Cu      10.01212000       0.00000000      11.76991000  F      -0.02582100       0.09039400       0.13403300
Cu       0.00000000       2.50303000      11.76991000  F      -0.05308500       0.03023200       0.12074300
Cu       2.50303000       2.50303000      11.76991000  F       0.06148100       0.02887800       0.11891000
Cu       5.00606000       2.50303000      11.76991000  F       0.02045300      -0.00026000       0.11001600
Cu       7.50909000       2.50303000      11.76991000  F      -0.01935600      -0.00971800       0.14086500
Cu      10.01212000       2.50303000      11.76991000  F       0.03438700      -0.07429900       0.07732800
Cu       0.00000000       5.00606000      11.76991000  F      -0.04980600       0.02596600       0.09719000
Cu       2.50303000       5.00606000      11.76991000  F       0.07499500       0.02637600       0.17153600
Cu       5.00606000       5.00606000      11.76991000  F      -0.03487000       0.02087400       0.23603500
Cu       7.50909000       5.00606000      11.76991000  F      -0.06543100       0.00270200       0.16358400
Cu      10.01212000       5.00606000      11.76991000  F       0.03123100      -0.00602500       0.08225600
Cu       0.00000000       7.50909000      11.76991000  F      -0.01524900      -0.05015400       0.15026000
Cu       2.50303000       7.50909000      11.76991000  F       0.05584300      -0.03214200       0.12224200
Cu       5.00606000       7.50909000      11.76991000  F      -0.01320800       0.03568600       0.11811800
Cu       7.50909000       7.50909000      11.76991000  F      -0.01716400       0.00689900       0.12292900
Cu      10.01212000       7.50909000      11.76991000  F       0.05268700       0.06480900       0.06873500
Cu       0.00000000      10.01212000      11.76991000  F       0.02564100      -0.07893200       0.16535200
Cu       2.50303000      10.01212000      11.76991000  F       0.02977200      -0.04686300       0.09947400
Cu       5.00606000      10.01212000      11.76991000  F       0.02391900      -0.08811100       0.12644900
Cu       7.50909000      10.01212000      11.76991000  F       0.03314600      -0.04955900       0.10758100
Cu      10.01212000      10.01212000      11.76991000  F      -0.02916000      -0.08328700       0.12338600
Cu       1.26585000       1.24608000      13.58437000  T      -0.00436100      -0.01457000      -0.00197500
Cu       3.79000000       1.27152000      13.60710000  T      -0.00785100      -0.01085600      -0.01789300
Cu       6.28984000       1.29161000      13.62431000  T      -0.00368700      -0.01032600      -0.00636500
Cu       8.76664000       1.27924000      13.62609000  T      -0.00001300      -0.00921200      -0.01025600
Cu      11.26511000       1.26211000      13.61544000  T       0.01119300      -0.01295000      -0.02259000
Cu       1.25164000       3.76162000      13.58610000  T       0.00626500       0.00107600       0.00114600
Cu       3.76192000       3.76236000      13.61230000  T      -0.01234100      -0.00449100      -0.01943100
Cu       6.26750000       3.78063000      13.60480000  T      -0.00019600       0.00969500      -0.03940700
Cu       8.74357000       3.76129000      13.56718000  T      -0.00126000       0.00766100      -0.03708300
Cu      11.23046000       3.75556000      13.60574000  T      -0.00435900       0.00651100       0.00990700
Cu       1.26445000       6.24937000      13.60903000  T       0.01210200       0.00000800      -0.00217000
Cu       3.74826000       6.27867000      13.61754000  T      -0.01344200       0.00258700      -0.01980800
Cu       6.26655000       6.24302000      13.59798000  T       0.00432000      -0.00915900      -0.03945900
Cu       8.74685000       6.24620000      13.56314000  T      -0.00370600      -0.00561900      -0.03957200
Cu      11.23541000       6.24956000      13.60474000  T      -0.00600100      -0.00697900       0.00930600
Cu       1.28793000       8.74922000      13.60673000  T      -0.00558700       0.01157600      -0.00274000
Cu       3.77982000       8.74981000      13.62574000  T       0.00025300       0.01571200      -0.01469500
Cu       6.29233000       8.74379000      13.60669000  T       0.00164100       0.00431200       0.00286200
Cu       8.77161000       8.73173000      13.62083000  T      -0.01035300       0.01352000      -0.00623200
Cu      11.26714000       8.75408000      13.60656000  T       0.00808400       0.01340000      -0.01508000
Cu       1.24292000      11.26160000      13.60018000  T      -0.01590500      -0.00045000      -0.00620800
Cu       3.74467000      11.27304000      13.57536000  T      -0.01117900      -0.00447900       0.00076400
Cu       6.25782000      11.27734000      13.57347000  T      -0.00360200      -0.00215300      -0.00888700
Cu       8.76318000      11.26300000      13.58321000  T       0.00181700      -0.00173700      -0.01063300
Cu      11.26771000      11.26545000      13.59015000  T       0.02591500       0.00466600      -0.00619900
Cu      12.51065000       0.00505000      15.40124000  T       0.00433400       0.01049600      -0.09106500
Cu       2.50253000       0.00030000      15.39319000  T       0.00539500       0.00898500      -0.08626600
Cu       4.99817000      12.50959000      15.37191000  T       0.01156000      -0.00069400      -0.04363000
Cu       7.50566000      12.49141000      15.36937000  T      -0.00761300       0.00672700      -0.05573900
Cu      10.01405000      12.49423000      15.38349000  T      -0.01307500       0.00724200      -0.06340400
Cu       0.07162000       2.50778000      15.37722000  T       0.01453200       0.01093600      -0.04506800
Cu       2.53494000       2.45484000      15.37844000  T      -0.00440200       0.00158400      -0.03784800
Cu       5.01559000       2.45449000      15.47655000  T      -0.05442500      -0.06777900      -0.08004900
Cu       7.57144000       2.50694000      15.49625000  T       0.03854100      -0.08770800      -0.12843500
Cu      10.11511000       2.45496000      15.46659000  T       0.04477400      -0.04890100      -0.08077800
Cu      12.45315000       5.00132000      15.35664000  T       0.01109500       0.00324500      -0.07871700
Cu       2.36884000       4.90733000      15.48842000  T      -0.06248600      -0.02603400      -0.08244000
Pd       4.88527000       5.05370000      15.57264000  T       0.03558300      -0.01288200      -0.10096800
Y        7.48900000       4.99841000      17.22774000  T      -0.04267300       0.00897500       0.06463100
Cu       9.95924000       5.00337000      15.45139000  T       0.11054500      -0.00406800      -0.15294000
Cu       0.03673000       7.50903000      15.35476000  T       0.00456400      -0.01027100      -0.05163500
Cu       2.52023000       7.57664000      15.47215000  T      -0.02186600       0.03031700      -0.10005700
Cu       5.07998000       7.62859000      15.44940000  T      -0.03557200       0.07797900      -0.10865900
Cu       7.59628000       7.50159000      15.49063000  T       0.04484200       0.08355600      -0.11565900
Cu      10.10855000       7.55658000      15.46493000  T       0.03840800       0.05524000      -0.08485900
Cu      12.51371000      10.00620000      15.39727000  T       0.00494300      -0.00612500      -0.09102400
Cu       2.50766000      10.05356000      15.38550000  T       0.00700300      -0.00746100      -0.07496500
Cu       5.00872000      10.07293000      15.36297000  T       0.00791600      -0.00804600      -0.04614400
Cu       7.50755000      10.02617000      15.36530000  T      -0.00458300      -0.01487600      -0.06134100
Cu      10.01743000      10.03040000      15.38140000  T      -0.01718200      -0.01357400      -0.06855100
O        6.18962000       3.38447000      16.66560000  T      -0.12572000       0.04429100       0.11408400
O        6.20412000       6.62873000      16.66081000  T      -0.13790100      -0.05029100       0.12261400
O        9.02425000       6.41259000      16.55113000  T       0.02069400       0.10574400       0.11041400
O        9.01192000       3.58175000      16.54679000  T       0.04138500      -0.10702100       0.10056100
C        3.24185000       5.61747000      17.13324000  T       0.15738700      -0.03977300       0.64251600
O        3.62928000       4.92448000      18.26979000  T      -0.28093000       0.15329200      -0.78711800
O        2.96971000       6.85002000      17.32300000  T       0.06212500      -0.37025800       0.02207500
H        3.61772000       5.59389000      18.98702000  T      -0.03739900       0.16277500       0.24200400
108
Lattice="12.515153631 0.0 0.0 0.0 12.515153631 0.0 0.0 0.0 25.30973" Properties=species:S:1:pos:R:3:move_mask:L:1:forces:R:3 stress="0.008156416608722494 1.3350588020264289e-05 0.00030935415831527785 1.3350588020264289e-05 0.008183479792292324 0.00018520430029233392 0.00030935415831527785 0.00018520430029233392 0.0029770625398455445" free_energy=-445.17389124 energy=-445.17359998 pbc="T T T"
Cu       1.25152000       1.25152000      10.00000000  F       0.00442400       0.00370300      -0.06104800
Cu       3.75455000       1.25152000      10.00000000  F       0.00506400       0.01822900      -0.06675200
Cu       6.25758000       1.25152000      10.00000000  F      -0.00932700       0.02665400      -0.06393300
Cu       8.76061000       1.25152000      10.00000000  F       0.01103000       0.00423900      -0.05232100
Cu      11.26364000       1.25152000      10.00000000  F      -0.01290100      -0.00430800      -0.07433100
Cu       1.25152000       3.75455000      10.00000000  F      -0.00459100       0.00341500      -0.07067200
Cu       3.75455000       3.75455000      10.00000000  F       0.01758500      -0.02002400      -0.05569600
Cu       6.25758000       3.75455000      10.00000000  F      -0.02012900      -0.02703400      -0.07817700
Cu       8.76061000       3.75455000      10.00000000  F       0.00773600      -0.01542300      -0.06664700
Cu      11.26364000       3.75455000      10.00000000  F       0.00183300       0.00040500      -0.05948800
Cu       1.25152000       6.25758000      10.00000000  F      -0.00700000      -0.00740900      -0.06081000
Cu       3.75455000       6.25758000      10.00000000  F       0.01723500       0.01470600      -0.04667400
Cu       6.25758000       6.25758000      10.00000000  F      -0.01789900       0.02334600      -0.07869800
Cu       8.76061000       6.25758000      10.00000000  F       0.00933800       0.01892600      -0.07517000
Cu      11.26364000       6.25758000      10.00000000  F       0.00097400      -0.00606900      -0.05619200
Cu       1.25152000       8.76061000      10.00000000  F       0.00608400       0.00667000      -0.05858100
Cu       3.75455000       8.76061000      10.00000000  F      -0.00578800      -0.01237000      -0.05478200
Cu       6.25758000       8.76061000      10.00000000  F       0.00402200      -0.02401900      -0.05840200
Cu       8.76061000       8.76061000      10.00000000  F       0.00108300      -0.01090500      -0.05187300
Cu      11.26364000       8.76061000      10.00000000  F      -0.00746800       0.00223800      -0.07043300
Cu       1.25152000      11.26364000      10.00000000  F       0.00953800      -0.00629100      -0.02315000
Cu       3.75455000      11.26364000      10.00000000  F      -0.01906400      -0.00081700      -0.06623100
Cu       6.25758000      11.26364000      10.00000000  F       0.00117200       0.00111100      -0.05338100
Cu       8.76061000      11.26364000      10.00000000  F       0.01044000       0.00212900      -0.06220600
Cu      11.26364000      11.26364000      10.00000000  F      -0.00483900       0.00691800      -0.04708500
Cu       0.00000000       0.00000000      11.76991000  F      -0.02280300       0.05346500       0.12224600
Cu       2.50303000       0.00000000      11.76991000  F       0.03064500       0.04504700       0.09213600
Cu       5.00606000       0.00000000      11.76991000  F       0.05978200       0.10896900       0.09514500
Cu       7.50909000       0.00000000      11.76991000  F       0.02334400       0.08157100       0.10449700
Cu      10.01212000       0.00000000      11.76991000  F      -0.02575600       0.08852000       0.12495700
Cu       0.00000000       2.50303000      11.76991000  F      -0.05292400       0.03255100       0.11458400
Cu       2.50303000       2.50303000      11.76991000  F       0.05899700       0.02832800       0.11124200
Cu       5.00606000       2.50303000      11.76991000  F       0.02021200      -0.00171100       0.10209200
Cu       7.50909000       2.50303000      11.76991000  F      -0.02131800      -0.01221700       0.13054000
Cu      10.01212000       2.50303000      11.76991000  F       0.03713300      -0.07448500       0.06902600
Cu       0.00000000       5.00606000      11.76991000  F      -0.05037000       0.02641300       0.09433400
Cu       2.50303000       5.00606000      11.76991000  F       0.07319900       0.02634200       0.16174400
Cu       5.00606000       5.00606000      11.76991000  F      -0.03979100       0.02146200       0.22283500
Cu       7.50909000       5.00606000      11.76991000  F      -0.06582300       0.00218300       0.14349100
Cu      10.01212000       5.00606000      11.76991000  F       0.03633000      -0.00633300       0.07043800
Cu       0.00000000       7.50909000      11.76991000  F      -0.01535700      -0.05256300       0.14581300
Cu       2.50303000       7.50909000      11.76991000  F       0.05405100      -0.03052000       0.11355300
Cu       5.00606000       7.50909000      11.76991000  F      -0.01330600       0.03707700       0.11095000
Cu       7.50909000       7.50909000      11.76991000  F      -0.01821800       0.01005800       0.11096100
Cu      10.01212000       7.50909000      11.76991000  F       0.05477000       0.06651700       0.06131700
Cu       0.00000000      10.01212000      11.76991000  F       0.02635000      -0.07874400       0.15200300
Cu       2.50303000      10.01212000      11.76991000  F       0.02839100      -0.04552900       0.09064200
Cu       5.00606000      10.01212000      11.76991000  F       0.02472100      -0.08717400       0.11780200
Cu       7.50909000      10.01212000      11.76991000  F       0.03235300      -0.04855100       0.09828600
Cu      10.01212000      10.01212000      11.76991000  F      -0.02847000      -0.08190000       0.11570100
Cu       1.26550000       1.24503000      13.58327000  T      -0.00051900      -0.00048700      -0.02075300
Cu       3.78919000       1.27042000      13.60450000  T      -0.00419000      -0.00556600      -0.02607100
Cu       6.28940000       1.29073000      13.62281000  T      -0.00396500      -0.00310700      -0.02066000
Cu       8.76684000       1.27828000      13.62391000  T       0.00219600      -0.00467900      -0.02805000
Cu      11.26619000       1.26107000      13.61232000  T       0.00463200      -0.00164000      -0.03068000
Cu       1.25207000       3.76144000      13.58506000  T       0.00303200      -0.00271700      -0.01968800
Cu       3.76071000       3.76188000      13.61007000  T      -0.00668400      -0.00509200      -0.01978000
Cu       6.26746000       3.78124000      13.60125000  T       0.00031800      -0.00341500      -0.01881600
Cu       8.74344000       3.76188000      13.56377000  T      -0.00153800       0.00102300      -0.01555500
Cu      11.23024000       3.75568000      13.60548000  T       0.00009600      -0.00536600      -0.01811800
Cu       1.26561000       6.24947000      13.60804000  T       0.00692800       0.00219800      -0.01883200
Cu       3.74704000       6.27892000      13.61549000  T      -0.00406000       0.00307500      -0.01677500
Cu       6.26700000       6.24246000      13.59436000  T       0.00379500       0.00260700      -0.01947500
Cu       8.74655000       6.24583000      13.55952000  T      -0.00193900       0.00092400      -0.01614400
Cu      11.23495000       6.24937000      13.60437000  T      -0.00161900       0.00500200      -0.01925800
Cu       1.28732000       8.75022000      13.60536000  T      -0.00254000       0.00246600      -0.02387100
Cu       3.77976000       8.75138000      13.62315000  T      -0.00124600       0.00724200      -0.02939800
Cu       6.29259000       8.74421000      13.60577000  T       0.00125700       0.00118900      -0.02119400
Cu       8.77093000       8.73299000      13.61888000  T      -0.00099500       0.00472900      -0.02877700
Cu      11.26785000       8.75523000      13.60406000  T       0.00167300       0.00321600      -0.02871600
Cu       1.24173000      11.26155000      13.59860000  T      -0.00119600      -0.00056000      -0.02452400
Cu       3.74379000      11.27271000      13.57462000  T      -0.00127000      -0.00086400      -0.01723500
Cu       6.25742000      11.27711000      13.57189000  T      -0.00347400      -0.00195100      -0.02113800
Cu       8.76340000      11.26291000      13.58148000  T       0.00039000       0.00029400      -0.02219400
Cu      11.26972000      11.26587000      13.58880000  T       0.00363100       0.00178900      -0.02051300
Cu      12.51099000       0.00617000      15.39238000  T       0.00076000       0.00797700      -0.05468400
Cu       2.50315000       0.00114000      15.38459000  T       0.00522300       0.00384200      -0.05636000
Cu       4.99927000      12.50907000      15.36746000  T       0.00598300      -0.00801900      -0.03148100
Cu       7.50492000      12.49148000      15.36379000  T      -0.00473400      -0.00566100      -0.03756400
Cu      10.01285000      12.49441000      15.37699000  T      -0.00622400      -0.00483900      -0.04536200
Cu       0.07314000       2.50885000      15.37265000  T       0.00888900       0.00649900      -0.03137800
Cu       2.53429000       2.45517000      15.37453000  T      -0.00531300       0.00292600      -0.02853700
Cu       5.01271000       2.44991000      15.47060000  T       0.00966800      -0.00683000      -0.01639200
Cu       7.57345000       2.50164000      15.48702000  T      -0.01463000       0.01320200      -0.01113400
Cu      10.11804000       2.45186000      15.46016000  T       0.00259400      -0.00175100      -0.02598100
Cu      12.45468000       5.00168000      15.34891000  T       0.01541300       0.00226300      -0.04905500
Cu       2.36677000       4.90697000      15.48378000  T       0.01768700       0.00940100      -0.01593200
Pd       4.88961000       5.05192000      15.56227000  T       0.03964000      -0.01059800      -0.06272500
Y        7.48783000       4.99892000      17.23095000  T       0.01231600      -0.00137800      -0.03206400
Cu       9.96601000       5.00336000      15.44050000  T      -0.01328900       0.00494100      -0.01224500
Cu       0.03735000       7.50800000      15.34959000  T       0.00423500      -0.00581200      -0.03547400
Cu       2.51890000       7.57748000      15.46480000  T      -0.00038800      -0.01149800      -0.02166300
Cu       5.07845000       7.63307000      15.44113000  T       0.01182600      -0.00935300      -0.02371400
Cu       7.59862000       7.50656000      15.48266000  T      -0.01671400      -0.01370800      -0.00349000
Cu      10.11072000       7.55997000      15.45814000  T      -0.00417100      -0.00026200      -0.02776500
Cu      12.51409000      10.00556000      15.38835000  T       0.00046900      -0.00393600      -0.05629500
Cu       2.50837000      10.05298000      15.37815000  T       0.00444200      -0.00316900      -0.04726400
Cu       5.00947000      10.07271000      15.35839000  T       0.00396300       0.00259100      -0.03044800
Cu       7.50702000      10.02536000      15.35931000  T      -0.00492900       0.00171100      -0.03798600
Cu      10.01586000      10.02967000      15.37441000  T      -0.00813100       0.00227400      -0.04822000
O        6.17726000       3.38747000      16.67420000  T      -0.04978900       0.00638100       0.00370100
O        6.19040000       6.62523000      16.67006000  T      -0.05779000      -0.00897500       0.00579000
O        9.02658000       6.42234000      16.55912000  T       0.00318900       0.03202700       0.00689600
O        9.01585000       3.57207000      16.55411000  T       0.00630600      -0.02935100       0.00767800
C        3.24412000       5.61419000      17.14437000  T      -0.04558800       0.00260100      -0.01333700
O        3.61591000       4.92895000      18.25720000  T      -0.04059600      -0.07186200       0.03479200
O        2.96877000       6.84124000      17.32700000  T      -0.02885700       0.02463400      -0.02507400
H        3.61336000       5.59136000      18.99160000  T      -0.04886400      -0.03337600       0.00538400
108
Lattice="12.515153631 0.0 0.0 0.0 12.515153631 0.0 0.0 0.0 25.30973" Properties=species:S:1:pos:R:3:move_mask:L:1:forces:R:3 stress="0.007979863040078633 2.6776074150039183e-06 0.00030105919268697895 2.6776074150039183e-06 0.007989643484878893 0.0001670290257177619 0.00030105919268697895 0.0001670290257177619 0.0025965114869313166" free_energy=-445.18753688 energy=-445.18742634 pbc="T T T"
Cu       1.25152000       1.25152000      10.00000000  F       0.00510100       0.00414600      -0.06111900
Cu       3.75455000       1.25152000      10.00000000  F       0.00566100       0.01819300      -0.06702900
Cu       6.25758000       1.25152000      10.00000000  F      -0.00872600       0.02630400      -0.06482800
Cu       8.76061000       1.25152000      10.00000000  F       0.01130400       0.00428100      -0.05263500
Cu      11.26364000       1.25152000      10.00000000  F      -0.01248600      -0.00424300      -0.07466000
Cu       1.25152000       3.75455000      10.00000000  F      -0.00407100       0.00311800      -0.07085900
Cu       3.75455000       3.75455000      10.00000000  F       0.01794400      -0.02015100      -0.05614300
Cu       6.25758000       3.75455000      10.00000000  F      -0.01967800      -0.02683000      -0.07818100
Cu       8.76061000       3.75455000      10.00000000  F       0.00812700      -0.01565900      -0.06699900
Cu      11.26364000       3.75455000      10.00000000  F       0.00245600       0.00043500      -0.05973600
Cu       1.25152000       6.25758000      10.00000000  F      -0.00624400      -0.00734700      -0.06131900
Cu       3.75455000       6.25758000      10.00000000  F       0.01757400       0.01478300      -0.04711700
Cu       6.25758000       6.25758000      10.00000000  F      -0.01759500       0.02300300      -0.07844200
Cu       8.76061000       6.25758000      10.00000000  F       0.00963400       0.01880600      -0.07577500
Cu      11.26364000       6.25758000      10.00000000  F       0.00152400      -0.00649100      -0.05638400
Cu       1.25152000       8.76061000      10.00000000  F       0.00703600       0.00628100      -0.05904600
Cu       3.75455000       8.76061000      10.00000000  F      -0.00520500      -0.01228600      -0.05526600
Cu       6.25758000       8.76061000      10.00000000  F       0.00452500      -0.02342400      -0.05905300
Cu       8.76061000       8.76061000      10.00000000  F       0.00125500      -0.01075600      -0.05244000
Cu      11.26364000       8.76061000      10.00000000  F      -0.00707300       0.00243300      -0.07066800
Cu       1.25152000      11.26364000      10.00000000  F       0.00974300      -0.00613800      -0.02310900
Cu       3.75455000      11.26364000      10.00000000  F      -0.01784700      -0.00078500      -0.06594100
Cu       6.25758000      11.26364000      10.00000000  F       0.00129500       0.00108900      -0.05358800
Cu       8.76061000      11.26364000      10.00000000  F       0.01074100       0.00230400      -0.06251000
Cu      11.26364000      11.26364000      10.00000000  F      -0.00454700       0.00700700      -0.04675800
Cu       0.00000000       0.00000000      11.76991000  F      -0.02110000       0.05447300       0.09052900
Cu       2.50303000       0.00000000      11.76991000  F       0.03215100       0.04454100       0.06375300
Cu       5.00606000       0.00000000      11.76991000  F       0.06110600       0.10971700       0.06839500
Cu       7.50909000       0.00000000      11.76991000  F       0.02248800       0.08410700       0.07970400
Cu      10.01212000       0.00000000      11.76991000  F      -0.02591600       0.08894000       0.09680200
Cu       0.00000000       2.50303000      11.76991000  F      -0.05155600       0.03675100       0.08820900
Cu       2.50303000       2.50303000      11.76991000  F       0.06081800       0.02897000       0.08338000
Cu       5.00606000       2.50303000      11.76991000  F       0.02209000       0.00053900       0.07944400
Cu       7.50909000       2.50303000      11.76991000  F      -0.02174800      -0.01002300       0.10934700
Cu      10.01212000       2.50303000      11.76991000  F       0.03548700      -0.07047100       0.04480100
Cu       0.00000000       5.00606000      11.76991000  F      -0.05171200       0.02675400       0.07783500
Cu       2.50303000       5.00606000      11.76991000  F       0.07742700       0.02704100       0.13923100
Cu       5.00606000       5.00606000      11.76991000  F      -0.04069600       0.02201100       0.20417500
Cu       7.50909000       5.00606000      11.76991000  F      -0.06507900       0.00137600       0.12250300
Cu      10.01212000       5.00606000      11.76991000  F       0.03559900      -0.00705300       0.05216600
Cu       0.00000000       7.50909000      11.76991000  F      -0.01375200      -0.05647900       0.12229700
Cu       2.50303000       7.50909000      11.76991000  F       0.05707800      -0.03152400       0.08686200
Cu       5.00606000       7.50909000      11.76991000  F      -0.01151200       0.03446200       0.09011000
Cu       7.50909000       7.50909000      11.76991000  F      -0.01788100       0.00775400       0.08643100
Cu      10.01212000       7.50909000      11.76991000  F       0.05308100       0.06328600       0.03673200
Cu       0.00000000      10.01212000      11.76991000  F       0.02736200      -0.07935100       0.12133600
Cu       2.50303000      10.01212000      11.76991000  F       0.03005900      -0.04516400       0.06236400
Cu       5.00606000      10.01212000      11.76991000  F       0.02637500      -0.08800700       0.09103100
Cu       7.50909000      10.01212000      11.76991000  F       0.03201400      -0.05016700       0.07188500
Cu      10.01212000      10.01212000      11.76991000  F      -0.02871200      -0.08106600       0.08840900
Cu       1.26549000       1.24529000      13.57744000  T       0.00122100       0.00685700      -0.01880200
Cu       3.78866000       1.26951000      13.59810000  T       0.00503300       0.00468400      -0.00990200
Cu       6.28866000       1.29023000      13.61759000  T       0.00120800       0.00331600      -0.01001600
Cu       8.76695000       1.27787000      13.61737000  T      -0.00673900       0.00968500      -0.00608600
Cu      11.26693000       1.26116000      13.60475000  T      -0.00589700       0.00746300      -0.01192500
Cu       1.25321000       3.76121000      13.57993000  T       0.00626700       0.00553300      -0.01163800
Cu       3.75961000       3.76075000      13.60516000  T       0.00601700       0.00117500      -0.00680500
Cu       6.26765000       3.78032000      13.59644000  T       0.00132400      -0.00291200      -0.00598800
Cu       8.74316000       3.76209000      13.56030000  T      -0.00074100       0.00092800       0.00329700
Cu      11.23000000       3.75484000      13.60102000  T      -0.00414100       0.00504800      -0.00876000
Cu       1.26752000       6.24986000      13.60283000  T       0.00480600      -0.00107300      -0.01472300
Cu       3.74669000       6.27950000      13.61126000  T       0.00904400      -0.00239000      -0.00454900
Cu       6.26813000       6.24303000      13.58930000  T       0.00372000       0.00157600      -0.00609300
Cu       8.74616000       6.24607000      13.55591000  T      -0.00078600       0.00094900       0.00426900
Cu      11.23436000       6.25014000      13.59954000  T      -0.00430200      -0.00364800      -0.00950400
Cu       1.28705000       8.75038000      13.59908000  T       0.00339600      -0.00686900      -0.01566700
Cu       3.77979000       8.75245000      13.61623000  T       0.00297700      -0.00938200      -0.00749300
Cu       6.29278000       8.74418000      13.60049000  T      -0.00185900      -0.00573100      -0.00988800
Cu       8.77030000       8.73340000      13.61218000  T      -0.00684900      -0.01100000      -0.00568300
Cu      11.26790000       8.75558000      13.59685000  T      -0.00641100      -0.00656200      -0.01359100
Cu       1.24173000      11.26151000      13.59181000  T       0.00430900       0.00056900      -0.01993500
Cu       3.74391000      11.27249000      13.56957000  T       0.00686800      -0.00181000      -0.01792600
Cu       6.25672000      11.27664000      13.56606000  T       0.00030600      -0.00211400      -0.01568600
Cu       8.76322000      11.26304000      13.57527000  T      -0.00509200      -0.00047200      -0.01835700
Cu      11.27046000      11.26637000      13.58292000  T      -0.00396400      -0.00010100      -0.02051700
Cu      12.51119000       0.00815000      15.37870000  T      -0.00002200       0.00227100      -0.02196900
Cu       2.50442000       0.00194000      15.37052000  T       0.00123500      -0.00164400      -0.02133200
Cu       5.00067000      12.50747000      15.35914000  T       0.00012800      -0.00153300      -0.01900900
Cu       7.50404000      12.49080000      15.35408000  T       0.00162200       0.00548100      -0.01924500
Cu      10.01159000      12.49363000      15.36536000  T       0.00136100       0.00085400      -0.02299000
Cu       0.07478000       2.51033000      15.36438000  T      -0.00509400       0.00069500      -0.01933200
Cu       2.53360000       2.45593000      15.36695000  T       0.00429000       0.00196300      -0.01886100
Cu       5.01382000       2.44727000      15.46524000  T      -0.00433800      -0.00620100      -0.01410300
Cu       7.57028000       2.50426000      15.48342000  T      -0.01095500       0.01067700       0.00102300
Cu      10.11858000       2.45120000      15.45296000  T      -0.00793400       0.00288300      -0.01409600
Cu      12.45804000       5.00215000      15.33653000  T       0.00140400       0.00095600      -0.01889600
Cu       2.37145000       4.90874000      15.47893000  T       0.01789300      -0.00176100      -0.01800300
Pd       4.89800000       5.04943000      15.54963000  T       0.01387700      -0.00657000      -0.01135000
Y        7.48883000       4.99867000      17.22348000  T      -0.00838700      -0.00018800      -0.01640100
Cu       9.96354000       5.00422000      15.43682000  T      -0.01287200       0.00089300       0.00831700
Cu       0.03798000       7.50684000      15.34026000  T      -0.00453900       0.00219400      -0.02153000
Cu       2.51901000       7.57531000      15.45807000  T       0.00673900      -0.00488900      -0.00961400
Cu       5.08014000       7.63191000      15.43393000  T      -0.00491800      -0.00534500      -0.01221800
Cu       7.59490000       7.50381000      15.48096000  T      -0.01411900      -0.01182700       0.00457600
Cu      10.10977000       7.56042000      15.45031000  T      -0.01041800      -0.00271800      -0.01546500
Cu      12.51420000      10.00485000      15.37421000  T      -0.00096100       0.00214100      -0.02353500
Cu       2.50941000      10.05203000      15.36622000  T       0.00032100      -0.00453100      -0.02034900
Cu       5.01040000      10.07244000      15.35043000  T      -0.00006000      -0.01047500      -0.01743000
Cu       7.50602000      10.02527000      15.34956000  T       0.00036500      -0.00610900      -0.01849900
Cu      10.01414000      10.02998000      15.36216000  T       0.00067700      -0.00126800      -0.02325500
O        6.16419000       3.39033000      16.67649000  T       0.00404300       0.00702100      -0.01709200
O        6.17535000       6.62125000      16.67317000  T       0.00497600      -0.00943500      -0.01828600
O        9.02673000       6.43114000      16.56186000  T      -0.01867900      -0.00691900      -0.01799100
O        9.01729000       3.56374000      16.55648000  T      -0.01690200       0.01093500      -0.01746900
C        3.23172000       5.61134000      17.14539000  T      -0.06825800      -0.01339100      -0.01104500
O        3.59877000       4.92064000      18.25708000  T      -0.05836700      -0.02036700      -0.01606500
O        2.96326000       6.83983000      17.32477000  T      -0.01283300      -0.00431200       0.00092800
H        3.60049000       5.58072000      18.99362000  T      -0.04291200      -0.03269400       0.00442300
108
Lattice="12.515153631 0.0 0.0 0.0 12.515153631 0.0 0.0 0.0 25.30973" Properties=species:S:1:pos:R:3:move_mask:L:1:forces:R:3 stress="0.007743534538536191 2.303116867450922e-06 0.00029808823434305853 2.303116867450922e-06 0.007719785596312204 0.0001437981287512244 0.00029808823434305853 0.0001437981287512244 0.0021733496512146835" free_energy=-445.19423326 energy=-445.19431144 pbc="T T T"
Cu       1.25152000       1.25152000      10.00000000  F       0.00541700       0.00477800      -0.06193000
Cu       3.75455000       1.25152000      10.00000000  F       0.00544300       0.01852600      -0.06758700
Cu       6.25758000       1.25152000      10.00000000  F      -0.00901300       0.02592500      -0.06591000
Cu       8.76061000       1.25152000      10.00000000  F       0.01074200       0.00428000      -0.05294000
Cu      11.26364000       1.25152000      10.00000000  F      -0.01272400      -0.00401300      -0.07539000
Cu       1.25152000       3.75455000      10.00000000  F      -0.00420700       0.00314100      -0.07108100
Cu       3.75455000       3.75455000      10.00000000  F       0.01745400      -0.02044800      -0.05640700
Cu       6.25758000       3.75455000      10.00000000  F      -0.02024500      -0.02658900      -0.07848100
Cu       8.76061000       3.75455000      10.00000000  F       0.00770800      -0.01552300      -0.06785900
Cu      11.26364000       3.75455000      10.00000000  F       0.00276100       0.00067400      -0.06049200
Cu       1.25152000       6.25758000      10.00000000  F      -0.00622300      -0.00736500      -0.06181300
Cu       3.75455000       6.25758000      10.00000000  F       0.01684800       0.01505100      -0.04763600
Cu       6.25758000       6.25758000      10.00000000  F      -0.01821200       0.02255200      -0.07886300
Cu       8.76061000       6.25758000      10.00000000  F       0.00933700       0.01847800      -0.07702500
Cu      11.26364000       6.25758000      10.00000000  F       0.00173100      -0.00671500      -0.05691900
Cu       1.25152000       8.76061000      10.00000000  F       0.00733900       0.00588300      -0.06002300
Cu       3.75455000       8.76061000      10.00000000  F      -0.00571700      -0.01249500      -0.05641800
Cu       6.25758000       8.76061000      10.00000000  F       0.00415400      -0.02286000      -0.06039300
Cu       8.76061000       8.76061000      10.00000000  F       0.00089100      -0.01069300      -0.05337200
Cu      11.26364000       8.76061000      10.00000000  F      -0.00706200       0.00243300      -0.07113800
Cu       1.25152000      11.26364000      10.00000000  F       0.00954500      -0.00627800      -0.02332700
Cu       3.75455000      11.26364000      10.00000000  F      -0.01773800      -0.00069700      -0.06620900
Cu       6.25758000      11.26364000      10.00000000  F       0.00080300       0.00133900      -0.05454100
Cu       8.76061000      11.26364000      10.00000000  F       0.00999300       0.00262600      -0.06387100
Cu      11.26364000      11.26364000      10.00000000  F      -0.00455000       0.00691500      -0.04748200
Cu       0.00000000       0.00000000      11.76991000  F      -0.02186800       0.05871000       0.06289000
Cu       2.50303000       0.00000000      11.76991000  F       0.03548500       0.04704600       0.03689000
Cu       5.00606000       0.00000000      11.76991000  F       0.06318000       0.11349400       0.04189200
Cu       7.50909000       0.00000000      11.76991000  F       0.02120000       0.09077400       0.05579100
Cu      10.01212000       0.00000000      11.76991000  F      -0.03050700       0.09566500       0.07254000
Cu       0.00000000       2.50303000      11.76991000  F      -0.05313700       0.04394300       0.06523900
Cu       2.50303000       2.50303000      11.76991000  F       0.06586800       0.03172300       0.05615900
Cu       5.00606000       2.50303000      11.76991000  F       0.02431000       0.00350800       0.05546200
Cu       7.50909000       2.50303000      11.76991000  F      -0.02106600      -0.00417200       0.09061300
Cu      10.01212000       2.50303000      11.76991000  F       0.02979900      -0.06403200       0.02534100
Cu       0.00000000       5.00606000      11.76991000  F      -0.05446100       0.02690900       0.05982600
Cu       2.50303000       5.00606000      11.76991000  F       0.08475800       0.02815300       0.11635000
Cu       5.00606000       5.00606000      11.76991000  F      -0.03937900       0.02204600       0.18453900
Cu       7.50909000       5.00606000      11.76991000  F      -0.06151700       0.00007000       0.10883300
Cu      10.01212000       5.00606000      11.76991000  F       0.02837500      -0.00751700       0.03701700
Cu       0.00000000       7.50909000      11.76991000  F      -0.01454200      -0.06145700       0.10020100
Cu       2.50303000       7.50909000      11.76991000  F       0.06326300      -0.03554400       0.06029000
Cu       5.00606000       7.50909000      11.76991000  F      -0.01080800       0.03021200       0.06743400
Cu       7.50909000       7.50909000      11.76991000  F      -0.01643600       0.00191200       0.06465200
Cu      10.01212000       7.50909000      11.76991000  F       0.04745800       0.05701600       0.01528300
Cu       0.00000000      10.01212000      11.76991000  F       0.02763700      -0.08339800       0.09464600
Cu       2.50303000      10.01212000      11.76991000  F       0.03311800      -0.04852300       0.03616400
Cu       5.00606000      10.01212000      11.76991000  F       0.02687000      -0.09307100       0.06533400
Cu       7.50909000      10.01212000      11.76991000  F       0.03104900      -0.05659300       0.04708900
Cu      10.01212000      10.01212000      11.76991000  F      -0.03391500      -0.08602100       0.06406400
Cu       1.26564000       1.24709000      13.57034000  T      -0.00120200       0.00149600       0.00012300
Cu       3.78949000       1.27002000      13.59249000  T       0.00076100      -0.00069000      -0.00084400
Cu       6.28851000       1.29074000      13.61268000  T      -0.00067100      -0.00003300      -0.00023200
Cu       8.76523000       1.28023000      13.61295000  T      -0.00436800       0.00559400       0.00393900
Cu      11.26566000       1.26311000      13.59834000  T      -0.00577900       0.00379200       0.00182200
Cu       1.25514000       3.76242000      13.57472000  T       0.00004000       0.00175700      -0.00050400
Cu       3.76063000       3.76046000      13.60085000  T       0.00444100       0.00036900      -0.00329800
Cu       6.26825000       3.77909000      13.59244000  T       0.00345200      -0.00080700      -0.00394900
Cu       8.74275000       3.76265000      13.55946000  T      -0.00198800       0.00453100       0.00143500
Cu      11.22884000       3.75582000      13.59697000  T      -0.00178900       0.00489100       0.00251700
Cu       1.26954000       6.24976000      13.59693000  T       0.00063200      -0.00035500       0.00138400
Cu       3.74870000       6.27882000      13.60805000  T       0.00413800      -0.00605400       0.00171900
Cu       6.26975000       6.24346000      13.58510000  T       0.00330100      -0.00195200      -0.00292900
Cu       8.74577000       6.24597000      13.55514000  T      -0.00117700      -0.00548000       0.00201100
Cu      11.23299000       6.24942000      13.59515000  T      -0.00192000      -0.00403500       0.00361100
Cu       1.28761000       8.74885000      13.59237000  T       0.00002400      -0.00136100       0.00104700
Cu       3.78019000       8.75060000      13.61095000  T      -0.00238500      -0.00642600       0.00143800
Cu       6.29227000       8.74269000      13.59554000  T      -0.00387500      -0.00339700       0.00159100
Cu       8.76810000       8.73084000      13.60775000  T      -0.00543900      -0.00492200       0.00514900
Cu      11.26629000       8.75414000      13.59009000  T      -0.00450800      -0.00244500       0.00093300
Cu       1.24272000      11.26170000      13.58392000  T       0.00142500       0.00078000       0.00004900
Cu       3.74554000      11.27187000      13.56295000  T       0.00188700      -0.00311300      -0.00054800
Cu       6.25654000      11.27595000      13.55981000  T       0.00183400      -0.00133300       0.00371100
Cu       8.76189000      11.26308000      13.56805000  T      -0.00185600      -0.00023400       0.00133100
Cu      11.26994000      11.26669000      13.57516000  T      -0.00059400       0.00043800      -0.00293000
Cu      12.51138000       0.00966000      15.36602000  T       0.00140300      -0.00177100      -0.00547600
Cu       2.50525000       0.00183000      15.35812000  T      -0.00108000      -0.00361000       0.00046100
Cu       5.00135000      12.50600000      15.35008000  T      -0.00110500      -0.00527200      -0.00448600
Cu       7.50407000      12.49199000      15.34442000  T       0.00216000       0.00245500      -0.00142200
Cu      10.01136000      12.49365000      15.35366000  T       0.00241200       0.00258500      -0.00314000
Cu       0.07399000       2.51125000      15.35501000  T      -0.00810400      -0.00037000      -0.00792000
Cu       2.53383000       2.45639000      15.35814000  T      -0.00420200      -0.00511800      -0.00601700
Cu       5.01318000       2.44429000      15.45918000  T      -0.00924700      -0.00653900      -0.00487700
Cu       7.56620000       2.50744000      15.48113000  T       0.00009400      -0.01199900      -0.01190400
Cu      10.11629000       2.45189000      15.44594000  T      -0.00775200       0.00129200      -0.00336200
Cu      12.45997000       5.00265000      15.32610000  T      -0.00054800       0.00154300       0.00821200
Cu       2.37767000       4.90878000      15.47112000  T       0.00346200      -0.00548800      -0.01384700
Pd       4.90873000       5.04522000      15.53701000  T       0.02253200      -0.01093200      -0.01530700
Y        7.48713000       4.99843000      17.21630000  T      -0.00812500       0.00071000       0.01427600
Cu       9.96029000       5.00468000      15.43642000  T       0.01655500      -0.00113200      -0.00561200
Cu       0.03694000       7.50696000      15.33000000  T      -0.00587700       0.00448100      -0.00533500
Cu       2.52035000       7.57308000      15.45240000  T      -0.00256200       0.00040800       0.00056700
Cu       5.07908000       7.62973000      15.42753000  T      -0.01278400      -0.00591200      -0.00009400
Cu       7.58979000       7.50055000      15.48024000  T      -0.00119900       0.01280300      -0.01269900
Cu      10.10646000       7.55982000      15.44264000  T      -0.00585600      -0.00091800      -0.00179200
Cu      12.51405000      10.00528000      15.36104000  T       0.00022100       0.00415500      -0.00325800
Cu       2.50984000      10.05044000      15.35506000  T      -0.00127800      -0.00208600      -0.00251400
Cu       5.01070000      10.06983000      15.34196000  T      -0.00192500      -0.00530500      -0.00466800
Cu       7.50568000      10.02391000      15.34017000  T       0.00150600       0.00012000      -0.00084200
Cu      10.01356000      10.02989000      15.35015000  T       0.00230600      -0.00071100      -0.00290100
O        6.15822000       3.39239000      16.67260000  T       0.00362900      -0.00759900      -0.01368000
O        6.16879000       6.61746000      16.66998000  T       0.00489300       0.00402400      -0.01412600
O        9.02236000       6.43348000      16.55817000  T      -0.00797100      -0.01262000      -0.01551000
O        9.01398000       3.56216000      16.55224000  T      -0.01042300       0.01270600      -0.01583100
C        3.20659000       5.60690000      17.14523000  T      -0.06399300      -0.00267800      -0.00047300
O        3.57272000       4.91061000      18.25271000  T      -0.06270200      -0.02182600      -0.01206800
O        2.95606000       6.83826000      17.32396000  T      -0.02068700       0.00192200       0.01207900
H        3.58131000       5.56558000      18.99406000  T      -0.03734500      -0.02811200      -0.01244000
108
Lattice="12.515153631 0.0 0.0 0.0 12.515153631 0.0 0.0 0.0 25.30973" Properties=species:S:1:pos:R:3:move_mask:L:1:forces:R:3 stress="0.007633540423210751 5.5736676494137506e-06 0.0002997359927522917 5.5736676494137506e-06 0.007604348885028994 0.0001348852537194631 0.0002997359927522917 0.0001348852537194631 0.00200598982551325" free_energy=-445.19815714 energy=-445.19828084 pbc="T T T"
Cu       1.25152000       1.25152000      10.00000000  F       0.00513500       0.00488400      -0.06222800
Cu       3.75455000       1.25152000      10.00000000  F       0.00518000       0.01864400      -0.06810900
Cu       6.25758000       1.25152000      10.00000000  F      -0.00885600       0.02577600      -0.06658200
Cu       8.76061000       1.25152000      10.00000000  F       0.01083400       0.00412100      -0.05302200
Cu      11.26364000       1.25152000      10.00000000  F      -0.01284600      -0.00407400      -0.07556400
Cu       1.25152000       3.75455000      10.00000000  F      -0.00456800       0.00322700      -0.07110600
Cu       3.75455000       3.75455000      10.00000000  F       0.01716600      -0.02043100      -0.05660100
Cu       6.25758000       3.75455000      10.00000000  F      -0.02025800      -0.02637500      -0.07889200
Cu       8.76061000       3.75455000      10.00000000  F       0.00781400      -0.01534200      -0.06823500
Cu      11.26364000       3.75455000      10.00000000  F       0.00281000       0.00081100      -0.06064800
Cu       1.25152000       6.25758000      10.00000000  F      -0.00652900      -0.00708900      -0.06183000
Cu       3.75455000       6.25758000      10.00000000  F       0.01648900       0.01542400      -0.04783400
Cu       6.25758000       6.25758000      10.00000000  F      -0.01823700       0.02267600      -0.07913400
Cu       8.76061000       6.25758000      10.00000000  F       0.00946600       0.01867100      -0.07734000
Cu      11.26364000       6.25758000      10.00000000  F       0.00174600      -0.00647200      -0.05686600
Cu       1.25152000       8.76061000      10.00000000  F       0.00703300       0.00597800      -0.06017600
Cu       3.75455000       8.76061000      10.00000000  F      -0.00603800      -0.01245900      -0.05683200
Cu       6.25758000       8.76061000      10.00000000  F       0.00427300      -0.02256000      -0.06078600
Cu       8.76061000       8.76061000      10.00000000  F       0.00106500      -0.01045600      -0.05337700
Cu      11.26364000       8.76061000      10.00000000  F      -0.00713200       0.00269500      -0.07097900
Cu       1.25152000      11.26364000      10.00000000  F       0.00912000      -0.00641500      -0.02329300
Cu       3.75455000      11.26364000      10.00000000  F      -0.01793800      -0.00077800      -0.06649100
Cu       6.25758000      11.26364000      10.00000000  F       0.00093100       0.00132400      -0.05504600
Cu       8.76061000      11.26364000      10.00000000  F       0.01008300       0.00263200      -0.06430100
Cu      11.26364000      11.26364000      10.00000000  F      -0.00461300       0.00677400      -0.04749200
Cu       0.00000000       0.00000000      11.76991000  F      -0.02272500       0.05999200       0.05645300
Cu       2.50303000       0.00000000      11.76991000  F       0.03579700       0.04759100       0.03050600
Cu       5.00606000       0.00000000      11.76991000  F       0.06413900       0.11392600       0.03554300
Cu       7.50909000       0.00000000      11.76991000  F       0.02153000       0.09228300       0.05015700
Cu      10.01212000       0.00000000      11.76991000  F      -0.03217400       0.09776200       0.06710300
Cu       0.00000000       2.50303000      11.76991000  F      -0.05443100       0.04610300       0.06013100
Cu       2.50303000       2.50303000      11.76991000  F       0.06669000       0.03248000       0.04933900
Cu       5.00606000       2.50303000      11.76991000  F       0.02506400       0.00412800       0.04876900
Cu       7.50909000       2.50303000      11.76991000  F      -0.02009100      -0.00254600       0.08561000
Cu      10.01212000       2.50303000      11.76991000  F       0.02825200      -0.06204900       0.02114300
Cu       0.00000000       5.00606000      11.76991000  F      -0.05563800       0.02746600       0.05534900
Cu       2.50303000       5.00606000      11.76991000  F       0.08614200       0.02900000       0.11060900
Cu       5.00606000       5.00606000      11.76991000  F      -0.03884800       0.02255300       0.17836000
Cu       7.50909000       5.00606000      11.76991000  F      -0.05984100       0.00013100       0.10444300
Cu      10.01212000       5.00606000      11.76991000  F       0.02663100      -0.00720200       0.03298100
Cu       0.00000000       7.50909000      11.76991000  F      -0.01552500      -0.06269800       0.09537900
Cu       2.50303000       7.50909000      11.76991000  F       0.06450700      -0.03681100       0.05396600
Cu       5.00606000       7.50909000      11.76991000  F      -0.01076400       0.02917500       0.06167100
Cu       7.50909000       7.50909000      11.76991000  F      -0.01534300       0.00062700       0.05941800
Cu      10.01212000       7.50909000      11.76991000  F       0.04585300       0.05541500       0.01092900
Cu       0.00000000      10.01212000      11.76991000  F       0.02727900      -0.08485900       0.08845200
Cu       2.50303000      10.01212000      11.76991000  F       0.03328500      -0.04985100       0.02992700
Cu       5.00606000      10.01212000      11.76991000  F       0.02719600      -0.09479900       0.05943900
Cu       7.50909000      10.01212000      11.76991000  F       0.03130500      -0.05877300       0.04158700
Cu      10.01212000      10.01212000      11.76991000  F      -0.03581300      -0.08798600       0.05863800
Cu       1.26562000       1.24764000      13.56871000  T      -0.00264600      -0.00098500       0.00362700
Cu       3.78977000       1.27017000      13.59120000  T      -0.00212300      -0.00339000       0.00015500
Cu       6.28847000       1.29091000      13.61157000  T      -0.00185000      -0.00212700       0.00044100
Cu       8.76453000       1.28117000      13.61227000  T      -0.00084500       0.00137400       0.00194500
Cu      11.26499000       1.26382000      13.59703000  T      -0.00384600       0.00131200       0.00270700
Cu       1.25561000       3.76285000      13.57353000  T      -0.00297100      -0.00022200       0.00083000
Cu       3.76118000       3.76047000      13.59971000  T       0.00111200      -0.00165700      -0.00285100
Cu       6.26859000       3.77880000      13.59135000  T       0.00396000      -0.00144700      -0.00419400
Cu       8.74253000       3.76305000      13.55943000  T      -0.00108700       0.00433600      -0.00095500
Cu      11.22843000       3.75638000      13.59623000  T       0.00042000       0.00245000       0.00295500
Cu       1.27004000       6.24969000      13.59565000  T      -0.00149200       0.00083500       0.00433800
Cu       3.74945000       6.27830000      13.60744000  T       0.00050200      -0.00451600       0.00239800
Cu       6.27031000       6.24342000      13.58401000  T       0.00298300      -0.00074100      -0.00277700
Cu       8.74561000       6.24563000      13.55516000  T      -0.00037000      -0.00508600      -0.00051100
Cu      11.23252000       6.24898000      13.59439000  T       0.00045600      -0.00108400       0.00425800
Cu       1.28776000       8.74837000      13.59090000  T      -0.00229000       0.00114200       0.00367800
Cu       3.78018000       8.74975000      13.60988000  T      -0.00434200      -0.00390100       0.00130500
Cu       6.29195000       8.74212000      13.59451000  T      -0.00395900      -0.00140900       0.00298800
Cu       8.76725000       8.72988000      13.60711000  T      -0.00190700      -0.00040900       0.00293800
Cu      11.26563000       8.75362000      13.58863000  T      -0.00293400       0.00001000       0.00284200
Cu       1.24304000      11.26179000      13.58211000  T       0.00004300       0.00024600       0.00370000
Cu       3.74606000      11.27155000      13.56138000  T      -0.00098100      -0.00317700       0.00326800
Cu       6.25661000      11.27572000      13.55858000  T       0.00195200      -0.00130000       0.00641800
Cu       8.76143000      11.26307000      13.56645000  T       0.00114200      -0.00013500       0.00525700
Cu      11.26976000      11.26677000      13.57318000  T       0.00031800       0.00036000       0.00185600
Cu      12.51150000       0.00989000      15.36283000  T       0.00104400      -0.00192900       0.00010900
Cu       2.50536000       0.00160000      15.35534000  T      -0.00112100      -0.00363500       0.00635900
Cu       5.00142000      12.50540000      15.34774000  T      -0.00090100      -0.00605900       0.00178600
Cu       7.50422000      12.49248000      15.34211000  T       0.00182200      -0.00103700       0.00493300
Cu      10.01145000      12.49382000      15.35080000  T       0.00226700       0.00148400       0.00323300
Cu       0.07332000       2.51143000      15.35240000  T      -0.00761200       0.00008600      -0.00241900
Cu       2.53370000       2.45622000      15.35576000  T      -0.00765900      -0.00605200       0.00012000
Cu       5.01246000       2.44324000      15.45748000  T      -0.00839600      -0.00586900      -0.00071200
Cu       7.56530000       2.50748000      15.47995000  T       0.00055100      -0.01280700      -0.01057800
Cu      10.11527000       2.45216000      15.44415000  T      -0.00560500       0.00104000       0.00141200
Cu      12.46029000       5.00285000      15.32417000  T       0.00223200       0.00190700       0.01433100
Cu       2.37920000       4.90843000      15.46846000  T       0.00290500      -0.00328500      -0.00579800
Pd       4.91252000       5.04360000      15.53316000  T       0.03968900      -0.01775500      -0.03025900
Y        7.48619000       4.99841000      17.21558000  T      -0.01512200      -0.00001500       0.00873800
Cu       9.96047000       5.00471000      15.43604000  T       0.01803300      -0.00063500      -0.00521100
Cu       0.03635000       7.50725000      15.32731000  T      -0.00541900       0.00408000       0.00133300
Cu       2.52058000       7.57261000      15.45113000  T      -0.00626700       0.00092500       0.00429500
Cu       5.07807000       7.62893000      15.42607000  T      -0.01144400      -0.00666200       0.00343700
Cu       7.58859000       7.50053000      15.47936000  T       0.00008000       0.01369400      -0.01177100
Cu      10.10532000       7.55960000      15.44078000  T      -0.00316300      -0.00054600       0.00364200
Cu      12.51403000      10.00563000      15.35785000  T       0.00005400       0.00312400       0.00292000
Cu       2.50984000      10.04995000      15.35237000  T      -0.00130400      -0.00130900       0.00349500
Cu       5.01065000      10.06889000      15.33974000  T      -0.00190900      -0.00343100       0.00086100
Cu       7.50571000      10.02353000      15.33796000  T       0.00118700       0.00391000       0.00476400
Cu      10.01358000      10.02981000      15.34723000  T       0.00209900       0.00019000       0.00342800
O        6.15722000       3.39239000      16.67086000  T       0.00346600      -0.00788900      -0.00813200
O        6.16778000       6.61688000      16.66837000  T       0.00512100       0.00587100      -0.00982700
O        9.02090000       6.43323000      16.55636000  T      -0.00410700      -0.01226600      -0.01124800
O        9.01264000       3.56260000      16.55028000  T      -0.00770600       0.01155900      -0.01085600
C        3.19734000       5.60576000      17.14521000  T      -0.06719400      -0.00549000       0.00502400
O        3.56347000       4.90714000      18.25106000  T      -0.06867900      -0.02633200      -0.02463200
O        2.95334000       6.83805000      17.32440000  T      -0.02631500       0.00207700       0.01207200
H        3.57484000       5.56059000      18.99343000  T      -0.03448400      -0.01967200      -0.00460400
108
Lattice="12.515153631 0.0 0.0 0.0 12.515153631 0.0 0.0 0.0 25.30973" Properties=species:S:1:pos:R:3:move_mask:L:1:forces:R:3 stress="0.00754263284279226 7.152769458262215e-06 0.0002946928533785781 7.152769458262215e-06 0.007490347720844735 0.0001215034581535694 0.0002946928533785781 0.0001215034581535694 0.0018158360084840903" free_energy=-445.201203 energy=-445.20141532 pbc="T T T"
Cu       1.25152000       1.25152000      10.00000000  F       0.00445000       0.00498800      -0.06244600
Cu       3.75455000       1.25152000      10.00000000  F       0.00461400       0.01873800      -0.06864800
Cu       6.25758000       1.25152000      10.00000000  F      -0.00884000       0.02524300      -0.06708000
Cu       8.76061000       1.25152000      10.00000000  F       0.01035000       0.00369000      -0.05241800
Cu      11.26364000       1.25152000      10.00000000  F      -0.01357200      -0.00433900      -0.07538900
Cu       1.25152000       3.75455000      10.00000000  F      -0.00530700       0.00271100      -0.07106300
Cu       3.75455000       3.75455000      10.00000000  F       0.01653300      -0.02101200      -0.05679400
Cu       6.25758000       3.75455000      10.00000000  F      -0.02071100      -0.02640900      -0.07911300
Cu       8.76061000       3.75455000      10.00000000  F       0.00737000      -0.01557500      -0.06865700
Cu      11.26364000       3.75455000      10.00000000  F       0.00245200       0.00042900      -0.06072600
Cu       1.25152000       6.25758000      10.00000000  F      -0.00708400      -0.00717200      -0.06198100
Cu       3.75455000       6.25758000      10.00000000  F       0.01581400       0.01561000      -0.04805100
Cu       6.25758000       6.25758000      10.00000000  F      -0.01865200       0.02235900      -0.07925000
Cu       8.76061000       6.25758000      10.00000000  F       0.00897000       0.01844400      -0.07796400
Cu      11.26364000       6.25758000      10.00000000  F       0.00119000      -0.00668000      -0.05686700
Cu       1.25152000       8.76061000      10.00000000  F       0.00652500       0.00598100      -0.06071100
Cu       3.75455000       8.76061000      10.00000000  F      -0.00659600      -0.01257900      -0.05755600
Cu       6.25758000       8.76061000      10.00000000  F       0.00412000      -0.02209900      -0.06114700
Cu       8.76061000       8.76061000      10.00000000  F       0.00059600      -0.01018600      -0.05304600
Cu      11.26364000       8.76061000      10.00000000  F      -0.00785500       0.00309600      -0.07079700
Cu       1.25152000      11.26364000      10.00000000  F       0.00827300      -0.00649600      -0.02305500
Cu       3.75455000      11.26364000      10.00000000  F      -0.01828400      -0.00083200      -0.06660700
Cu       6.25758000      11.26364000      10.00000000  F       0.00081000       0.00130300      -0.05524700
Cu       8.76061000      11.26364000      10.00000000  F       0.00954200       0.00281100      -0.06463700
Cu      11.26364000      11.26364000      10.00000000  F      -0.00528800       0.00672200      -0.04715500
Cu       0.00000000       0.00000000      11.76991000  F      -0.02446500       0.06229000       0.04444900
Cu       2.50303000       0.00000000      11.76991000  F       0.03627700       0.04809100       0.01896600
Cu       5.00606000       0.00000000      11.76991000  F       0.06592000       0.11318800       0.02443600
Cu       7.50909000       0.00000000      11.76991000  F       0.02121300       0.09410400       0.04030000
Cu      10.01212000       0.00000000      11.76991000  F      -0.03625400       0.10118700       0.05654700
Cu       0.00000000       2.50303000      11.76991000  F      -0.05707500       0.04939800       0.04980500
Cu       2.50303000       2.50303000      11.76991000  F       0.06791900       0.03238800       0.03585100
Cu       5.00606000       2.50303000      11.76991000  F       0.02586100       0.00399600       0.03581200
Cu       7.50909000       2.50303000      11.76991000  F      -0.01924700      -0.00084200       0.07535800
Cu      10.01212000       2.50303000      11.76991000  F       0.02488700      -0.05864600       0.01248800
Cu       0.00000000       5.00606000      11.76991000  F      -0.05784000       0.02807500       0.04642200
Cu       2.50303000       5.00606000      11.76991000  F       0.08876700       0.03002000       0.10019600
Cu       5.00606000       5.00606000      11.76991000  F      -0.03841600       0.02278900       0.16609200
Cu       7.50909000       5.00606000      11.76991000  F      -0.05792600      -0.00030600       0.09386200
Cu      10.01212000       5.00606000      11.76991000  F       0.02363000      -0.00721700       0.02438900
Cu       0.00000000       7.50909000      11.76991000  F      -0.01756700      -0.06522200       0.08643000
Cu       2.50303000       7.50909000      11.76991000  F       0.06674500      -0.03984500       0.04233700
Cu       5.00606000       7.50909000      11.76991000  F      -0.01114700       0.02670700       0.05124600
Cu       7.50909000       7.50909000      11.76991000  F      -0.01442400      -0.00136000       0.04945400
Cu      10.01212000       7.50909000      11.76991000  F       0.04207800       0.05202200       0.00275100
Cu       0.00000000      10.01212000      11.76991000  F       0.02631200      -0.08705400       0.07721900
Cu       2.50303000      10.01212000      11.76991000  F       0.03355800      -0.05206200       0.01875500
Cu       5.00606000      10.01212000      11.76991000  F       0.02785000      -0.09766400       0.04960100
Cu       7.50909000      10.01212000      11.76991000  F       0.03067700      -0.06239000       0.03234400
Cu      10.01212000      10.01212000      11.76991000  F      -0.04059200      -0.09080300       0.04853300
Cu       1.26527000       1.24848000      13.56560000  T      -0.00419900      -0.00506400       0.00713200
Cu       3.78997000       1.26991000      13.58843000  T      -0.00617100      -0.00750600       0.00313100
Cu       6.28814000       1.29082000      13.60918000  T      -0.00415400      -0.00642300       0.00213300
Cu       8.76328000       1.28280000      13.61054000  T       0.00247600      -0.00610000      -0.00104500
Cu      11.26349000       1.26517000      13.59429000  T      -0.00090000      -0.00315700       0.00366700
Cu       1.25623000       3.76355000      13.57103000  T      -0.00532900      -0.00302200       0.00292300
Cu       3.76209000       3.76007000      13.59710000  T      -0.00400400      -0.00604200       0.00076600
Cu       6.26954000       3.77790000      13.58858000  T       0.00181300      -0.00411300      -0.00447600
Cu       8.74214000       3.76404000      13.55899000  T       0.00056900       0.00078300      -0.00396300
Cu      11.22780000       3.75748000      13.59473000  T       0.00385200      -0.00111200       0.00332000
Cu       1.27086000       6.24971000      13.59331000  T      -0.00427200       0.00232900       0.00746200
Cu       3.75079000       6.27702000      13.60629000  T      -0.00424000      -0.00255000       0.00469300
Cu       6.27167000       6.24344000      13.58139000  T       0.00026500       0.00175700      -0.00238400
Cu       8.74534000       6.24472000      13.55486000  T       0.00061000      -0.00153200      -0.00347700
Cu      11.23179000       6.24825000      13.59295000  T       0.00428300       0.00275000       0.00467200
Cu       1.28772000       8.74763000      13.58807000  T      -0.00538200       0.00439600       0.00698500
Cu       3.77971000       8.74790000      13.60756000  T      -0.00648300      -0.00022100       0.00274500
Cu       6.29099000       8.74100000      13.59254000  T      -0.00425500       0.00233100       0.00580200
Cu       8.76557000       8.72825000      13.60558000  T       0.00178400       0.00658000       0.00011600
Cu      11.26412000       8.75275000      13.58568000  T      -0.00113100       0.00395900       0.00564400
Cu       1.24363000      11.26194000      13.57864000  T      -0.00146500      -0.00065200       0.00823000
Cu       3.74692000      11.27061000      13.55847000  T      -0.00394700      -0.00334000       0.00815400
Cu       6.25690000      11.27510000      13.55645000  T       0.00072000      -0.00143600       0.00849000
Cu       8.76079000      11.26304000      13.56355000  T       0.00414900       0.00025500       0.00936900
Cu      11.26945000      11.26700000      13.56936000  T       0.00116200       0.00049000       0.00807100
Cu      12.51179000       0.01027000      15.35620000  T       0.00050700      -0.00230200       0.00955000
Cu       2.50560000       0.00082000      15.34993000  T      -0.00037700      -0.00433900       0.01371000
Cu       5.00159000      12.50358000      15.34315000  T      -0.00082200      -0.00658900       0.01016500
Cu       7.50460000      12.49309000      15.33778000  T       0.00024300      -0.00544800       0.01289400
Cu      10.01175000      12.49417000      15.34512000  T       0.00089000       0.00001700       0.01210200
Cu       0.07140000       2.51184000      15.34692000  T      -0.00726400      -0.00023600       0.00585600
Cu       2.53259000       2.45533000      15.35096000  T      -0.01165300      -0.00765000       0.00703900
Cu       5.01062000       2.44065000      15.45413000  T      -0.00604900      -0.00425000       0.00571600
Cu       7.56330000       2.50684000      15.47683000  T      -0.00196700      -0.01119200      -0.00659000
Cu      10.11285000       2.45275000      15.44057000  T      -0.00347900      -0.00047400       0.00692500
Cu      12.46149000       5.00342000      15.32114000  T       0.00727000       0.00191400       0.02000400
Cu       2.38295000       4.90762000      15.46264000  T       0.00535200      -0.00188100       0.00007800
Pd       4.92182000       5.03978000      15.52454000  T       0.04272700      -0.01758500      -0.02805500
Y        7.48441000       4.99838000      17.21444000  T      -0.00894900       0.00025400       0.00563500
Cu       9.96199000       5.00478000      15.43494000  T       0.01667900      -0.00027000      -0.00307000
Cu       0.03470000       7.50809000      15.32203000  T      -0.00534100       0.00375000       0.01175000
Cu       2.52029000       7.57166000      15.44891000  T      -0.01131800       0.00241200       0.00927800
Cu       5.07530000       7.62665000      15.42320000  T      -0.00954300      -0.00734700       0.00589500
Cu       7.58596000       7.50125000      15.47684000  T      -0.00153400       0.01126000      -0.00746800
Cu      10.10280000       7.55913000      15.43724000  T      -0.00014500       0.00111000       0.01000000
Cu      12.51394000      10.00646000      15.35142000  T      -0.00040100       0.00138800       0.01173600
Cu       2.50982000      10.04884000      15.34709000  T      -0.00085700      -0.00053900       0.01204700
Cu       5.01047000      10.06672000      15.33534000  T      -0.00196100      -0.00319200       0.00923600
Cu       7.50579000      10.02330000      15.33379000  T      -0.00027900       0.00784000       0.01223000
Cu      10.01366000      10.02971000      15.34143000  T       0.00046600       0.00098800       0.01249500
O        6.15493000       3.39233000      16.66735000  T       0.00087600      -0.00254500       0.00393700
O        6.16530000       6.61557000      16.66507000  T       0.00142800       0.00293200       0.00261200
O        9.01767000       6.43225000      16.55214000  T       0.00025900      -0.00653800       0.00013500
O        9.00942000       3.56388000      16.54580000  T      -0.00247300       0.00473200       0.00125200
C        3.17324000       5.60338000      17.14553000  T      -0.06056800      -0.00285200       0.00850100
O        3.53913000       4.89833000      18.24663000  T      -0.05357800      -0.01566400      -0.01286900
O        2.94582000       6.83772000      17.32645000  T      -0.02134800       0.00602800       0.01483800
H        3.55888000       5.54848000      18.99170000  T      -0.02870100      -0.01668200      -0.00296400
108
Lattice="12.515153631 0.0 0.0 0.0 12.515153631 0.0 0.0 0.0 25.30973" Properties=species:S:1:pos:R:3:move_mask:L:1:forces:R:3 stress="0.007535954428027566 8.675697684977729e-06 0.00029259570631228127 8.675697684977729e-06 0.007483819102299061 0.00012090427327748459 0.00029259570631228127 0.00012090427327748459 0.0018157299028289504" free_energy=-445.20041927 energy=-445.20063344 pbc="T T T"
Cu       1.25152000       1.25152000      10.00000000  F       0.00516100       0.00538400      -0.06217400
Cu       3.75455000       1.25152000      10.00000000  F       0.00513900       0.01906100      -0.06793000
Cu       6.25758000       1.25152000      10.00000000  F      -0.00866400       0.02547900      -0.06640600
Cu       8.76061000       1.25152000      10.00000000  F       0.01029400       0.00402100      -0.05200700
Cu      11.26364000       1.25152000      10.00000000  F      -0.01326500      -0.00391200      -0.07532000
Cu       1.25152000       3.75455000      10.00000000  F      -0.00474800       0.00301900      -0.07031100
Cu       3.75455000       3.75455000      10.00000000  F       0.01701200      -0.02079400      -0.05584400
Cu       6.25758000       3.75455000      10.00000000  F      -0.02053600      -0.02614500      -0.07828700
Cu       8.76061000       3.75455000      10.00000000  F       0.00745600      -0.01520200      -0.06806800
Cu      11.26364000       3.75455000      10.00000000  F       0.00281300       0.00082400      -0.06021500
Cu       1.25152000       6.25758000      10.00000000  F      -0.00652400      -0.00738000      -0.06109100
Cu       3.75455000       6.25758000      10.00000000  F       0.01625200       0.01545700      -0.04704100
Cu       6.25758000       6.25758000      10.00000000  F      -0.01843400       0.02217100      -0.07835000
Cu       8.76061000       6.25758000      10.00000000  F       0.00908700       0.01822400      -0.07730700
Cu      11.26364000       6.25758000      10.00000000  F       0.00151600      -0.00692300      -0.05616400
Cu       1.25152000       8.76061000      10.00000000  F       0.00719700       0.00546200      -0.06022600
Cu       3.75455000       8.76061000      10.00000000  F      -0.00610000      -0.01301600      -0.05675200
Cu       6.25758000       8.76061000      10.00000000  F       0.00432800      -0.02246500      -0.06039200
Cu       8.76061000       8.76061000      10.00000000  F       0.00058800      -0.01071500      -0.05250800
Cu      11.26364000       8.76061000      10.00000000  F      -0.00754400       0.00252200      -0.07048100
Cu       1.25152000      11.26364000      10.00000000  F       0.00902400      -0.00667500      -0.02276000
Cu       3.75455000      11.26364000      10.00000000  F      -0.01772700      -0.00097700      -0.06588900
Cu       6.25758000      11.26364000      10.00000000  F       0.00093100       0.00116400      -0.05458900
Cu       8.76061000      11.26364000      10.00000000  F       0.00944400       0.00267700      -0.06453700
Cu      11.26364000      11.26364000      10.00000000  F      -0.00497800       0.00652400      -0.04716900
Cu       0.00000000       0.00000000      11.76991000  F      -0.02377100       0.06225500       0.04577500
Cu       2.50303000       0.00000000      11.76991000  F       0.03680200       0.04782200       0.02016000
Cu       5.00606000       0.00000000      11.76991000  F       0.06612700       0.11241500       0.02559800
Cu       7.50909000       0.00000000      11.76991000  F       0.02101000       0.09363800       0.04153100
Cu      10.01212000       0.00000000      11.76991000  F      -0.03610000       0.10104000       0.05760300
Cu       0.00000000       2.50303000      11.76991000  F      -0.05659500       0.04979000       0.05083000
Cu       2.50303000       2.50303000      11.76991000  F       0.06813800       0.03219400       0.03666600
Cu       5.00606000       2.50303000      11.76991000  F       0.02573200       0.00353100       0.03634100
Cu       7.50909000       2.50303000      11.76991000  F      -0.01919500      -0.00101600       0.07600700
Cu      10.01212000       2.50303000      11.76991000  F       0.02536100      -0.05791900       0.01373700
Cu       0.00000000       5.00606000      11.76991000  F      -0.05737000       0.02835900       0.04754100
Cu       2.50303000       5.00606000      11.76991000  F       0.08896400       0.03017600       0.10152100
Cu       5.00606000       5.00606000      11.76991000  F      -0.03866700       0.02275800       0.16620500
Cu       7.50909000       5.00606000      11.76991000  F      -0.05765700      -0.00025300       0.09362200
Cu      10.01212000       5.00606000      11.76991000  F       0.02462700      -0.00703300       0.02549000
Cu       0.00000000       7.50909000      11.76991000  F      -0.01712100      -0.06568700       0.08767300
Cu       2.50303000       7.50909000      11.76991000  F       0.06688700      -0.04040800       0.04357300
Cu       5.00606000       7.50909000      11.76991000  F      -0.01127500       0.02652800       0.05197500
Cu       7.50909000       7.50909000      11.76991000  F      -0.01438100      -0.00127400       0.05023600
Cu      10.01212000       7.50909000      11.76991000  F       0.04260800       0.05137700       0.00411200
Cu       0.00000000      10.01212000      11.76991000  F       0.02688500      -0.08733700       0.07852100
Cu       2.50303000      10.01212000      11.76991000  F       0.03402300      -0.05239000       0.01986900
Cu       5.00606000      10.01212000      11.76991000  F       0.02808300      -0.09776300       0.05084600
Cu       7.50909000      10.01212000      11.76991000  F       0.03046900      -0.06248600       0.03366500
Cu      10.01212000      10.01212000      11.76991000  F      -0.04049500      -0.09096000       0.04970100
Cu       1.26512000       1.24833000      13.56575000  T      -0.00286100      -0.00330300       0.00578400
Cu       3.78977000       1.26962000      13.58847000  T      -0.00437500      -0.00557800       0.00347500
Cu       6.28799000       1.29057000      13.60918000  T      -0.00300900      -0.00505800       0.00240600
Cu       8.76332000       1.28264000      13.61045000  T       0.00135000      -0.00413200       0.00039800
Cu      11.26342000       1.26511000      13.59434000  T      -0.00068900      -0.00172900       0.00373500
Cu       1.25608000       3.76347000      13.57106000  T      -0.00335300      -0.00155200       0.00300700
Cu       3.76198000       3.75982000      13.59704000  T      -0.00309100      -0.00480800       0.00170500
Cu       6.26964000       3.77771000      13.58831000  T       0.00109200      -0.00351600      -0.00296400
Cu       8.74218000       3.76409000      13.55884000  T       0.00125000       0.00028700      -0.00155800
Cu      11.22794000       3.75750000      13.59482000  T       0.00335800       0.00005600       0.00368900
Cu       1.27075000       6.24978000      13.59349000  T      -0.00293300       0.00151000       0.00579200
Cu       3.75069000       6.27688000      13.60641000  T      -0.00311200      -0.00207900       0.00428900
Cu       6.27173000       6.24351000      13.58119000  T       0.00026300       0.00149300      -0.00167100
Cu       8.74539000       6.24465000      13.55473000  T       0.00127400      -0.00063300      -0.00124900
Cu      11.23195000       6.24831000      13.59307000  T       0.00382300       0.00155000       0.00458300
Cu       1.28754000       8.74774000      13.58823000  T      -0.00377900       0.00254300       0.00566900
Cu       3.77947000       8.74781000      13.60759000  T      -0.00485900      -0.00098400       0.00317800
Cu       6.29082000       8.74105000      13.59268000  T      -0.00306500       0.00169800       0.00501800
Cu       8.76558000       8.72843000      13.60554000  T       0.00097900       0.00442700       0.00122200
Cu      11.26404000       8.75284000      13.58579000  T      -0.00081000       0.00237600       0.00511200
Cu       1.24362000      11.26191000      13.57882000  T      -0.00043900      -0.00059700       0.00666500
Cu       3.74684000      11.27045000      13.55866000  T      -0.00216100      -0.00272400       0.00645500
Cu       6.25694000      11.27502000      13.55667000  T       0.00044800      -0.00124900       0.00659200
Cu       8.76092000      11.26305000      13.56379000  T       0.00286300       0.00027200       0.00731400
Cu      11.26950000      11.26702000      13.56953000  T       0.00100000       0.00030700       0.00664600
Cu      12.51183000       0.01021000      15.35637000  T       0.00055900      -0.00118500       0.00858900
Cu       2.50562000       0.00063000      15.35027000  T       0.00001500      -0.00345800       0.01129500
Cu       5.00159000      12.50329000      15.34338000  T      -0.00040000      -0.00488800       0.00843900
Cu       7.50463000      12.49293000      15.33811000  T       0.00038100      -0.00330700       0.01032900
Cu      10.01180000      12.49419000      15.34540000  T       0.00095700       0.00045300       0.01032300
Cu       0.07108000       2.51185000      15.34697000  T      -0.00594400      -0.00004500       0.00517700
Cu       2.53215000       2.45503000      15.35107000  T      -0.00856600      -0.00552100       0.00583600
Cu       5.01034000       2.44039000      15.45423000  T      -0.00479200      -0.00374700       0.00474700
Cu       7.56317000       2.50645000      15.47651000  T      -0.00151600      -0.00705400      -0.00363900
Cu      10.11265000       2.45276000      15.44069000  T      -0.00317800       0.00014800       0.00528200
Cu      12.46182000       5.00351000      15.32175000  T       0.00597400       0.00144400       0.01484100
Cu       2.38331000       4.90751000      15.46246000  T       0.00469700      -0.00214100      -0.00045900
Pd       4.92287000       5.03935000      15.52382000  T       0.03196700      -0.01310800      -0.01961700
Y        7.48417000       4.99839000      17.21451000  T      -0.00490700       0.00006200       0.00313200
Cu       9.96262000       5.00477000      15.43482000  T       0.01131700      -0.00027200      -0.00075200
Cu       0.03446000       7.50825000      15.32230000  T      -0.00443500       0.00284400       0.00951700
Cu       2.51987000       7.57171000      15.44918000  T      -0.00858800       0.00154300       0.00812300
Cu       5.07486000       7.62630000      15.42330000  T      -0.00766900      -0.00571800       0.00432000
Cu       7.58583000       7.50165000      15.47650000  T      -0.00120100       0.00718000      -0.00424500
Cu      10.10271000       7.55914000      15.43748000  T      -0.00078700       0.00048000       0.00763400
Cu      12.51394000      10.00652000      15.35167000  T      -0.00016900       0.00089300       0.01024600
Cu       2.50980000      10.04877000      15.34737000  T      -0.00050100      -0.00090000       0.01003100
Cu       5.01041000      10.06651000      15.33554000  T      -0.00135000      -0.00342700       0.00770500
Cu       7.50580000      10.02356000      15.33410000  T      -0.00002500       0.00516900       0.00986600
Cu      10.01369000      10.02973000      15.34172000  T       0.00048800       0.00039200       0.01053000
O        6.15482000       3.39220000      16.66727000  T      -0.00114000      -0.00289100       0.00085100
O        6.16521000       6.61558000      16.66496000  T      -0.00070400       0.00147600      -0.00006900
O        9.01746000       6.43189000      16.55180000  T      -0.00207300      -0.00633800      -0.00406800
O        9.00910000       3.56416000      16.54548000  T      -0.00418000       0.00472900      -0.00354000
C        3.16943000       5.60319000      17.14587000  T      -0.06674400      -0.00047500       0.00641200
O        3.53540000       4.89717000      18.24592000  T      -0.06261000      -0.01788000      -0.00786100
O        2.94433000       6.83786000      17.32719000  T      -0.02793300       0.00361400       0.01525300
H        3.55709000       5.54710000      18.99137000  T      -0.02691200      -0.02178800      -0.00650500
108
Lattice="12.515153631 0.0 0.0 0.0 12.515153631 0.0 0.0 0.0 25.30973" Properties=species:S:1:pos:R:3:move_mask:L:1:forces:R:3 stress="0.007519545500535617 8.956565595642475e-06 0.0002938814571922132 8.956565595642475e-06 0.007465381684341203 0.00011778976022366884 0.0002938814571922132 0.00011778976022366884 0.0017968555792322795" free_energy=-445.20057065 energy=-445.20078527 pbc="T T T"
Cu       1.25152000       1.25152000      10.00000000  F       0.00493600       0.00546200      -0.06282500
Cu       3.75455000       1.25152000      10.00000000  F       0.00511300       0.01925600      -0.06868800
Cu       6.25758000       1.25152000      10.00000000  F      -0.00835100       0.02571300      -0.06707400
Cu       8.76061000       1.25152000      10.00000000  F       0.01055500       0.00417300      -0.05254300
Cu      11.26364000       1.25152000      10.00000000  F      -0.01331900      -0.00387700      -0.07588300
Cu       1.25152000       3.75455000      10.00000000  F      -0.00488600       0.00297700      -0.07100900
Cu       3.75455000       3.75455000      10.00000000  F       0.01713000      -0.02073000      -0.05648100
Cu       6.25758000       3.75455000      10.00000000  F      -0.02028900      -0.02601700      -0.07888300
Cu       8.76061000       3.75455000      10.00000000  F       0.00760400      -0.01515100      -0.06862100
Cu      11.26364000       3.75455000      10.00000000  F       0.00271400       0.00076400      -0.06087300
Cu       1.25152000       6.25758000      10.00000000  F      -0.00663000      -0.00730500      -0.06180400
Cu       3.75455000       6.25758000      10.00000000  F       0.01637600       0.01547300      -0.04770400
Cu       6.25758000       6.25758000      10.00000000  F      -0.01819100       0.02211800      -0.07894900
Cu       8.76061000       6.25758000      10.00000000  F       0.00920300       0.01820700      -0.07790700
Cu      11.26364000       6.25758000      10.00000000  F       0.00141900      -0.00686100      -0.05684500
Cu       1.25152000       8.76061000      10.00000000  F       0.00703000       0.00565300      -0.06090700
Cu       3.75455000       8.76061000      10.00000000  F      -0.00612100      -0.01296300      -0.05752000
Cu       6.25758000       8.76061000      10.00000000  F       0.00459900      -0.02246200      -0.06108600
Cu       8.76061000       8.76061000      10.00000000  F       0.00082200      -0.01063300      -0.05311200
Cu      11.26364000       8.76061000      10.00000000  F      -0.00758000       0.00276400      -0.07113000
Cu       1.25152000      11.26364000      10.00000000  F       0.00878500      -0.00650700      -0.02331800
Cu       3.75455000      11.26364000      10.00000000  F      -0.01783700      -0.00082500      -0.06665300
Cu       6.25758000      11.26364000      10.00000000  F       0.00124400       0.00133300      -0.05534800
Cu       8.76061000      11.26364000      10.00000000  F       0.00977300       0.00289400      -0.06520800
Cu      11.26364000      11.26364000      10.00000000  F      -0.00497500       0.00671600      -0.04769000
Cu       0.00000000       0.00000000      11.76991000  F      -0.02394300       0.06207400       0.04601700
Cu       2.50303000       0.00000000      11.76991000  F       0.03617100       0.04773300       0.02034800
Cu       5.00606000       0.00000000      11.76991000  F       0.06605900       0.11218600       0.02584200
Cu       7.50909000       0.00000000      11.76991000  F       0.02148500       0.09349500       0.04173200
Cu      10.01212000       0.00000000      11.76991000  F      -0.03556400       0.10077100       0.05763000
Cu       0.00000000       2.50303000      11.76991000  F      -0.05670200       0.04937500       0.05048600
Cu       2.50303000       2.50303000      11.76991000  F       0.06762200       0.03185300       0.03640900
Cu       5.00606000       2.50303000      11.76991000  F       0.02564600       0.00344100       0.03602300
Cu       7.50909000       2.50303000      11.76991000  F      -0.01883000      -0.00125000       0.07559700
Cu      10.01212000       2.50303000      11.76991000  F       0.02573500      -0.05807700       0.01335700
Cu       0.00000000       5.00606000      11.76991000  F      -0.05738600       0.02841200       0.04702100
Cu       2.50303000       5.00606000      11.76991000  F       0.08854700       0.03021200       0.10133300
Cu       5.00606000       5.00606000      11.76991000  F      -0.03866100       0.02275200       0.16561100
Cu       7.50909000       5.00606000      11.76991000  F      -0.05756500      -0.00024800       0.09259400
Cu      10.01212000       5.00606000      11.76991000  F       0.02513100      -0.00703600       0.02484600
Cu       0.00000000       7.50909000      11.76991000  F      -0.01719300      -0.06527200       0.08755500
Cu       2.50303000       7.50909000      11.76991000  F       0.06639600      -0.04021700       0.04364900
Cu       5.00606000       7.50909000      11.76991000  F      -0.01131800       0.02659000       0.05185800
Cu       7.50909000       7.50909000      11.76991000  F      -0.01417200      -0.00096400       0.05011700
Cu      10.01212000       7.50909000      11.76991000  F       0.04298400       0.05162900       0.00399600
Cu       0.00000000      10.01212000      11.76991000  F       0.02667300      -0.08680600       0.07881000
Cu       2.50303000      10.01212000      11.76991000  F       0.03342500      -0.05208800       0.02007100
Cu       5.00606000      10.01212000      11.76991000  F       0.02807100      -0.09745500       0.05119400
Cu       7.50909000      10.01212000      11.76991000  F       0.03086600      -0.06213700       0.03404200
Cu      10.01212000      10.01212000      11.76991000  F      -0.03998100      -0.09036100       0.04986700
Cu       1.26508000       1.24824000      13.56599000  T      -0.00359300      -0.00419200       0.00570400
Cu       3.78963000       1.26947000      13.58858000  T      -0.00471000      -0.00624300       0.00417300
Cu       6.28787000       1.29043000      13.60926000  T      -0.00245200      -0.00587800       0.00272100
Cu       8.76340000       1.28251000      13.61047000  T       0.00139900      -0.00491300       0.00066200
Cu      11.26346000       1.26506000      13.59450000  T      -0.00091700      -0.00256200       0.00395500
Cu       1.25597000       3.76342000      13.57122000  T      -0.00326800      -0.00166200       0.00267700
Cu       3.76187000       3.75969000      13.59709000  T      -0.00328000      -0.00533800       0.00220200
Cu       6.26968000       3.77765000      13.58826000  T       0.00056100      -0.00398400      -0.00298500
Cu       8.74221000       3.76412000      13.55880000  T       0.00189500      -0.00071400      -0.00207100
Cu      11.22805000       3.75748000      13.59495000  T       0.00373100       0.00007200       0.00351400
Cu       1.27067000       6.24978000      13.59375000  T      -0.00344500       0.00217400       0.00519100
Cu       3.75056000       6.27683000      13.60650000  T      -0.00329500      -0.00167700       0.00429800
Cu       6.27171000       6.24351000      13.58118000  T      -0.00003000       0.00201200      -0.00175800
Cu       8.74541000       6.24457000      13.55468000  T       0.00181800       0.00057400      -0.00148900
Cu      11.23207000       6.24835000      13.59324000  T       0.00432000       0.00181100       0.00449400
Cu       1.28746000       8.74780000      13.58844000  T      -0.00448600       0.00314700       0.00588400
Cu       3.77933000       8.74781000      13.60767000  T      -0.00525800      -0.00101000       0.00420700
Cu       6.29070000       8.74109000      13.59283000  T      -0.00251600       0.00237600       0.00580500
Cu       8.76565000       8.72855000      13.60556000  T       0.00114300       0.00524100       0.00188200
Cu      11.26407000       8.75287000      13.58599000  T      -0.00098300       0.00341500       0.00555000
Cu       1.24363000      11.26188000      13.57907000  T      -0.00091900      -0.00063700       0.00710600
Cu       3.74674000      11.27039000      13.55889000  T      -0.00220100      -0.00294300       0.00690200
Cu       6.25691000      11.27500000      13.55690000  T       0.00089900      -0.00133000       0.00686800
Cu       8.76100000      11.26305000      13.56406000  T       0.00361700       0.00047600       0.00762400
Cu      11.26956000      11.26701000      13.56979000  T       0.00083000       0.00036800       0.00715200
Cu      12.51186000       0.01017000      15.35668000  T       0.00051300      -0.00135200       0.01034100
Cu       2.50563000       0.00057000      15.35062000  T      -0.00007000      -0.00423800       0.01336400
Cu       5.00155000      12.50318000      15.34364000  T      -0.00032800      -0.00539500       0.00973400
Cu       7.50462000      12.49279000      15.33847000  T       0.00069300      -0.00317000       0.01133300
Cu      10.01183000      12.49421000      15.34577000  T       0.00121400       0.00049000       0.01183100
Cu       0.07097000       2.51188000      15.34716000  T      -0.00710900      -0.00084500       0.00648400
Cu       2.53191000       2.45494000      15.35127000  T      -0.00908500      -0.00646500       0.00702600
Cu       5.01024000       2.44032000      15.45440000  T      -0.00514700      -0.00339000       0.00537700
Cu       7.56320000       2.50621000      15.47641000  T      -0.00182300      -0.00738800      -0.00393500
Cu      10.11262000       2.45279000      15.44092000  T      -0.00418300       0.00008400       0.00590600
Cu      12.46203000       5.00353000      15.32222000  T       0.00609700       0.00160700       0.01668800
Cu       2.38339000       4.90751000      15.46272000  T       0.00110000      -0.00488100      -0.00494200
Pd       4.92258000       5.03945000      15.52391000  T       0.04576000      -0.01926600      -0.02666200
Y        7.48400000       4.99838000      17.21467000  T      -0.00689600       0.00016000       0.00313900
Cu       9.96297000       5.00475000      15.43479000  T       0.01221400      -0.00031000      -0.00103200
Cu       0.03440000       7.50826000      15.32262000  T      -0.00530600       0.00393100       0.01109000
Cu       2.51959000       7.57172000      15.44938000  T      -0.00899600       0.00259800       0.00953600
Cu       5.07466000       7.62621000      15.42345000  T      -0.00768100      -0.00651600       0.00540600
Cu       7.58588000       7.50189000      15.47636000  T      -0.00144300       0.00726200      -0.00417200
Cu      10.10279000       7.55912000      15.43775000  T      -0.00173000       0.00095000       0.00858200
Cu      12.51396000      10.00650000      15.35201000  T      -0.00031100       0.00125800       0.01231800
Cu       2.50981000      10.04876000      15.34768000  T      -0.00065800      -0.00102400       0.01193500
Cu       5.01036000      10.06649000      15.33578000  T      -0.00143000      -0.00434900       0.00888100
Cu       7.50578000      10.02374000      15.33444000  T       0.00021900       0.00521200       0.01089800
Cu      10.01371000      10.02973000      15.34208000  T       0.00066900       0.00039700       0.01214400
O        6.15498000       3.39201000      16.66736000  T      -0.00217700      -0.00311500      -0.00074300
O        6.16543000       6.61566000      16.66504000  T      -0.00174100       0.00319200      -0.00229800
O        9.01745000       6.43147000      16.55173000  T      -0.00126100      -0.00323000      -0.00572800
O        9.00898000       3.56446000      16.54543000  T      -0.00323400       0.00248200      -0.00487500
C        3.16709000       5.60308000      17.14596000  T      -0.06386800      -0.00522500       0.01481200
O        3.53334000       4.89646000      18.24573000  T      -0.06766400      -0.02108900      -0.01810000
O        2.94342000       6.83784000      17.32763000  T      -0.03100300       0.01050700       0.01612800
H        3.55628000       5.54634000      18.99092000  T      -0.02681600      -0.01624300       0.00132800
108
Lattice="12.515153631 0.0 0.0 0.0 12.515153631 0.0 0.0 0.0 25.30973" Properties=species:S:1:pos:R:3:move_mask:L:1:forces:R:3 stress="0.00769103096376926 1.1390754154736946e-05 0.00027440794871945744 1.1390754154736946e-05 0.007608805322544874 9.148804076719679e-05 0.00027440794871945744 9.148804076719679e-05 0.0020278725565085966" free_energy=-445.21308584 energy=-445.21329881 pbc="T T T"
Cu       1.25152000       1.25152000      10.00000000  F       0.00524300       0.00619500      -0.06279500
Cu       3.75455000       1.25152000      10.00000000  F       0.00487400       0.01998300      -0.06861300
Cu       6.25758000       1.25152000      10.00000000  F      -0.00775000       0.02529000      -0.06693000
Cu       8.76061000       1.25152000      10.00000000  F       0.01041100       0.00374800      -0.05131400
Cu      11.26364000       1.25152000      10.00000000  F      -0.01301800      -0.00383900      -0.07567900
Cu       1.25152000       3.75455000      10.00000000  F      -0.00489100       0.00262700      -0.06909400
Cu       3.75455000       3.75455000      10.00000000  F       0.01695200      -0.02103900      -0.05461500
Cu       6.25758000       3.75455000      10.00000000  F      -0.02075100      -0.02559500      -0.07846600
Cu       8.76061000       3.75455000      10.00000000  F       0.00796200      -0.01465800      -0.06859200
Cu      11.26364000       3.75455000      10.00000000  F       0.00391500       0.00091300      -0.06035000
Cu       1.25152000       6.25758000      10.00000000  F      -0.00634400      -0.00741300      -0.05986500
Cu       3.75455000       6.25758000      10.00000000  F       0.01608700       0.01560600      -0.04592100
Cu       6.25758000       6.25758000      10.00000000  F      -0.01831400       0.02175500      -0.07818100
Cu       8.76061000       6.25758000      10.00000000  F       0.00942600       0.01795500      -0.07799300
Cu      11.26364000       6.25758000      10.00000000  F       0.00214800      -0.00721000      -0.05564400
Cu       1.25152000       8.76061000      10.00000000  F       0.00755500       0.00519000      -0.06071100
Cu       3.75455000       8.76061000      10.00000000  F      -0.00643200      -0.01359200      -0.05709000
Cu       6.25758000       8.76061000      10.00000000  F       0.00513600      -0.02219700      -0.06072900
Cu       8.76061000       8.76061000      10.00000000  F       0.00064300      -0.01082500      -0.05179600
Cu      11.26364000       8.76061000      10.00000000  F      -0.00730000       0.00288400      -0.07070900
Cu       1.25152000      11.26364000      10.00000000  F       0.00929500      -0.00697700      -0.02210100
Cu       3.75455000      11.26364000      10.00000000  F      -0.01777400      -0.00124200      -0.06605000
Cu       6.25758000      11.26364000      10.00000000  F       0.00174200       0.00095300      -0.05532600
Cu       8.76061000      11.26364000      10.00000000  F       0.00949300       0.00296200      -0.06693900
Cu      11.26364000      11.26364000      10.00000000  F      -0.00470700       0.00622600      -0.04702900
Cu       0.00000000       0.00000000      11.76991000  F      -0.02385600       0.05712800       0.06145600
Cu       2.50303000       0.00000000      11.76991000  F       0.03280900       0.04285000       0.03642600
Cu       5.00606000       0.00000000      11.76991000  F       0.06390700       0.10312200       0.04110000
Cu       7.50909000       0.00000000      11.76991000  F       0.02128700       0.08629200       0.05501800
Cu      10.01212000       0.00000000      11.76991000  F      -0.03285300       0.09505400       0.06898200
Cu       0.00000000       2.50303000      11.76991000  F      -0.05686600       0.04530700       0.06036700
Cu       2.50303000       2.50303000      11.76991000  F       0.06383700       0.02312800       0.04625900
Cu       5.00606000       2.50303000      11.76991000  F       0.01827500      -0.00500200       0.04711400
Cu       7.50909000       2.50303000      11.76991000  F      -0.01953600      -0.00878600       0.08544900
Cu      10.01212000       2.50303000      11.76991000  F       0.03195700      -0.05995600       0.02622100
Cu       0.00000000       5.00606000      11.76991000  F      -0.05588300       0.02943000       0.05401900
Cu       2.50303000       5.00606000      11.76991000  F       0.08537200       0.03064500       0.11652600
Cu       5.00606000       5.00606000      11.76991000  F      -0.04647500       0.02120800       0.17079700
Cu       7.50909000       5.00606000      11.76991000  F      -0.05730800      -0.00039500       0.09700700
Cu      10.01212000       5.00606000      11.76991000  F       0.03467700      -0.00553700       0.03620600
Cu       0.00000000       7.50909000      11.76991000  F      -0.01884300      -0.06126400       0.09802900
Cu       2.50303000       7.50909000      11.76991000  F       0.06190100      -0.03950700       0.05793000
Cu       5.00606000       7.50909000      11.76991000  F      -0.01724900       0.02938000       0.06436600
Cu       7.50909000       7.50909000      11.76991000  F      -0.01477300       0.00628900       0.06193100
Cu      10.01212000       7.50909000      11.76991000  F       0.04958900       0.05405600       0.01908300
Cu       0.00000000      10.01212000      11.76991000  F       0.02550500      -0.08362900       0.09364500
Cu       2.50303000      10.01212000      11.76991000  F       0.02977700      -0.05213700       0.03537900
Cu       5.00606000      10.01212000      11.76991000  F       0.02612200      -0.09640600       0.06765900
Cu       7.50909000      10.01212000      11.76991000  F       0.03123800      -0.05935600       0.04931000
Cu      10.01212000      10.01212000      11.76991000  F      -0.03791400      -0.08603000       0.06292500
Cu       1.26331000       1.24597000      13.56991000  T       0.00048000       0.00285200      -0.00461900
Cu       3.78708000       1.26571000      13.59181000  T       0.00316700       0.00147800       0.00038000
Cu       6.28634000       1.28683000      13.61148000  T       0.00134500       0.00122900       0.00007600
Cu       8.76386000       1.27959000      13.61184000  T      -0.00554400       0.00338900       0.00351100
Cu      11.26305000       1.26365000      13.59768000  T      -0.00236700       0.00183400      -0.00169600
Cu       1.25426000       3.76232000      13.57327000  T       0.00328400       0.00051100      -0.00550700
Cu       3.75969000       3.75631000      13.59912000  T      -0.00011700       0.00095000       0.00182400
Cu       6.26963000       3.77494000      13.58676000  T      -0.00299300      -0.00317000      -0.00299700
Cu       8.74350000       3.76340000      13.55839000  T       0.00025900      -0.00178600       0.00303800
Cu      11.23064000       3.75767000      13.59789000  T      -0.00010800       0.00291300      -0.00060100
Cu       1.26866000       6.25087000      13.59696000  T       0.00038800       0.00196300      -0.00884100
Cu       3.74848000       6.27557000      13.60980000  T       0.00205400      -0.00154000       0.00294300
Cu       6.27159000       6.24466000      13.58015000  T       0.00060300       0.00275300      -0.00477900
Cu       8.74677000       6.24506000      13.55449000  T       0.00126900       0.00401000       0.00319700
Cu      11.23497000       6.24907000      13.59661000  T      -0.00097800      -0.00183600      -0.00135900
Cu       1.28507000       8.74913000      13.59238000  T       0.00110900      -0.00354100      -0.00359900
Cu       3.77633000       8.74694000      13.61080000  T       0.00128900      -0.00370500       0.00194300
Cu       6.28928000       8.74243000      13.59648000  T       0.00176000      -0.00133600      -0.00206400
Cu       8.76615000       8.73139000      13.60747000  T      -0.00452000      -0.00344900       0.00348700
Cu      11.26370000       8.75448000      13.58997000  T      -0.00173400      -0.00113100      -0.00254400
Cu       1.24348000      11.26128000      13.58385000  T       0.00121400      -0.00053100      -0.00307600
Cu       3.74583000      11.26850000      13.56324000  T       0.00411500      -0.00125400      -0.00363900
Cu       6.25715000      11.27405000      13.56108000  T      -0.00114800      -0.00096800      -0.00437400
Cu       8.76276000      11.26317000      13.56883000  T      -0.00324000      -0.00012900      -0.00576000
Cu      11.27016000      11.26702000      13.57468000  T      -0.00125100      -0.00022100      -0.00361300
Cu      12.51229000       0.00959000      15.36405000  T      -0.00004200       0.00267000       0.00068500
Cu       2.50567000      -0.00207000      15.35922000  T      -0.00031500      -0.00244000      -0.00293200
Cu       5.00142000      12.49999000      15.35015000  T       0.00082300      -0.00184000      -0.00111700
Cu       7.50494000      12.49129000      15.34561000  T       0.00006100       0.00545000      -0.00492200
Cu      10.01258000      12.49441000      15.35371000  T      -0.00001100      -0.00097200      -0.00232200
Cu       0.06707000       2.51129000      15.35167000  T      -0.00064800      -0.00154800      -0.00226300
Cu       2.52690000       2.45087000      15.35592000  T       0.00223200      -0.00353200      -0.00306500
Cu       5.00655000       2.43747000      15.45783000  T      -0.00512100      -0.00551600      -0.00297600
Cu       7.56172000       2.50239000      15.47508000  T      -0.00796800       0.00848000       0.00450600
Cu      10.11063000       2.45225000      15.44423000  T      -0.00090100      -0.00399400      -0.00863700
Cu      12.46526000       5.00420000      15.33159000  T      -0.00569900      -0.00044100      -0.01291500
Cu       2.38523000       4.90445000      15.46048000  T       0.00741900      -0.00212800      -0.01532700
Pd       4.93319000       5.03500000      15.51740000  T       0.05373500      -0.02157700      -0.03680000
Y        7.48263000       4.99849000      17.21528000  T      -0.00134200       0.00027700      -0.00768900
Cu       9.96947000       5.00435000      15.43490000  T      -0.00909500      -0.00022900       0.00213200
Cu       0.03131000       7.51027000      15.32953000  T      -0.00284000       0.00196500      -0.00621300
Cu       2.51462000       7.57298000      15.45548000  T       0.00623600      -0.00089500       0.00186800
Cu       5.06944000       7.62243000      15.42653000  T      -0.00369900      -0.00326200      -0.00405000
Cu       7.58465000       7.50539000      15.47486000  T      -0.01007300      -0.00849900       0.00667700
Cu      10.10215000       7.56002000      15.44257000  T      -0.00512800       0.00353500      -0.00891000
Cu      12.51392000      10.00706000      15.36046000  T      -0.00061900       0.00199500      -0.00080500
Cu       2.50944000      10.04790000      15.35553000  T      -0.00139300      -0.00255800      -0.00181400
Cu       5.00954000      10.06359000      15.34176000  T       0.00014600      -0.00538600      -0.00097900
Cu       7.50589000      10.02612000      15.34141000  T       0.00009900      -0.00685000      -0.00345400
Cu      10.01415000      10.02977000      15.35027000  T      -0.00038100       0.00065400      -0.00188400
O        6.15349000       3.39029000      16.66842000  T      -0.01367000       0.01167000       0.00166400
O        6.16382000       6.61611000      16.66551000  T      -0.01768500      -0.01188000       0.00388300
O        9.01555000       6.42713000      16.54774000  T      -0.00700200       0.00929400       0.00080500
O        9.00560000       3.56727000      16.54181000  T      -0.00279600      -0.00713800      -0.00005000
C        3.10229000       5.60154000      17.15449000  T      -0.05906700       0.00000500       0.02217200
O        3.47227000       4.87921000      18.24043000  T      -0.05216400      -0.00642400       0.00502400
O        2.91440000       6.83972000      17.34290000  T      -0.03136500       0.00790600       0.01604000
H        3.53232000       5.52483000      18.98727000  T      -0.02836200      -0.01966000       0.02167000
108
Lattice="12.515153631 0.0 0.0 0.0 12.515153631 0.0 0.0 0.0 25.30973" Properties=species:S:1:pos:R:3:move_mask:L:1:forces:R:3 stress="0.007659960731340614 1.3163342746487792e-05 0.00027908283905474403 1.3163342746487792e-05 0.007569639852779956 9.034584459716016e-05 0.00027908283905474403 9.034584459716016e-05 0.0019818539097234593" free_energy=-445.21374588 energy=-445.21398072 pbc="T T T"
Cu       1.25152000       1.25152000      10.00000000  F       0.00529900       0.00588000      -0.06305700
Cu       3.75455000       1.25152000      10.00000000  F       0.00507500       0.01963600      -0.06875500
Cu       6.25758000       1.25152000      10.00000000  F      -0.00743800       0.02487300      -0.06709500
Cu       8.76061000       1.25152000      10.00000000  F       0.01052000       0.00345900      -0.05139100
Cu      11.26364000       1.25152000      10.00000000  F      -0.01311000      -0.00414200      -0.07585400
Cu       1.25152000       3.75455000      10.00000000  F      -0.00484100       0.00241000      -0.06979000
Cu       3.75455000       3.75455000      10.00000000  F       0.01709900      -0.02128300      -0.05514300
Cu       6.25758000       3.75455000      10.00000000  F      -0.02039300      -0.02580300      -0.07875800
Cu       8.76061000       3.75455000      10.00000000  F       0.00806600      -0.01493800      -0.06902400
Cu      11.26364000       3.75455000      10.00000000  F       0.00383300       0.00068200      -0.06087300
Cu       1.25152000       6.25758000      10.00000000  F      -0.00627400      -0.00728300      -0.06073100
Cu       3.75455000       6.25758000      10.00000000  F       0.01624000       0.01577500      -0.04659900
Cu       6.25758000       6.25758000      10.00000000  F      -0.01799400       0.02186700      -0.07859800
Cu       8.76061000       6.25758000      10.00000000  F       0.00953200       0.01813000      -0.07853700
Cu      11.26364000       6.25758000      10.00000000  F       0.00204600      -0.00704900      -0.05630200
Cu       1.25152000       8.76061000      10.00000000  F       0.00759700       0.00560500      -0.06120100
Cu       3.75455000       8.76061000      10.00000000  F      -0.00621400      -0.01317200      -0.05749600
Cu       6.25758000       8.76061000      10.00000000  F       0.00543500      -0.02170300      -0.06110000
Cu       8.76061000       8.76061000      10.00000000  F       0.00077500      -0.01045600      -0.05207900
Cu      11.26364000       8.76061000      10.00000000  F      -0.00739800       0.00325900      -0.07108000
Cu       1.25152000      11.26364000      10.00000000  F       0.00923000      -0.00687200      -0.02231500
Cu       3.75455000      11.26364000      10.00000000  F      -0.01744400      -0.00112400      -0.06606400
Cu       6.25758000      11.26364000      10.00000000  F       0.00197000       0.00109500      -0.05539000
Cu       8.76061000      11.26364000      10.00000000  F       0.00955800       0.00309000      -0.06692200
Cu      11.26364000      11.26364000      10.00000000  F      -0.00474100       0.00633200      -0.04726100
Cu       0.00000000       0.00000000      11.76991000  F      -0.02406300       0.05754400       0.05897100
Cu       2.50303000       0.00000000      11.76991000  F       0.03381600       0.04315400       0.03415000
Cu       5.00606000       0.00000000      11.76991000  F       0.06474300       0.10424100       0.03808500
Cu       7.50909000       0.00000000      11.76991000  F       0.02154100       0.08763600       0.05236000
Cu      10.01212000       0.00000000      11.76991000  F      -0.03386300       0.09631300       0.06721300
Cu       0.00000000       2.50303000      11.76991000  F      -0.05745600       0.04546900       0.05807900
Cu       2.50303000       2.50303000      11.76991000  F       0.06547600       0.02306700       0.04325100
Cu       5.00606000       2.50303000      11.76991000  F       0.01898700      -0.00509200       0.04433200
Cu       7.50909000       2.50303000      11.76991000  F      -0.01881000      -0.00840900       0.08337200
Cu      10.01212000       2.50303000      11.76991000  F       0.03073400      -0.06013700       0.02470400
Cu       0.00000000       5.00606000      11.76991000  F      -0.05670600       0.02900600       0.05169500
Cu       2.50303000       5.00606000      11.76991000  F       0.08712900       0.03070600       0.11338400
Cu       5.00606000       5.00606000      11.76991000  F      -0.04593800       0.02126000       0.16836700
Cu       7.50909000       5.00606000      11.76991000  F      -0.05574100      -0.00068100       0.09612500
Cu      10.01212000       5.00606000      11.76991000  F       0.03266900      -0.00586700       0.03478700
Cu       0.00000000       7.50909000      11.76991000  F      -0.01948900      -0.06098300       0.09533000
Cu       2.50303000       7.50909000      11.76991000  F       0.06395100      -0.03920800       0.05488600
Cu       5.00606000       7.50909000      11.76991000  F      -0.01693200       0.02968300       0.06177700
Cu       7.50909000       7.50909000      11.76991000  F      -0.01359500       0.00611900       0.05902000
Cu      10.01212000       7.50909000      11.76991000  F       0.04838500       0.05431800       0.01687700
Cu       0.00000000      10.01212000      11.76991000  F       0.02555600      -0.08363400       0.09115700
Cu       2.50303000      10.01212000      11.76991000  F       0.03078100      -0.05200200       0.03319900
Cu       5.00606000      10.01212000      11.76991000  F       0.02662800      -0.09691800       0.06467800
Cu       7.50909000      10.01212000      11.76991000  F       0.03169000      -0.06002200       0.04617700
Cu      10.01212000      10.01212000      11.76991000  F      -0.03896200      -0.08666800       0.06094000
Cu       1.26350000       1.24634000      13.56914000  T      -0.00048000      -0.00027700      -0.00129900
Cu       3.78759000       1.26606000      13.59144000  T       0.00039200      -0.00196600      -0.00067100
Cu       6.28660000       1.28717000      13.61121000  T      -0.00039000      -0.00129300      -0.00044400
Cu       8.76338000       1.28010000      13.61193000  T      -0.00203500       0.00063700       0.00063500
Cu      11.26288000       1.26388000      13.59717000  T      -0.00123200      -0.00026700      -0.00145500
Cu       1.25469000       3.76242000      13.57259000  T       0.00125200      -0.00018100      -0.00196000
Cu       3.75989000       3.75658000      13.59893000  T      -0.00091100      -0.00179000      -0.00059800
Cu       6.26957000       3.77475000      13.58636000  T       0.00044600      -0.00369600      -0.00572800
Cu       8.74339000       3.76334000      13.55861000  T      -0.00021600       0.00026200       0.00023000
Cu      11.23037000       3.75783000      13.59750000  T       0.00009600       0.00043100      -0.00081300
Cu       1.26889000       6.25096000      13.59592000  T       0.00038900       0.00120900      -0.00281000
Cu       3.74892000       6.27551000      13.60974000  T       0.00084500      -0.00168300       0.00239900
Cu       6.27183000       6.24489000      13.57960000  T       0.00214500       0.00235100      -0.00571400
Cu       8.74676000       6.24532000      13.55472000  T       0.00041400       0.00085400       0.00044200
Cu      11.23458000       6.24889000      13.59611000  T      -0.00063400       0.00012400      -0.00081300
Cu       1.28539000       8.74880000      13.59170000  T      -0.00017200      -0.00009200      -0.00067200
Cu       3.77672000       8.74676000      13.61058000  T      -0.00068900      -0.00186800       0.00029100
Cu       6.28956000       8.74225000      13.59593000  T      -0.00054500      -0.00012900      -0.00039100
Cu       8.76573000       8.73091000      13.60751000  T      -0.00210100      -0.00028500       0.00090900
Cu      11.26356000       8.75432000      13.58932000  T      -0.00125800       0.00098400      -0.00130600
Cu       1.24361000      11.26132000      13.58312000  T       0.00033700      -0.00026100      -0.00035400
Cu       3.74628000      11.26856000      13.56252000  T       0.00111500      -0.00174200      -0.00036200
Cu       6.25709000      11.27406000      13.56034000  T      -0.00014900      -0.00103000      -0.00048600
Cu       8.76235000      11.26317000      13.56791000  T      -0.00075600      -0.00006400      -0.00128800
Cu      11.27000000      11.26703000      13.57391000  T      -0.00003700       0.00032700      -0.00071700
Cu      12.51225000       0.00988000      15.36331000  T       0.00023900       0.00120300       0.00028100
Cu       2.50567000      -0.00210000      15.35807000  T       0.00019600      -0.00283100      -0.00083900
Cu       5.00157000      12.50000000      15.34936000  T       0.00079100      -0.00389400       0.00046200
Cu       7.50495000      12.49183000      15.34443000  T       0.00014200       0.00093500      -0.00091400
Cu      10.01251000      12.49427000      15.35267000  T       0.00019700      -0.00128700      -0.00051700
Cu       0.06735000       2.51121000      15.35094000  T      -0.00127900      -0.00048000      -0.00193700
Cu       2.52743000       2.45083000      15.35517000  T      -0.00214500      -0.00352700      -0.00099900
Cu       5.00649000       2.43705000      15.45721000  T      -0.00324900      -0.00573200       0.00019800
Cu       7.56114000       2.50343000      15.47547000  T      -0.00569800       0.00284900       0.00106400
Cu      10.11064000       2.45200000      15.44314000  T      -0.00233900      -0.00157800      -0.00345700
Cu      12.46462000       5.00412000      15.32961000  T       0.00149300       0.00033500      -0.00442000
Cu       2.38624000       4.90468000      15.45964000  T       0.01078700       0.00056800      -0.00306900
Pd       4.93607000       5.03394000      15.51535000  T       0.03583000      -0.01288900      -0.02548300
Y        7.48262000       4.99855000      17.21469000  T       0.00071700       0.00011700       0.00110600
Cu       9.96808000       5.00438000      15.43500000  T      -0.00328600       0.00039400       0.00105100
Cu       0.03134000       7.51029000      15.32828000  T      -0.00219500       0.00183100      -0.00290800
Cu       2.51551000       7.57281000      15.45509000  T       0.00020300      -0.00039800       0.00298800
Cu       5.06960000       7.62232000      15.42584000  T      -0.00384800      -0.00526200      -0.00166100
Cu       7.58381000       7.50438000      15.47548000  T      -0.00758300      -0.00280200       0.00231100
Cu      10.10168000       7.56021000      15.44132000  T      -0.00406400       0.00150400      -0.00337400
Cu      12.51386000      10.00724000      15.35953000  T      -0.00040800       0.00180900       0.00007400
Cu       2.50938000      10.04777000      15.35456000  T      -0.00057200      -0.00164800      -0.00029300
Cu       5.00967000      10.06339000      15.34103000  T       0.00008300      -0.00409400       0.00034100
Cu       7.50590000      10.02543000      15.34038000  T      -0.00009800      -0.00117600      -0.00028900
Cu      10.01408000      10.02990000      15.34926000  T      -0.00004600       0.00135700      -0.00024300
O        6.15220000       3.39149000      16.66828000  T      -0.01145400       0.00477800       0.00039100
O        6.16225000       6.61490000      16.66568000  T      -0.01337200      -0.00686700       0.00224600
O        9.01509000       6.42858000      16.54828000  T      -0.00621900       0.00392100       0.00056300
O        9.00573000       3.56618000      16.54215000  T      -0.00441900      -0.00238900      -0.00007300
C        3.10255000       5.60184000      17.15549000  T      -0.06652500       0.00100700       0.01863200
O        3.47347000       4.88051000      18.24165000  T      -0.05565300      -0.01037400       0.00401300
O        2.91444000       6.84011000      17.34286000  T      -0.03205200       0.00437800       0.01544700
H        3.53201000       5.52515000      18.98957000  T      -0.02695900      -0.01747600       0.01078000
108
Lattice="12.515153631 0.0 0.0 0.0 12.515153631 0.0 0.0 0.0 25.30973" Properties=species:S:1:pos:R:3:move_mask:L:1:forces:R:3 stress="0.007635568913676662 1.3213274819494859e-05 0.0002781154051402321 1.3213274819494859e-05 0.007526979137904545 8.33615958852968e-05 0.0002781154051402321 8.33615958852968e-05 0.0019185462826596254" free_energy=-445.22069254 energy=-445.22096469 pbc="T T T"
Cu       1.25152000       1.25152000      10.00000000  F       0.00544000       0.00603000      -0.06311600
Cu       3.75455000       1.25152000      10.00000000  F       0.00507200       0.01967600      -0.06880000
Cu       6.25758000       1.25152000      10.00000000  F      -0.00709400       0.02453900      -0.06730400
Cu       8.76061000       1.25152000      10.00000000  F       0.01060600       0.00330600      -0.05107400
Cu      11.26364000       1.25152000      10.00000000  F      -0.01300700      -0.00417200      -0.07569700
Cu       1.25152000       3.75455000      10.00000000  F      -0.00474100       0.00240500      -0.06967800
Cu       3.75455000       3.75455000      10.00000000  F       0.01696800      -0.02131200      -0.05501000
Cu       6.25758000       3.75455000      10.00000000  F      -0.02017800      -0.02560100      -0.07865400
Cu       8.76061000       3.75455000      10.00000000  F       0.00824400      -0.01484500      -0.06916700
Cu      11.26364000       3.75455000      10.00000000  F       0.00413100       0.00081500      -0.06074700
Cu       1.25152000       6.25758000      10.00000000  F      -0.00607900      -0.00721600      -0.06070500
Cu       3.75455000       6.25758000      10.00000000  F       0.01613700       0.01597700      -0.04647100
Cu       6.25758000       6.25758000      10.00000000  F      -0.01775400       0.02190900      -0.07840800
Cu       8.76061000       6.25758000      10.00000000  F       0.00966200       0.01825200      -0.07868200
Cu      11.26364000       6.25758000      10.00000000  F       0.00217100      -0.00698100      -0.05610100
Cu       1.25152000       8.76061000      10.00000000  F       0.00774800       0.00562800      -0.06134200
Cu       3.75455000       8.76061000      10.00000000  F      -0.00615900      -0.01313800      -0.05754400
Cu       6.25758000       8.76061000      10.00000000  F       0.00573500      -0.02132600      -0.06115900
Cu       8.76061000       8.76061000      10.00000000  F       0.00087100      -0.01033700      -0.05150100
Cu      11.26364000       8.76061000      10.00000000  F      -0.00732400       0.00339900      -0.07080500
Cu       1.25152000      11.26364000      10.00000000  F       0.00914900      -0.00691900      -0.02217500
Cu       3.75455000      11.26364000      10.00000000  F      -0.01705300      -0.00118100      -0.06587500
Cu       6.25758000      11.26364000      10.00000000  F       0.00214300       0.00102700      -0.05548800
Cu       8.76061000      11.26364000      10.00000000  F       0.00956700       0.00314000      -0.06700100
Cu      11.26364000      11.26364000      10.00000000  F      -0.00463600       0.00622300      -0.04721700
Cu       0.00000000       0.00000000      11.76991000  F      -0.02387600       0.05777200       0.05653400
Cu       2.50303000       0.00000000      11.76991000  F       0.03463500       0.04283600       0.03234100
Cu       5.00606000       0.00000000      11.76991000  F       0.06548200       0.10429900       0.03508800
Cu       7.50909000       0.00000000      11.76991000  F       0.02173900       0.08892100       0.04990200
Cu      10.01212000       0.00000000      11.76991000  F      -0.03508200       0.09766100       0.06545500
Cu       0.00000000       2.50303000      11.76991000  F      -0.05777600       0.04629400       0.05584300
Cu       2.50303000       2.50303000      11.76991000  F       0.06705400       0.02249000       0.03944300
Cu       5.00606000       2.50303000      11.76991000  F       0.01836000      -0.00594800       0.04048600
Cu       7.50909000       2.50303000      11.76991000  F      -0.01744400      -0.00856200       0.08036200
Cu      10.01212000       2.50303000      11.76991000  F       0.02974500      -0.05961000       0.02362800
Cu       0.00000000       5.00606000      11.76991000  F      -0.05731100       0.02881900       0.04993800
Cu       2.50303000       5.00606000      11.76991000  F       0.08936200       0.03130400       0.11064500
Cu       5.00606000       5.00606000      11.76991000  F      -0.04716200       0.02157700       0.16439900
Cu       7.50909000       5.00606000      11.76991000  F      -0.05297200      -0.00086800       0.09308800
Cu      10.01212000       5.00606000      11.76991000  F       0.03125400      -0.00594900       0.03350800
Cu       0.00000000       7.50909000      11.76991000  F      -0.02006000      -0.06085700       0.09296900
Cu       2.50303000       7.50909000      11.76991000  F       0.06637300      -0.03966500       0.05215000
Cu       5.00606000       7.50909000      11.76991000  F      -0.01813700       0.02972300       0.05885800
Cu       7.50909000       7.50909000      11.76991000  F      -0.01161200       0.00666900       0.05508400
Cu      10.01212000       7.50909000      11.76991000  F       0.04746100       0.05428100       0.01517100
Cu       0.00000000      10.01212000      11.76991000  F       0.02595800      -0.08378900       0.08880800
Cu       2.50303000      10.01212000      11.76991000  F       0.03152800      -0.05238700       0.03150900
Cu       5.00606000      10.01212000      11.76991000  F       0.02668600      -0.09805500       0.06199500
Cu       7.50909000      10.01212000      11.76991000  F       0.03218600      -0.06140700       0.04319900
Cu      10.01212000      10.01212000      11.76991000  F      -0.04023800      -0.08748300       0.05914400
Cu       1.26359000       1.24653000      13.56829000  T      -0.00109300      -0.00193300       0.00142900
Cu       3.78805000       1.26588000      13.59093000  T      -0.00263300      -0.00403000      -0.00070200
Cu       6.28674000       1.28714000      13.61085000  T      -0.00202500      -0.00320700      -0.00024100
Cu       8.76271000       1.28060000      13.61202000  T       0.00110400      -0.00070700      -0.00129000
Cu      11.26255000       1.26398000      13.59644000  T      -0.00011200      -0.00094600      -0.00017400
Cu       1.25531000       3.76250000      13.57177000  T       0.00093300       0.00074600       0.00286000
Cu       3.75990000       3.75640000      13.59857000  T      -0.00176800      -0.00324500      -0.00071100
Cu       6.26977000       3.77383000      13.58477000  T       0.00252400      -0.00389700      -0.00709000
Cu       8.74327000       3.76340000      13.55878000  T       0.00003200       0.00178600      -0.00137200
Cu      11.23017000       3.75798000      13.59700000  T       0.00043500      -0.00045300       0.00079800
Cu       1.26926000       6.25120000      13.59468000  T       0.00147600      -0.00015600       0.00338400
Cu       3.74946000       6.27512000      13.61011000  T      -0.00067000      -0.00173800       0.00211500
Cu       6.27255000       6.24552000      13.57797000  T       0.00256200       0.00165500      -0.00557800
Cu       8.74681000       6.24560000      13.55491000  T      -0.00013300      -0.00154800      -0.00135000
Cu      11.23415000       6.24880000      13.59556000  T       0.00032500       0.00087600       0.00124300
Cu       1.28562000       8.74858000      13.59102000  T      -0.00130600       0.00192900       0.00150900
Cu       3.77690000       8.74627000      13.61035000  T      -0.00285300      -0.00134400      -0.00076900
Cu       6.28965000       8.74208000      13.59541000  T      -0.00276900       0.00032700       0.00147200
Cu       8.76506000       8.73048000      13.60762000  T      -0.00013200       0.00124200      -0.00099900
Cu      11.26323000       8.75440000      13.58853000  T      -0.00070200       0.00164800       0.00049800
Cu       1.24378000      11.26130000      13.58244000  T      -0.00030000      -0.00009100       0.00139700
Cu       3.74683000      11.26824000      13.56189000  T      -0.00148200      -0.00235000       0.00196900
Cu       6.25708000      11.27386000      13.55969000  T       0.00016400      -0.00130200       0.00232800
Cu       8.76196000      11.26315000      13.56698000  T       0.00153700       0.00003000       0.00223500
Cu      11.26992000      11.26712000      13.57313000  T       0.00124000       0.00065900       0.00116500
Cu      12.51230000       0.01033000      15.36255000  T       0.00071300       0.00026800      -0.00078800
Cu       2.50578000      -0.00266000      15.35682000  T       0.00091700      -0.00190700       0.00061200
Cu       5.00188000      12.49921000      15.34870000  T       0.00017300      -0.00476800       0.00182000
Cu       7.50502000      12.49237000      15.34322000  T       0.00031300      -0.00163700       0.00275500
Cu      10.01253000      12.49391000      15.35154000  T       0.00064000       0.00008700       0.00038500
Cu       0.06734000       2.51110000      15.34978000  T      -0.00300000       0.00087600      -0.00255000
Cu       2.52742000       2.45019000      15.35428000  T      -0.00481700      -0.00109100       0.00032800
Cu       5.00586000       2.43550000      15.45666000  T      -0.00317400      -0.00549800       0.00190800
Cu       7.55963000       2.50476000      15.47585000  T      -0.00348400      -0.00160100      -0.00204000
Cu      10.11011000       2.45164000      15.44165000  T      -0.00389500       0.00224900       0.00218700
Cu      12.46462000       5.00413000      15.32710000  T       0.00766200       0.00094500       0.00240600
Cu       2.38939000       4.90509000      15.45873000  T       0.01099100       0.00114400       0.00635500
Pd       4.94330000       5.03148000      15.51004000  T       0.03772600      -0.01132000      -0.02857100
Y        7.48275000       4.99864000      17.21447000  T       0.00053700       0.00011900       0.00691600
Cu       9.96637000       5.00449000      15.43524000  T       0.00288800       0.00084100       0.00048000
Cu       0.03097000       7.51063000      15.32657000  T      -0.00265400       0.00125800      -0.00089100
Cu       2.51621000       7.57258000      15.45527000  T      -0.00444500      -0.00052000       0.00382700
Cu       5.06902000       7.62116000      15.42489000  T      -0.00515100      -0.00624400       0.00019600
Cu       7.58170000       7.50307000      15.47629000  T      -0.00478500       0.00209200      -0.00176700
Cu      10.10046000       7.56052000      15.43968000  T      -0.00329300      -0.00168400       0.00212200
Cu      12.51376000      10.00772000      15.35859000  T       0.00007700       0.00093300      -0.00025300
Cu       2.50929000      10.04735000      15.35356000  T       0.00053300      -0.00152400       0.00079800
Cu       5.00984000      10.06241000      15.34039000  T      -0.00039000      -0.00429400       0.00155900
Cu       7.50593000      10.02472000      15.33938000  T      -0.00011700       0.00253800       0.00237500
Cu      10.01403000      10.03025000      15.34821000  T       0.00034700       0.00038500       0.00031400
O        6.14893000       3.39346000      16.66818000  T      -0.00643900      -0.00003200       0.00191500
O        6.15834000       6.61243000      16.66625000  T      -0.00814600      -0.00414000       0.00274100
O        9.01341000       6.43056000      16.54881000  T      -0.00732100      -0.00332700      -0.00106000
O        9.00491000       3.56484000      16.54240000  T      -0.00722800       0.00431600      -0.00079000
C        3.08979000       5.60236000      17.15979000  T      -0.07200900      -0.00114300       0.01709000
O        3.46360000       4.87979000      18.24373000  T      -0.06757000      -0.01051900       0.00338800
O        2.90810000       6.84123000      17.34601000  T      -0.03926100       0.00697500       0.02132600
H        3.52668000       5.52224000      18.99336000  T      -0.02646300      -0.01508800       0.00095500
108
Lattice="12.515153631 0.0 0.0 0.0 12.515153631 0.0 0.0 0.0 25.30973" Properties=species:S:1:pos:R:3:move_mask:L:1:forces:R:3 stress="0.0076542372674721785 1.582846714323994e-05 0.00028031241635254305 1.582846714323994e-05 0.007505658142730527 6.529242696586476e-05 0.00028031241635254305 6.529242696586476e-05 0.0018805479751012482" free_energy=-445.22309619 energy=-445.22342472 pbc="T T T"
Cu       1.25152000       1.25152000      10.00000000  F       0.00477000       0.00645300      -0.06282300
Cu       3.75455000       1.25152000      10.00000000  F       0.00434700       0.01979800      -0.06858300
Cu       6.25758000       1.25152000      10.00000000  F      -0.00677700       0.02387100      -0.06723600
Cu       8.76061000       1.25152000      10.00000000  F       0.00999000       0.00309300      -0.04981400
Cu      11.26364000       1.25152000      10.00000000  F      -0.01368600      -0.00406600      -0.07497900
Cu       1.25152000       3.75455000      10.00000000  F      -0.00549800       0.00203200      -0.06888200
Cu       3.75455000       3.75455000      10.00000000  F       0.01596000      -0.02174300      -0.05425300
Cu       6.25758000       3.75455000      10.00000000  F      -0.02031400      -0.02557400      -0.07802400
Cu       8.76061000       3.75455000      10.00000000  F       0.00802500      -0.01508000      -0.06922600
Cu      11.26364000       3.75455000      10.00000000  F       0.00388000       0.00078000      -0.05992400
Cu       1.25152000       6.25758000      10.00000000  F      -0.00660800      -0.00721500      -0.06012600
Cu       3.75455000       6.25758000      10.00000000  F       0.01503800       0.01617700      -0.04586900
Cu       6.25758000       6.25758000      10.00000000  F      -0.01795800       0.02155600      -0.07775800
Cu       8.76061000       6.25758000      10.00000000  F       0.00938800       0.01817200      -0.07918000
Cu      11.26364000       6.25758000      10.00000000  F       0.00174000      -0.00728400      -0.05515900
Cu       1.25152000       8.76061000      10.00000000  F       0.00719500       0.00570300      -0.06127700
Cu       3.75455000       8.76061000      10.00000000  F      -0.00692300      -0.01293300      -0.05755700
Cu       6.25758000       8.76061000      10.00000000  F       0.00576800      -0.02036800      -0.06148400
Cu       8.76061000       8.76061000      10.00000000  F       0.00037700      -0.01005500      -0.05083000
Cu      11.26364000       8.76061000      10.00000000  F      -0.00789500       0.00374100      -0.07018200
Cu       1.25152000      11.26364000      10.00000000  F       0.00817200      -0.00686500      -0.02135100
Cu       3.75455000      11.26364000      10.00000000  F      -0.01707900      -0.00105800      -0.06515600
Cu       6.25758000      11.26364000      10.00000000  F       0.00188100       0.00133600      -0.05540100
Cu       8.76061000      11.26364000      10.00000000  F       0.00884500       0.00369900      -0.06731200
Cu      11.26364000      11.26364000      10.00000000  F      -0.00512700       0.00633200      -0.04656000
Cu       0.00000000       0.00000000      11.76991000  F      -0.02457300       0.05776300       0.05279200
Cu       2.50303000       0.00000000      11.76991000  F       0.03445600       0.04111900       0.02992400
Cu       5.00606000       0.00000000      11.76991000  F       0.06636800       0.10190600       0.03185700
Cu       7.50909000       0.00000000      11.76991000  F       0.02160100       0.08962700       0.04801400
Cu      10.01212000       0.00000000      11.76991000  F      -0.03806800       0.09895000       0.06311600
Cu       0.00000000       2.50303000      11.76991000  F      -0.05873200       0.04805500       0.05362500
Cu       2.50303000       2.50303000      11.76991000  F       0.06745100       0.02022500       0.03306800
Cu       5.00606000       2.50303000      11.76991000  F       0.01540400      -0.00984400       0.03367600
Cu       7.50909000       2.50303000      11.76991000  F      -0.01476100      -0.01143900       0.07443400
Cu      10.01212000       2.50303000      11.76991000  F       0.02804100      -0.05869300       0.02221200
Cu       0.00000000       5.00606000      11.76991000  F      -0.05868700       0.02859300       0.04908200
Cu       2.50303000       5.00606000      11.76991000  F       0.09131900       0.03235000       0.10715300
Cu       5.00606000       5.00606000      11.76991000  F      -0.05119200       0.02181800       0.15632800
Cu       7.50909000       5.00606000      11.76991000  F      -0.04787900      -0.00124500       0.08375200
Cu      10.01212000       5.00606000      11.76991000  F       0.02975800      -0.00594500       0.03113900
Cu       0.00000000       7.50909000      11.76991000  F      -0.02193200      -0.06087600       0.09097000
Cu       2.50303000       7.50909000      11.76991000  F       0.06831400      -0.04093100       0.04870800
Cu       5.00606000       7.50909000      11.76991000  F      -0.02152900       0.03039200       0.05414400
Cu       7.50909000       7.50909000      11.76991000  F      -0.00839700       0.00982600       0.04834600
Cu      10.01212000       7.50909000      11.76991000  F       0.04584000       0.05419000       0.01354800
Cu       0.00000000      10.01212000      11.76991000  F       0.02530200      -0.08357300       0.08550800
Cu       2.50303000      10.01212000      11.76991000  F       0.03107000      -0.05260100       0.02921300
Cu       5.00606000      10.01212000      11.76991000  F       0.02652300      -0.09904500       0.05942100
Cu       7.50909000      10.01212000      11.76991000  F       0.03233800      -0.06311900       0.04088800
Cu      10.01212000      10.01212000      11.76991000  F      -0.04347300      -0.08773100       0.05720300
Cu       1.26346000       1.24638000      13.56724000  T      -0.00228800      -0.00154000       0.00228500
Cu       3.78814000       1.26468000      13.58997000  T      -0.00457400      -0.00432600       0.00191600
Cu       6.28649000       1.28630000      13.61022000  T      -0.00257700      -0.00571500       0.00122000
Cu       8.76187000       1.28123000      13.61184000  T       0.00106600      -0.00132200      -0.00051400
Cu      11.26195000       1.26395000      13.59527000  T      -0.00156900       0.00016700       0.00248800
Cu       1.25652000       3.76282000      13.57118000  T       0.00134800       0.00166000       0.00533100
Cu       3.75955000       3.75535000      13.59780000  T      -0.00204300      -0.00391700       0.00195900
Cu       6.27071000       3.77142000      13.58056000  T       0.00398900      -0.00743100      -0.00854300
Cu       8.74307000       3.76387000      13.55869000  T       0.00145700      -0.00008100      -0.00114400
Cu      11.22990000       3.75814000      13.59644000  T       0.00124800       0.00108100       0.00425800
Cu       1.27017000       6.25154000      13.59357000  T       0.00160000      -0.00006700       0.00670300
Cu       3.75016000       6.27413000      13.61108000  T      -0.00167000      -0.00206500       0.00278300
Cu       6.27428000       6.24694000      13.57407000  T       0.00247500       0.00363100      -0.00598800
Cu       8.74682000       6.24568000      13.55489000  T       0.00032100      -0.00069600      -0.00111400
Cu      11.23352000       6.24882000      13.59500000  T       0.00216100      -0.00037800       0.00442100
Cu       1.28566000       8.74867000      13.59028000  T      -0.00330500       0.00168900       0.00195200
Cu       3.77651000       8.74520000      13.60977000  T      -0.00492200      -0.00207500       0.00105200
Cu       6.28913000       8.74192000      13.59494000  T      -0.00341400       0.00136400       0.00389000
Cu       8.76393000       8.73010000      13.60753000  T      -0.00045900       0.00164200      -0.00023900
Cu      11.26247000       8.75486000      13.58740000  T      -0.00220800       0.00073300       0.00298200
Cu       1.24398000      11.26126000      13.58165000  T      -0.00074600       0.00004200       0.00195700
Cu       3.74734000      11.26720000      13.56130000  T      -0.00203300      -0.00272700       0.00272600
Cu       6.25709000      11.27324000      13.55920000  T      -0.00013000      -0.00142800       0.00385800
Cu       8.76165000      11.26313000      13.56603000  T       0.00213600       0.00072700       0.00391100
Cu      11.27001000      11.26740000      13.57215000  T       0.00014900       0.00062400       0.00167900
Cu      12.51248000       0.01105000      15.36112000  T       0.00022600      -0.00098700       0.00069200
Cu       2.50616000      -0.00392000      15.35500000  T       0.00100800      -0.00007200       0.00460500
Cu       5.00240000      12.49686000      15.34803000  T      -0.00082700      -0.00511300       0.00386200
Cu       7.50517000      12.49283000      15.34192000  T       0.00040500      -0.00147000       0.00631600
Cu      10.01263000      12.49344000      15.34981000  T       0.00014900       0.00358100       0.00317900
Cu       0.06649000       2.51111000      15.34737000  T      -0.00867100       0.00036800      -0.00056800
Cu       2.52628000       2.44895000      15.35294000  T      -0.00595700       0.00040300       0.00255700
Cu       5.00419000       2.43179000      15.45618000  T      -0.00300900      -0.00389400       0.00358900
Cu       7.55646000       2.50641000      15.47591000  T      -0.00194600      -0.00579000      -0.00444500
Cu      10.10830000       2.45167000      15.43991000  T      -0.00583100       0.00448400       0.00697700
Cu      12.46639000       5.00437000      15.32387000  T       0.00966000       0.00142700       0.01156800
Cu       2.39679000       4.90591000      15.45881000  T       0.00952900      -0.00269700       0.00828400
Pd       4.96132000       5.02580000      15.49654000  T       0.05184000      -0.01416300      -0.03687400
Y        7.48280000       4.99878000      17.21579000  T      -0.00643400       0.00030700       0.01393500
Cu       9.96442000       5.00487000      15.43574000  T       0.01116900       0.00034700       0.00007000
Cu       0.02968000       7.51144000      15.32370000  T      -0.00648700       0.00187300       0.00384200
Cu       2.51623000       7.57210000      15.45644000  T      -0.00779100      -0.00019700       0.00765800
Cu       5.06694000       7.61793000      15.42346000  T      -0.00688100      -0.00717300       0.00339700
Cu       7.57729000       7.50154000      15.47709000  T      -0.00146700       0.00599300      -0.00456100
Cu      10.09776000       7.56055000      15.43768000  T      -0.00339800      -0.00283700       0.00767500
Cu      12.51360000      10.00865000      15.35701000  T      -0.00022200       0.00000900       0.00187500
Cu       2.50931000      10.04635000      15.35215000  T       0.00096800      -0.00110500       0.00411900
Cu       5.01001000      10.05987000      15.33969000  T      -0.00148800      -0.00567800       0.00375300
Cu       7.50591000      10.02422000      15.33833000  T      -0.00011600       0.00422000       0.00547300
Cu      10.01398000      10.03082000      15.34658000  T      -0.00021500      -0.00227100       0.00270200
O        6.14311000       3.39621000      16.66838000  T       0.00707900      -0.00761300       0.00225600
O        6.15122000       6.60805000      16.66760000  T       0.00687200       0.00279700      -0.00007200
O        9.00936000       6.43263000      16.54922000  T      -0.00484800      -0.01061800      -0.00467900
O        9.00213000       3.56388000      16.54247000  T      -0.00707200       0.00937600      -0.00332900
C        3.05345000       5.60348000      17.17044000  T      -0.07289200       0.00314200       0.01766500
O        3.43415000       4.87641000      18.24778000  T      -0.06906000      -0.00968100       0.00115100
O        2.89014000       6.84400000      17.35534000  T      -0.03884300       0.00948900       0.02155500
H        3.51251000       5.51465000      18.99959000  T      -0.02353400      -0.00631800      -0.00322600
108
Lattice="12.515153631 0.0 0.0 0.0 12.515153631 0.0 0.0 0.0 25.30973" Properties=species:S:1:pos:R:3:move_mask:L:1:forces:R:3 stress="0.007672562338265772 2.0890331044331265e-05 0.00027553142036211646 2.0890331044331265e-05 0.007506856512482697 4.5113627961884186e-05 0.00027553142036211646 4.5113627961884186e-05 0.0018839932881387358" free_energy=-445.23365839 energy=-445.23398795 pbc="T T T"
Cu       1.25152000       1.25152000      10.00000000  F       0.00517000       0.00682800      -0.06337500
Cu       3.75455000       1.25152000      10.00000000  F       0.00437300       0.02005700      -0.06898400
Cu       6.25758000       1.25152000      10.00000000  F      -0.00607200       0.02320600      -0.06770400
Cu       8.76061000       1.25152000      10.00000000  F       0.00922100       0.00252900      -0.04977700
Cu      11.26364000       1.25152000      10.00000000  F      -0.01357100      -0.00420300      -0.07575400
Cu       1.25152000       3.75455000      10.00000000  F      -0.00499800       0.00161900      -0.06827800
Cu       3.75455000       3.75455000      10.00000000  F       0.01580000      -0.02210800      -0.05336400
Cu       6.25758000       3.75455000      10.00000000  F      -0.02044900      -0.02538600      -0.07798200
Cu       8.76061000       3.75455000      10.00000000  F       0.00777800      -0.01508600      -0.07050800
Cu      11.26364000       3.75455000      10.00000000  F       0.00445600       0.00071700      -0.06014700
Cu       1.25152000       6.25758000      10.00000000  F      -0.00595100      -0.00737400      -0.05969500
Cu       3.75455000       6.25758000      10.00000000  F       0.01488800       0.01615500      -0.04516400
Cu       6.25758000       6.25758000      10.00000000  F      -0.01796600       0.02115900      -0.07749400
Cu       8.76061000       6.25758000      10.00000000  F       0.00904100       0.01798600      -0.08065500
Cu      11.26364000       6.25758000      10.00000000  F       0.00195900      -0.00752700      -0.05504400
Cu       1.25152000       8.76061000      10.00000000  F       0.00769900       0.00542700      -0.06194700
Cu       3.75455000       8.76061000      10.00000000  F      -0.00683400      -0.01326100      -0.05814700
Cu       6.25758000       8.76061000      10.00000000  F       0.00617100      -0.02000800      -0.06200700
Cu       8.76061000       8.76061000      10.00000000  F      -0.00016700      -0.01007200      -0.05054800
Cu      11.26364000       8.76061000      10.00000000  F      -0.00781400       0.00386600      -0.07091000
Cu       1.25152000      11.26364000      10.00000000  F       0.00840100      -0.00718900      -0.02141300
Cu       3.75455000      11.26364000      10.00000000  F      -0.01657500      -0.00130200      -0.06515900
Cu       6.25758000      11.26364000      10.00000000  F       0.00230000       0.00118900      -0.05613600
Cu       8.76061000      11.26364000      10.00000000  F       0.00805500       0.00390600      -0.06916000
Cu      11.26364000      11.26364000      10.00000000  F      -0.00501000       0.00593500      -0.04703000
Cu       0.00000000       0.00000000      11.76991000  F      -0.02457800       0.05797400       0.05313000
Cu       2.50303000       0.00000000      11.76991000  F       0.03385000       0.03919800       0.03042400
Cu       5.00606000       0.00000000      11.76991000  F       0.06617300       0.09712700       0.03228900
Cu       7.50909000       0.00000000      11.76991000  F       0.02118200       0.08766600       0.04880200
Cu      10.01212000       0.00000000      11.76991000  F      -0.03926900       0.09879900       0.06245800
Cu       0.00000000       2.50303000      11.76991000  F      -0.05800900       0.05095800       0.05695800
Cu       2.50303000       2.50303000      11.76991000  F       0.06709500       0.01789900       0.03063800
Cu       5.00606000       2.50303000      11.76991000  F       0.00915300      -0.01624800       0.02963600
Cu       7.50909000       2.50303000      11.76991000  F      -0.01179200      -0.01813000       0.06814600
Cu      10.01212000       2.50303000      11.76991000  F       0.03074600      -0.05720000       0.02340700
Cu       0.00000000       5.00606000      11.76991000  F      -0.05604400       0.02853100       0.05404900
Cu       2.50303000       5.00606000      11.76991000  F       0.09189200       0.03271600       0.10807000
Cu       5.00606000       5.00606000      11.76991000  F      -0.05657800       0.02073500       0.15023700
Cu       7.50909000       5.00606000      11.76991000  F      -0.04310600      -0.00195800       0.07384000
Cu      10.01212000       5.00606000      11.76991000  F       0.03327500      -0.00558700       0.03201900
Cu       0.00000000       7.50909000      11.76991000  F      -0.02239700      -0.06257700       0.09416100
Cu       2.50303000       7.50909000      11.76991000  F       0.06815200      -0.04371400       0.04888600
Cu       5.00606000       7.50909000      11.76991000  F      -0.02631000       0.03178500       0.05127400
Cu       7.50909000       7.50909000      11.76991000  F      -0.00643300       0.01522400       0.04310500
Cu      10.01212000       7.50909000      11.76991000  F       0.04802100       0.05262100       0.01587200
Cu       0.00000000      10.01212000      11.76991000  F       0.02472400      -0.08403500       0.08589200
Cu       2.50303000      10.01212000      11.76991000  F       0.03001500      -0.05382300       0.02940800
Cu       5.00606000      10.01212000      11.76991000  F       0.02605200      -0.10024200       0.06069300
Cu       7.50909000      10.01212000      11.76991000  F       0.03188100      -0.06401300       0.04273300
Cu      10.01212000      10.01212000      11.76991000  F      -0.04548800      -0.08741100       0.05761700
Cu       1.26283000       1.24603000      13.56737000  T      -0.00252900       0.00175300       0.00124200
Cu       3.78685000       1.26276000      13.59008000  T       0.00008900      -0.00072900       0.00359900
Cu       6.28544000       1.28394000      13.61015000  T      -0.00113700      -0.00479200       0.00167900
Cu       8.76160000       1.28120000      13.61155000  T      -0.00270700      -0.00124000       0.00326200
Cu      11.26112000       1.26419000      13.59548000  T      -0.00334600       0.00154400       0.00236500
Cu       1.25784000       3.76353000      13.57245000  T      -0.00114100      -0.00153800      -0.00266600
Cu       3.75890000       3.75360000      13.59806000  T       0.00105600       0.00107400       0.00507400
Cu       6.27221000       3.76779000      13.57555000  T      -0.00418100      -0.00095100       0.00162400
Cu       8.74353000       3.76403000      13.55826000  T       0.00446000      -0.00129500       0.00191000
Cu      11.23048000       3.75874000      13.59763000  T       0.00583900       0.00272800       0.00281800
Cu       1.27136000       6.25165000      13.59500000  T      -0.00240000       0.00391500      -0.00145000
Cu       3.75007000       6.27274000      13.61238000  T      -0.00038800      -0.00264600       0.00648400
Cu       6.27579000       6.24864000      13.56992000  T      -0.00284200      -0.00054400       0.00051000
Cu       8.74704000       6.24545000      13.55449000  T       0.00493900       0.00167600       0.00246900
Cu      11.23420000       6.24850000      13.59620000  T       0.00531400      -0.00083900       0.00263700
Cu       1.28476000       8.74890000      13.59044000  T      -0.00292100      -0.00188700       0.00203700
Cu       3.77476000       8.74358000      13.60982000  T      -0.00269400      -0.00366900       0.00586600
Cu       6.28772000       8.74210000      13.59579000  T      -0.00057100       0.00162900       0.00229500
Cu       8.76306000       8.73019000      13.60736000  T      -0.00167800       0.00121200       0.00386700
Cu      11.26137000       8.75500000      13.58772000  T      -0.00283900      -0.00146800       0.00206600
Cu       1.24412000      11.26116000      13.58180000  T       0.00146000      -0.00034000       0.00282800
Cu       3.74717000      11.26565000      13.56171000  T       0.00159400      -0.00173700       0.00167200
Cu       6.25700000      11.27234000      13.55998000  T       0.00009600      -0.00187400       0.00188800
Cu       8.76209000      11.26330000      13.56662000  T      -0.00042000       0.00053400       0.00217500
Cu      11.27015000      11.26765000      13.57209000  T      -0.00141700      -0.00037400       0.00318300
Cu      12.51288000       0.01109000      15.36070000  T       0.00075500      -0.00116200       0.00300300
Cu       2.50681000      -0.00459000      15.35556000  T      -0.00141100      -0.00129400       0.00456100
Cu       5.00240000      12.49387000      15.34886000  T      -0.00052300      -0.00390400       0.00357400
Cu       7.50533000      12.49267000      15.34326000  T       0.00045700       0.00053600       0.00270300
Cu      10.01282000      12.49439000      15.35007000  T       0.00090400       0.00045400       0.00423200
Cu       0.06331000       2.51123000      15.34595000  T      -0.00527400      -0.00298700       0.00317300
Cu       2.52384000       2.44838000      15.35299000  T      -0.00416300      -0.00471800       0.00344900
Cu       5.00226000       2.42869000      15.45700000  T      -0.00233600       0.00062500       0.00326300
Cu       7.55403000       2.50560000      15.47449000  T      -0.00019000       0.00134900       0.00012600
Cu      10.10540000       2.45323000      15.44127000  T      -0.00210900      -0.00209000      -0.00019100
Cu      12.47060000       5.00491000      15.32586000  T       0.00121800      -0.00002400       0.00849700
Cu       2.40344000       4.90527000      15.46124000  T      -0.00318300      -0.00161600      -0.00406900
Pd       4.97610000       5.02156000      15.48599000  T       0.03246500      -0.01027000      -0.00821400
Y        7.48124000       4.99868000      17.22139000  T       0.00254300      -0.00155700      -0.00920800
Cu       9.96712000       5.00511000      15.43619000  T       0.00564800      -0.00066600       0.00438800
Cu       0.02691000       7.51236000      15.32342000  T      -0.00611300       0.00363700       0.00432600
Cu       2.51385000       7.57157000      15.45965000  T      -0.00176700       0.00015600       0.00929100
Cu       5.06343000       7.61370000      15.42372000  T      -0.00389900      -0.00574700       0.00391300
Cu       7.57437000       7.50235000      15.47604000  T      -0.00175100      -0.00269500       0.00130500
Cu      10.09516000       7.55950000      15.43911000  T      -0.00278300       0.00221600       0.00167600
Cu      12.51365000      10.00897000      15.35687000  T       0.00011400       0.00076700       0.00332700
Cu       2.50972000      10.04527000      15.35274000  T      -0.00174700       0.00014900       0.00395500
Cu       5.00959000      10.05642000      15.34047000  T      -0.00127000      -0.00445200       0.00319900
Cu       7.50583000      10.02508000      15.33950000  T       0.00031200       0.00027700       0.00290800
Cu      10.01395000      10.03021000      15.34672000  T       0.00010500       0.00062200       0.00388500
O        6.14192000       3.39523000      16.66925000  T      -0.00430900       0.00286200       0.00101700
O        6.14906000       6.60601000      16.66859000  T      -0.00860800      -0.00199900      -0.00148200
O        9.00517000       6.42987000      16.54761000  T       0.00042300      -0.00008800      -0.00353100
O        8.99788000       3.56665000      16.54101000  T      -0.00010200      -0.00025300      -0.00270600
C        3.00010000       5.60543000      17.18408000  T      -0.04964700       0.00815300       0.00896000
O        3.38747000       4.87037000      18.25219000  T      -0.05956900       0.00381600       0.01394700
O        2.86213000       6.84782000      17.36978000  T      -0.04216100       0.00611300       0.01291700
H        3.49354000       5.50647000      19.00253000  T      -0.02577800      -0.00971000       0.00701400
108
Lattice="12.515153631 0.0 0.0 0.0 12.515153631 0.0 0.0 0.0 25.30973" Properties=species:S:1:pos:R:3:move_mask:L:1:forces:R:3 stress="0.007644787622655591 2.2450708325802082e-05 0.0002742956015551916 2.2450708325802082e-05 0.007478239193140523 4.2910375240447405e-05 0.0002742956015551916 4.2910375240447405e-05 0.001854564572610196" free_energy=-445.23626168 energy=-445.23659092 pbc="T T T"
Cu       1.25152000       1.25152000      10.00000000  F       0.00539400       0.00681800      -0.06340900
Cu       3.75455000       1.25152000      10.00000000  F       0.00451300       0.02007100      -0.06920500
Cu       6.25758000       1.25152000      10.00000000  F      -0.00569100       0.02314200      -0.06793100
Cu       8.76061000       1.25152000      10.00000000  F       0.00965100       0.00247700      -0.04977300
Cu      11.26364000       1.25152000      10.00000000  F      -0.01314000      -0.00421300      -0.07569800
Cu       1.25152000       3.75455000      10.00000000  F      -0.00475700       0.00176900      -0.06818200
Cu       3.75455000       3.75455000      10.00000000  F       0.01594200      -0.02194600      -0.05350100
Cu       6.25758000       3.75455000      10.00000000  F      -0.02012100      -0.02522300      -0.07818900
Cu       8.76061000       3.75455000      10.00000000  F       0.00823900      -0.01494100      -0.07061200
Cu      11.26364000       3.75455000      10.00000000  F       0.00488800       0.00087100      -0.06014100
Cu       1.25152000       6.25758000      10.00000000  F      -0.00570300      -0.00721300      -0.05960200
Cu       3.75455000       6.25758000      10.00000000  F       0.01501700       0.01630300      -0.04521600
Cu       6.25758000       6.25758000      10.00000000  F      -0.01766800       0.02129600      -0.07760900
Cu       8.76061000       6.25758000      10.00000000  F       0.00949100       0.01810500      -0.08070000
Cu      11.26364000       6.25758000      10.00000000  F       0.00242800      -0.00742200      -0.05493200
Cu       1.25152000       8.76061000      10.00000000  F       0.00793400       0.00544200      -0.06179700
Cu       3.75455000       8.76061000      10.00000000  F      -0.00668900      -0.01327800      -0.05815100
Cu       6.25758000       8.76061000      10.00000000  F       0.00649500      -0.01997600      -0.06209100
Cu       8.76061000       8.76061000      10.00000000  F       0.00025200      -0.01004500      -0.05042200
Cu      11.26364000       8.76061000      10.00000000  F      -0.00733400       0.00388900      -0.07068600
Cu       1.25152000      11.26364000      10.00000000  F       0.00862100      -0.00735600      -0.02123000
Cu       3.75455000      11.26364000      10.00000000  F      -0.01636700      -0.00146100      -0.06515900
Cu       6.25758000      11.26364000      10.00000000  F       0.00264200       0.00107700      -0.05627800
Cu       8.76061000      11.26364000      10.00000000  F       0.00847200       0.00381400      -0.06918300
Cu      11.26364000      11.26364000      10.00000000  F      -0.00458500       0.00580000      -0.04680900
Cu       0.00000000       0.00000000      11.76991000  F      -0.02444800       0.05757700       0.05376100
Cu       2.50303000       0.00000000      11.76991000  F       0.03399200       0.03897900       0.03110900
Cu       5.00606000       0.00000000      11.76991000  F       0.06629200       0.09678600       0.03261900
Cu       7.50909000       0.00000000      11.76991000  F       0.02160900       0.08741900       0.04902300
Cu      10.01212000       0.00000000      11.76991000  F      -0.03889700       0.09865100       0.06281600
Cu       0.00000000       2.50303000      11.76991000  F      -0.05814700       0.05074200       0.05665000
Cu       2.50303000       2.50303000      11.76991000  F       0.06778200       0.01777000       0.03087900
Cu       5.00606000       2.50303000      11.76991000  F       0.00911500      -0.01635100       0.03019200
Cu       7.50909000       2.50303000      11.76991000  F      -0.01143100      -0.01795900       0.06905400
Cu      10.01212000       2.50303000      11.76991000  F       0.03128200      -0.05705700       0.02401400
Cu       0.00000000       5.00606000      11.76991000  F      -0.05575700       0.02889400       0.05344000
Cu       2.50303000       5.00606000      11.76991000  F       0.09242400       0.03313600       0.10862100
Cu       5.00606000       5.00606000      11.76991000  F      -0.05675400       0.02100500       0.15027500
Cu       7.50909000       5.00606000      11.76991000  F      -0.04232100      -0.00181400       0.07493600
Cu      10.01212000       5.00606000      11.76991000  F       0.03392500      -0.00531100       0.03255500
Cu       0.00000000       7.50909000      11.76991000  F      -0.02243200      -0.06208200       0.09375400
Cu       2.50303000       7.50909000      11.76991000  F       0.06874900      -0.04356200       0.04928800
Cu       5.00606000       7.50909000      11.76991000  F      -0.02654600       0.03197000       0.05198100
Cu       7.50909000       7.50909000      11.76991000  F      -0.00596500       0.01525200       0.04391400
Cu      10.01212000       7.50909000      11.76991000  F       0.04857500       0.05268400       0.01633600
Cu       0.00000000      10.01212000      11.76991000  F       0.02493700      -0.08402200       0.08639400
Cu       2.50303000      10.01212000      11.76991000  F       0.03017300      -0.05420000       0.03004500
Cu       5.00606000      10.01212000      11.76991000  F       0.02595300      -0.10073800       0.06116300
Cu       7.50909000      10.01212000      11.76991000  F       0.03239900      -0.06425400       0.04297000
Cu      10.01212000      10.01212000      11.76991000  F      -0.04514400      -0.08748900       0.05797500
Cu       1.26271000       1.24611000      13.56744000  T      -0.00190800       0.00065900       0.00098000
Cu       3.78685000       1.26273000      13.59027000  T      -0.00018800      -0.00082300       0.00282000
Cu       6.28539000       1.28372000      13.61025000  T      -0.00087000      -0.00356500       0.00150200
Cu       8.76147000       1.28114000      13.61172000  T      -0.00183100      -0.00114700       0.00221200
Cu      11.26096000       1.26427000      13.59560000  T      -0.00236600       0.00070800       0.00142200
Cu       1.25779000       3.76347000      13.57233000  T      -0.00034600      -0.00066700      -0.00147300
Cu       3.75893000       3.75367000      13.59833000  T      -0.00007600       0.00030100       0.00420700
Cu       6.27204000       3.76773000      13.57562000  T      -0.00053800      -0.00279600      -0.00117600
Cu       8.74375000       3.76398000      13.55837000  T       0.00357300      -0.00054800       0.00121400
Cu      11.23077000       3.75888000      13.59777000  T       0.00491500       0.00215000       0.00227000
Cu       1.27124000       6.25184000      13.59494000  T      -0.00148500       0.00278700      -0.00055800
Cu       3.75005000       6.27260000      13.61273000  T      -0.00039400      -0.00246800       0.00601600
Cu       6.27567000       6.24864000      13.56994000  T      -0.00013300       0.00112900      -0.00158500
Cu       8.74728000       6.24553000      13.55463000  T       0.00393000       0.00108800       0.00160200
Cu      11.23446000       6.24846000      13.59634000  T       0.00451800      -0.00055200       0.00219500
Cu       1.28463000       8.74881000      13.59055000  T      -0.00211500      -0.00090700       0.00170800
Cu       3.77463000       8.74339000      13.61012000  T      -0.00249500      -0.00325700       0.00442200
Cu       6.28769000       8.74216000      13.59591000  T      -0.00067400       0.00066600       0.00196200
Cu       8.76298000       8.73024000      13.60757000  T      -0.00120900       0.00117600       0.00267700
Cu      11.26123000       8.75492000      13.58783000  T      -0.00199400      -0.00060600       0.00131600
Cu       1.24419000      11.26113000      13.58195000  T       0.00122600      -0.00035700       0.00188300
Cu       3.74725000      11.26556000      13.56180000  T       0.00125400      -0.00175100       0.00147300
Cu       6.25700000      11.27223000      13.56009000  T       0.00040000      -0.00171300       0.00170900
Cu       8.76207000      11.26331000      13.56674000  T       0.00028000       0.00036100       0.00175600
Cu      11.27009000      11.26762000      13.57226000  T      -0.00042500      -0.00028000       0.00223800
Cu      12.51292000       0.01103000      15.36086000  T       0.00076500      -0.00096200       0.00246000
Cu       2.50674000      -0.00466000      15.35579000  T      -0.00070100      -0.00146700       0.00392300
Cu       5.00237000      12.49368000      15.34905000  T      -0.00009700      -0.00339500       0.00362900
Cu       7.50535000      12.49269000      15.34340000  T       0.00059700       0.00034200       0.00288900
Cu      10.01287000      12.49440000      15.35029000  T       0.00104400       0.00011800       0.00370800
Cu       0.06306000       2.51109000      15.34613000  T      -0.00394600      -0.00211000       0.00281700
Cu       2.52363000       2.44816000      15.35317000  T      -0.00380900      -0.00339000       0.00329100
Cu       5.00212000       2.42869000      15.45714000  T      -0.00250900      -0.00196600       0.00252100
Cu       7.55401000       2.50566000      15.47449000  T      -0.00076000       0.00082200      -0.00018900
Cu      10.10530000       2.45313000      15.44126000  T      -0.00176400      -0.00149800      -0.00003900
Cu      12.47067000       5.00492000      15.32628000  T       0.00242300       0.00019500       0.00763700
Cu       2.40334000       4.90522000      15.46110000  T       0.00201000      -0.00050300      -0.00014300
Pd       4.97774000       5.02105000      15.48539000  T       0.01848000      -0.00513000      -0.00943700
Y        7.48126000       4.99859000      17.22119000  T       0.00048500      -0.00049600      -0.00068200
Cu       9.96741000       5.00508000      15.43640000  T       0.00594000      -0.00036700       0.00335600
Cu       0.02662000       7.51253000      15.32364000  T      -0.00449300       0.00288900       0.00397900
Cu       2.51374000       7.57158000      15.46010000  T      -0.00258600       0.00078800       0.00731000
Cu       5.06322000       7.61343000      15.42389000  T      -0.00428400      -0.00449500       0.00227300
Cu       7.57428000       7.50221000      15.47609000  T      -0.00212900      -0.00173900       0.00069100
Cu      10.09503000       7.55961000      15.43918000  T      -0.00196600       0.00224100       0.00122000
Cu      12.51365000      10.00900000      15.35704000  T       0.00014900       0.00070700       0.00279000
Cu       2.50963000      10.04527000      15.35294000  T      -0.00116500      -0.00022900       0.00353300
Cu       5.00953000      10.05618000      15.34063000  T      -0.00081300      -0.00434400       0.00311900
Cu       7.50584000      10.02508000      15.33965000  T       0.00044300       0.00022500       0.00308700
Cu      10.01395000      10.03023000      15.34692000  T       0.00045500       0.00075600       0.00353100
O        6.14172000       3.39537000      16.66930000  T      -0.00325100       0.00151200       0.00123900
O        6.14870000       6.60590000      16.66850000  T      -0.00525600      -0.00310400      -0.00036200
O        9.00517000       6.42985000      16.54742000  T      -0.00119100      -0.00158300      -0.00225500
O        8.99787000       3.56667000      16.54088000  T      -0.00101200       0.00031000      -0.00193400
C        2.99709000       5.60577000      17.18470000  T      -0.05891200       0.00430200       0.01357800
O        3.38401000       4.87042000      18.25272000  T      -0.06657700      -0.00204600       0.00931700
O        2.85973000       6.84817000      17.37048000  T      -0.04830100       0.00601900       0.01494700
H        3.49206000       5.50606000      19.00303000  T      -0.02561000      -0.00581800       0.00814600
108
Lattice="12.515153631 0.0 0.0 0.0 12.515153631 0.0 0.0 0.0 25.30973" Properties=species:S:1:pos:R:3:move_mask:L:1:forces:R:3 stress="0.0076680559686768835 2.152072346604547e-05 0.00027526927697882933 2.152072346604547e-05 0.007491876890580579 4.140617154110953e-05 0.00027526927697882933 4.140617154110953e-05 0.0018758793262750875" free_energy=-445.2349059 energy=-445.23522888 pbc="T T T"
Cu       1.25152000       1.25152000      10.00000000  F       0.00518500       0.00688600      -0.06390500
Cu       3.75455000       1.25152000      10.00000000  F       0.00438300       0.02012600      -0.06946500
Cu       6.25758000       1.25152000      10.00000000  F      -0.00583100       0.02315200      -0.06812700
Cu       8.76061000       1.25152000      10.00000000  F       0.00917200       0.00253100      -0.05000000
Cu      11.26364000       1.25152000      10.00000000  F      -0.01355200      -0.00418500      -0.07609800
Cu       1.25152000       3.75455000      10.00000000  F      -0.00494100       0.00187600      -0.06878800
Cu       3.75455000       3.75455000      10.00000000  F       0.01578500      -0.02184700      -0.05371800
Cu       6.25758000       3.75455000      10.00000000  F      -0.02029200      -0.02509700      -0.07828000
Cu       8.76061000       3.75455000      10.00000000  F       0.00778700      -0.01479400      -0.07090900
Cu      11.26364000       3.75455000      10.00000000  F       0.00448000       0.00098600      -0.06056900
Cu       1.25152000       6.25758000      10.00000000  F      -0.00589100      -0.00701700      -0.06003800
Cu       3.75455000       6.25758000      10.00000000  F       0.01487000       0.01651700      -0.04536700
Cu       6.25758000       6.25758000      10.00000000  F      -0.01784000       0.02147000      -0.07766800
Cu       8.76061000       6.25758000      10.00000000  F       0.00903500       0.01827100      -0.08100100
Cu      11.26364000       6.25758000      10.00000000  F       0.00199900      -0.00720800      -0.05528100
Cu       1.25152000       8.76061000      10.00000000  F       0.00772100       0.00562400      -0.06218700
Cu       3.75455000       8.76061000      10.00000000  F      -0.00683400      -0.01310500      -0.05832700
Cu       6.25758000       8.76061000      10.00000000  F       0.00632100      -0.01976200      -0.06225500
Cu       8.76061000       8.76061000      10.00000000  F      -0.00020800      -0.00989900      -0.05053500
Cu      11.26364000       8.76061000      10.00000000  F      -0.00770400       0.00408300      -0.07106100
Cu       1.25152000      11.26364000      10.00000000  F       0.00839200      -0.00732800      -0.02157700
Cu       3.75455000      11.26364000      10.00000000  F      -0.01647600      -0.00141900      -0.06534500
Cu       6.25758000      11.26364000      10.00000000  F       0.00243500       0.00115400      -0.05650400
Cu       8.76061000      11.26364000      10.00000000  F       0.00801000       0.00390900      -0.06952000
Cu      11.26364000      11.26364000      10.00000000  F      -0.00497600       0.00584100      -0.04720500
Cu       0.00000000       0.00000000      11.76991000  F      -0.02492200       0.05737400       0.05482600
Cu       2.50303000       0.00000000      11.76991000  F       0.03390000       0.03899500       0.03213500
Cu       5.00606000       0.00000000      11.76991000  F       0.06606200       0.09656100       0.03311300
Cu       7.50909000       0.00000000      11.76991000  F       0.02117200       0.08724400       0.04940200
Cu      10.01212000       0.00000000      11.76991000  F      -0.03953300       0.09866300       0.06347500
Cu       0.00000000       2.50303000      11.76991000  F      -0.05887400       0.05070200       0.05662200
Cu       2.50303000       2.50303000      11.76991000  F       0.06821000       0.01762000       0.03119100
Cu       5.00606000       2.50303000      11.76991000  F       0.00839700      -0.01661100       0.03063600
Cu       7.50909000       2.50303000      11.76991000  F      -0.01174800      -0.01794100       0.06970700
Cu      10.01212000       2.50303000      11.76991000  F       0.03100800      -0.05680900       0.02484400
Cu       0.00000000       5.00606000      11.76991000  F      -0.05604800       0.02920500       0.05308700
Cu       2.50303000       5.00606000      11.76991000  F       0.09265300       0.03351800       0.10918700
Cu       5.00606000       5.00606000      11.76991000  F      -0.05753400       0.02115900       0.15009300
Cu       7.50909000       5.00606000      11.76991000  F      -0.04206700      -0.00170200       0.07570800
Cu      10.01212000       5.00606000      11.76991000  F       0.03388200      -0.00501000       0.03324800
Cu       0.00000000       7.50909000      11.76991000  F      -0.02318600      -0.06158200       0.09360500
Cu       2.50303000       7.50909000      11.76991000  F       0.06908700      -0.04351900       0.04996200
Cu       5.00606000       7.50909000      11.76991000  F      -0.02741900       0.03223400       0.05265000
Cu       7.50909000       7.50909000      11.76991000  F      -0.00607500       0.01549900       0.04453500
Cu      10.01212000       7.50909000      11.76991000  F       0.04827000       0.05276500       0.01708900
Cu       0.00000000      10.01212000      11.76991000  F       0.02447300      -0.08384000       0.08735800
Cu       2.50303000      10.01212000      11.76991000  F       0.03003500      -0.05443200       0.03103800
Cu       5.00606000      10.01212000      11.76991000  F       0.02545800      -0.10110000       0.06184100
Cu       7.50909000      10.01212000      11.76991000  F       0.03214900      -0.06428600       0.04336500
Cu      10.01212000      10.01212000      11.76991000  F      -0.04583700      -0.08739800       0.05868800
Cu       1.26254000       1.24618000      13.56754000  T      -0.00226700       0.00017500       0.00128500
Cu       3.78683000       1.26266000      13.59052000  T      -0.00082100      -0.00121800       0.00292200
Cu       6.28528000       1.28341000      13.61038000  T      -0.00145000      -0.00366600       0.00157300
Cu       8.76126000       1.28105000      13.61194000  T      -0.00238000      -0.00119800       0.00186900
Cu      11.26074000       1.26434000      13.59576000  T      -0.00287300       0.00029900       0.00129200
Cu       1.25774000       3.76341000      13.57223000  T      -0.00015000      -0.00015300      -0.00022600
Cu       3.75891000       3.75370000      13.59869000  T      -0.00130000      -0.00032800       0.00435700
Cu       6.27195000       3.76749000      13.57552000  T       0.00117100      -0.00485900      -0.00405100
Cu       8.74402000       3.76394000      13.55849000  T       0.00315000      -0.00022200       0.00078500
Cu      11.23116000       3.75907000      13.59799000  T       0.00438800       0.00208300       0.00242100
Cu       1.27109000       6.25206000      13.59491000  T      -0.00163600       0.00267000       0.00028200
Cu       3.75000000       6.27238000      13.61326000  T      -0.00095400      -0.00272600       0.00678500
Cu       6.27562000       6.24873000      13.56982000  T       0.00127200       0.00272100      -0.00403400
Cu       8.74758000       6.24562000      13.55480000  T       0.00348200       0.00103100       0.00109800
Cu      11.23481000       6.24839000      13.59656000  T       0.00402300      -0.00031700       0.00255000
Cu       1.28444000       8.74870000      13.59073000  T      -0.00247200      -0.00039400       0.00202800
Cu       3.77441000       8.74310000      13.61053000  T      -0.00325600      -0.00337900       0.00426100
Cu       6.28760000       8.74221000      13.59610000  T      -0.00142800       0.00055700       0.00202500
Cu       8.76283000       8.73032000      13.60783000  T      -0.00187800       0.00150600       0.00231000
Cu      11.26103000       8.75484000      13.58799000  T      -0.00254600       0.00001700       0.00126900
Cu       1.24429000      11.26110000      13.58215000  T       0.00084000      -0.00034900       0.00197800
Cu       3.74735000      11.26540000      13.56195000  T       0.00099900      -0.00200900       0.00183300
Cu       6.25699000      11.27207000      13.56026000  T       0.00004800      -0.00183600       0.00208700
Cu       8.76204000      11.26333000      13.56692000  T      -0.00000100       0.00040200       0.00193400
Cu      11.27002000      11.26759000      13.57249000  T      -0.00061600      -0.00015500       0.00222900
Cu      12.51297000       0.01095000      15.36110000  T       0.00041900      -0.00095800       0.00271900
Cu       2.50666000      -0.00480000      15.35614000  T      -0.00076100      -0.00181000       0.00409400
Cu       5.00233000      12.49337000      15.34936000  T      -0.00047800      -0.00402800       0.00410300
Cu       7.50536000      12.49270000      15.34366000  T       0.00008300       0.00023000       0.00340700
Cu      10.01293000      12.49440000      15.35064000  T       0.00067400      -0.00008500       0.00418000
Cu       0.06270000       2.51091000      15.34638000  T      -0.00441500      -0.00202100       0.00294500
Cu       2.52328000       2.44786000      15.35345000  T      -0.00503200      -0.00331000       0.00353700
Cu       5.00186000       2.42851000      15.45734000  T      -0.00332100      -0.00385700       0.00271100
Cu       7.55393000       2.50572000      15.47446000  T      -0.00214000       0.00069700      -0.00063400
Cu      10.10514000       2.45299000      15.44125000  T      -0.00243900      -0.00123700      -0.00013600
Cu      12.47081000       5.00493000      15.32690000  T       0.00315100       0.00030500       0.00774800
Cu       2.40352000       4.90519000      15.46103000  T       0.00673500       0.00050200       0.00092000
Pd       4.98012000       5.02037000      15.48436000  T       0.04792900      -0.01379600      -0.02192300
Y        7.48132000       4.99852000      17.22114000  T       0.00177000       0.00009500       0.00066000
Cu       9.96787000       5.00505000      15.43668000  T       0.00638000      -0.00018200       0.00301100
Cu       0.02618000       7.51277000      15.32399000  T      -0.00524000       0.00323700       0.00407900
Cu       2.51352000       7.57165000      15.46075000  T      -0.00401600       0.00162800       0.00782400
Cu       5.06285000       7.61303000      15.42409000  T      -0.00569300      -0.00502200       0.00191400
Cu       7.57407000       7.50204000      15.47614000  T      -0.00364300      -0.00141300      -0.00002500
Cu      10.09481000       7.55977000      15.43929000  T      -0.00274900       0.00249900       0.00093800
Cu      12.51364000      10.00904000      15.35731000  T      -0.00040100       0.00097800       0.00307700
Cu       2.50952000      10.04524000      15.35325000  T      -0.00147800      -0.00023700       0.00386700
Cu       5.00944000      10.05580000      15.34089000  T      -0.00122500      -0.00497300       0.00347800
Cu       7.50584000      10.02507000      15.33992000  T      -0.00009900       0.00035600       0.00358600
Cu      10.01395000      10.03027000      15.34725000  T       0.00004700       0.00103600       0.00399500
O        6.14143000       3.39554000      16.66953000  T      -0.00367400      -0.00013400       0.00187800
O        6.14818000       6.60565000      16.66855000  T      -0.00432800      -0.00324500       0.00209200
O        9.00504000       6.42975000      16.54721000  T      -0.00247000      -0.00132400      -0.00092100
O        8.99777000       3.56674000      16.54074000  T      -0.00173100       0.00018400      -0.00135500
C        2.99139000       5.60631000      17.18603000  T      -0.06188800       0.00616800       0.01464000
O        3.37799000       4.87032000      18.25358000  T      -0.06203200      -0.00044700       0.00815300
O        2.85555000       6.84880000      17.37179000  T      -0.04263600       0.00850800       0.01366800
H        3.48926000       5.50545000      19.00389000  T      -0.03118900      -0.00506400       0.00723300
108
Lattice="12.515153631 0.0 0.0 0.0 12.515153631 0.0 0.0 0.0 25.30973" Properties=species:S:1:pos:R:3:move_mask:L:1:forces:R:3 stress="0.007754163828577569 2.409222522590938e-05 0.0002604144852592272 2.409222522590938e-05 0.007546184261484888 2.9753274003085494e-05 0.0002604144852592272 2.9753274003085494e-05 0.0019801999098051004" free_energy=-445.24749582 energy=-445.24777938 pbc="T T T"
Cu       1.25152000       1.25152000      10.00000000  F       0.00509400       0.00691700      -0.06328200
Cu       3.75455000       1.25152000      10.00000000  F       0.00383500       0.02012900      -0.06873700
Cu       6.25758000       1.25152000      10.00000000  F      -0.00519500       0.02235400      -0.06774000
Cu       8.76061000       1.25152000      10.00000000  F       0.00852100       0.00198500      -0.04912300
Cu      11.26364000       1.25152000      10.00000000  F      -0.01341200      -0.00440600      -0.07551000
Cu       1.25152000       3.75455000      10.00000000  F      -0.00493200       0.00127400      -0.06761700
Cu       3.75455000       3.75455000      10.00000000  F       0.01516100      -0.02232300      -0.05213600
Cu       6.25758000       3.75455000      10.00000000  F      -0.02037100      -0.02513400      -0.07744700
Cu       8.76061000       3.75455000      10.00000000  F       0.00770900      -0.01489000      -0.07076000
Cu      11.26364000       3.75455000      10.00000000  F       0.00480300       0.00069200      -0.05993300
Cu       1.25152000       6.25758000      10.00000000  F      -0.00588900      -0.00731900      -0.05904300
Cu       3.75455000       6.25758000      10.00000000  F       0.01439700       0.01627700      -0.04398500
Cu       6.25758000       6.25758000      10.00000000  F      -0.01779400       0.02098600      -0.07679800
Cu       8.76061000       6.25758000      10.00000000  F       0.00872900       0.01793100      -0.08108300
Cu      11.26364000       6.25758000      10.00000000  F       0.00212800      -0.00753900      -0.05441700
Cu       1.25152000       8.76061000      10.00000000  F       0.00759100       0.00566100      -0.06177500
Cu       3.75455000       8.76061000      10.00000000  F      -0.00723100      -0.01319000      -0.05793700
Cu       6.25758000       8.76061000      10.00000000  F       0.00674100      -0.01939700      -0.06220900
Cu       8.76061000       8.76061000      10.00000000  F      -0.00072500      -0.00992700      -0.04933300
Cu      11.26364000       8.76061000      10.00000000  F      -0.00757200       0.00423300      -0.07064300
Cu       1.25152000      11.26364000      10.00000000  F       0.00820000      -0.00757800      -0.02058600
Cu       3.75455000      11.26364000      10.00000000  F      -0.01656600      -0.00163000      -0.06415700
Cu       6.25758000      11.26364000      10.00000000  F       0.00283400       0.00110700      -0.05685300
Cu       8.76061000      11.26364000      10.00000000  F       0.00709300       0.00401500      -0.07056700
Cu      11.26364000      11.26364000      10.00000000  F      -0.00476600       0.00551100      -0.04658200
Cu       0.00000000       0.00000000      11.76991000  F      -0.02578000       0.05586900       0.06160700
Cu       2.50303000       0.00000000      11.76991000  F       0.03344100       0.03812100       0.04029900
Cu       5.00606000       0.00000000      11.76991000  F       0.06518900       0.09301900       0.03920400
Cu       7.50909000       0.00000000      11.76991000  F       0.02022000       0.08560500       0.05466400
Cu      10.01212000       0.00000000      11.76991000  F      -0.04096800       0.09716500       0.06838100
Cu       0.00000000       2.50303000      11.76991000  F      -0.06085700       0.04958100       0.05871400
Cu       2.50303000       2.50303000      11.76991000  F       0.07018800       0.01478800       0.03438600
Cu       5.00606000       2.50303000      11.76991000  F       0.00203400      -0.01974800       0.03565500
Cu       7.50909000       2.50303000      11.76991000  F      -0.00971800      -0.02164600       0.07350900
Cu      10.01212000       2.50303000      11.76991000  F       0.03323300      -0.05586400       0.03221000
Cu       0.00000000       5.00606000      11.76991000  F      -0.05491200       0.02912600       0.05369200
Cu       2.50303000       5.00606000      11.76991000  F       0.09416500       0.03446000       0.11523900
Cu       5.00606000       5.00606000      11.76991000  F      -0.06290800       0.02038500       0.15267100
Cu       7.50909000       5.00606000      11.76991000  F      -0.03733900      -0.00256800       0.07943400
Cu      10.01212000       5.00606000      11.76991000  F       0.03809100      -0.00449900       0.03922400
Cu       0.00000000       7.50909000      11.76991000  F      -0.02578900      -0.05965200       0.09508900
Cu       2.50303000       7.50909000      11.76991000  F       0.07100200      -0.04508200       0.05648700
Cu       5.00606000       7.50909000      11.76991000  F      -0.03402800       0.03204400       0.05921200
Cu       7.50909000       7.50909000      11.76991000  F      -0.00344800       0.01817800       0.04863700
Cu      10.01212000       7.50909000      11.76991000  F       0.04994300       0.05155900       0.02453500
Cu       0.00000000      10.01212000      11.76991000  F       0.02337600      -0.08335400       0.09358200
Cu       2.50303000      10.01212000      11.76991000  F       0.02938300      -0.05662700       0.03891200
Cu       5.00606000      10.01212000      11.76991000  F       0.02305200      -0.10391300       0.06934900
Cu       7.50909000      10.01212000      11.76991000  F       0.03230000      -0.06584800       0.04901900
Cu      10.01212000      10.01212000      11.76991000  F      -0.04772000      -0.08653500       0.06435000
Cu       1.26135000       1.24620000      13.56846000  T       0.00093200      -0.00323100      -0.00040100
Cu       3.78621000       1.26187000      13.59227000  T      -0.00251500      -0.00335500      -0.00270400
Cu       6.28437000       1.28136000      13.61151000  T      -0.00131300       0.00024000      -0.00020200
Cu       8.76003000       1.28039000      13.61318000  T       0.00088900       0.00036100      -0.00282100
Cu      11.25934000       1.26443000      13.59664000  T       0.00146900      -0.00350600      -0.00281900
Cu       1.25778000       3.76328000      13.57244000  T       0.00306100       0.00102100       0.00440600
Cu       3.75807000       3.75329000      13.60127000  T      -0.00285400      -0.00356300      -0.00239300
Cu       6.27241000       3.76493000      13.57369000  T       0.00299800      -0.00175800      -0.00588600
Cu       8.74579000       3.76381000      13.55912000  T      -0.00279800       0.00109200      -0.00249100
Cu      11.23372000       3.76005000      13.59961000  T      -0.00415800      -0.00338200      -0.00112200
Cu       1.27027000       6.25315000      13.59536000  T       0.00256200      -0.00240200       0.00252400
Cu       3.74933000       6.27073000      13.61717000  T      -0.00213200       0.00140900      -0.00321100
Cu       6.27624000       6.24980000      13.56800000  T       0.00298800       0.00026500      -0.00449800
Cu       8.74946000       6.24589000      13.55566000  T      -0.00394600      -0.00101800      -0.00308100
Cu      11.23713000       6.24797000      13.59831000  T      -0.00415100       0.00137000      -0.00047700
Cu       1.28310000       8.74835000      13.59208000  T      -0.00027800       0.00414000      -0.00188500
Cu       3.77254000       8.74097000      13.61305000  T      -0.00102000       0.00220100      -0.00521400
Cu       6.28669000       8.74222000      13.59757000  T      -0.00243400      -0.00035200      -0.00017300
Cu       8.76176000       8.73089000      13.60939000  T      -0.00098100       0.00021500      -0.00342000
Cu      11.25975000       8.75469000      13.58895000  T       0.00058600       0.00438000      -0.00203500
Cu       1.24478000      11.26083000      13.58341000  T      -0.00202300       0.00007400      -0.00269600
Cu       3.74783000      11.26414000      13.56324000  T      -0.00156600      -0.00061400       0.00023300
Cu       6.25697000      11.27092000      13.56173000  T      -0.00027700       0.00051200       0.00066800
Cu       8.76211000      11.26341000      13.56830000  T       0.00055900      -0.00024400      -0.00047800
Cu      11.26985000      11.26746000      13.57392000  T       0.00104400       0.00101500      -0.00335800
Cu      12.51324000       0.01043000      15.36285000  T      -0.00134200       0.00105500      -0.00147900
Cu       2.50629000      -0.00589000      15.35853000  T       0.00162500      -0.00042200      -0.00297700
Cu       5.00206000      12.49095000      15.35197000  T       0.00030200      -0.00243300      -0.00064900
Cu       7.50539000      12.49268000      15.34596000  T      -0.00084600      -0.00100200       0.00054500
Cu      10.01334000      12.49425000      15.35327000  T      -0.00124100      -0.00074800      -0.00238600
Cu       0.06032000       2.50974000      15.34807000  T       0.00074900       0.00071700      -0.00332900
Cu       2.52048000       2.44608000      15.35557000  T      -0.00023600       0.00358900      -0.00105300
Cu       4.99989000       2.42642000      15.45931000  T      -0.00083600      -0.00286600       0.00256400
Cu       7.55245000       2.50612000      15.47447000  T      -0.00811600       0.00061700       0.00122300
Cu      10.10379000       2.45224000      15.44145000  T      -0.00191400       0.00130100      -0.00006600
Cu      12.47277000       5.00489000      15.33123000  T       0.00656800      -0.00014300      -0.00460600
Cu       2.40660000       4.90523000      15.46190000  T       0.00139100       0.00242500       0.01027000
Pd       4.99040000       5.01712000      15.47946000  T       0.01699100      -0.00745200      -0.00594500
Y        7.48204000       4.99829000      17.22188000  T      -0.00134100      -0.00097300       0.00839700
Cu       9.97166000       5.00482000      15.43870000  T      -0.00043100       0.00113300      -0.00141200
Cu       0.02321000       7.51431000      15.32638000  T      -0.00066900       0.00005500      -0.00524300
Cu       2.51125000       7.57234000      15.46540000  T      -0.00184300       0.00136200      -0.00192300
Cu       5.05956000       7.60977000      15.42559000  T      -0.00243000      -0.00363900       0.00228500
Cu       7.57171000       7.50089000      15.47652000  T      -0.00867600       0.00026600      -0.00005500
Cu      10.09316000       7.56086000      15.44011000  T      -0.00477700      -0.00230200      -0.00005700
Cu      12.51343000      10.00942000      15.35930000  T      -0.00177500       0.00104600      -0.00168300
Cu       2.50881000      10.04488000      15.35567000  T       0.00089100      -0.00022200      -0.00128900
Cu       5.00878000      10.05276000      15.34319000  T       0.00018400      -0.00112300       0.00028000
Cu       7.50573000      10.02498000      15.34234000  T      -0.00098500      -0.00031100       0.00041200
Cu      10.01400000      10.03067000      15.34983000  T      -0.00066700       0.00095200      -0.00167300
O        6.13850000       3.39641000      16.67180000  T      -0.00104500      -0.00143900      -0.00094300
O        6.14365000       6.60261000      16.67029000  T      -0.00188900      -0.00203500       0.00514200
O        9.00335000       6.42873000      16.54594000  T      -0.00478700       0.00435700       0.00331100
O        8.99661000       3.56710000      16.53972000  T      -0.00475100      -0.00254600       0.00323500
C        2.93160000       5.61027000      17.20055000  T      -0.03688500       0.00249000       0.00963100
O        3.31863000       4.86831000      18.26264000  T      -0.03097100       0.00426700       0.01363500
O        2.81421000       6.85394000      17.38510000  T      -0.02497400       0.00326800       0.01151800
H        3.45868000       5.49945000      19.01186000  T      -0.05044400      -0.00442000      -0.00195500
108
Lattice="12.515153631 0.0 0.0 0.0 12.515153631 0.0 0.0 0.0 25.30973" Properties=species:S:1:pos:R:3:move_mask:L:1:forces:R:3 stress="0.007833175092602125 2.6307960965597933e-05 0.00024429266718707074 2.6307960965597933e-05 0.007609385782893582 1.5641221869463443e-05 0.00024429266718707074 1.5641221869463443e-05 0.0020723183429940113" free_energy=-445.25142989 energy=-445.25167691 pbc="T T T"
Cu       1.25152000       1.25152000      10.00000000  F       0.00542900       0.00709200      -0.06315200
Cu       3.75455000       1.25152000      10.00000000  F       0.00406000       0.02016900      -0.06866000
Cu       6.25758000       1.25152000      10.00000000  F      -0.00419700       0.02176000      -0.06732400
Cu       8.76061000       1.25152000      10.00000000  F       0.00822000       0.00155400      -0.04843900
Cu      11.26364000       1.25152000      10.00000000  F      -0.01304300      -0.00442900      -0.07513900
Cu       1.25152000       3.75455000      10.00000000  F      -0.00445700       0.00111000      -0.06682300
Cu       3.75455000       3.75455000      10.00000000  F       0.01518200      -0.02238300      -0.05108900
Cu       6.25758000       3.75455000      10.00000000  F      -0.02004200      -0.02512400      -0.07695700
Cu       8.76061000       3.75455000      10.00000000  F       0.00797100      -0.01511000      -0.07088300
Cu      11.26364000       3.75455000      10.00000000  F       0.00540800       0.00054400      -0.05946700
Cu       1.25152000       6.25758000      10.00000000  F      -0.00528700      -0.00731900      -0.05833800
Cu       3.75455000       6.25758000      10.00000000  F       0.01449700       0.01628500      -0.04291500
Cu       6.25758000       6.25758000      10.00000000  F      -0.01760000       0.02089400      -0.07636500
Cu       8.76061000       6.25758000      10.00000000  F       0.00878500       0.01784400      -0.08157900
Cu      11.26364000       6.25758000      10.00000000  F       0.00274300      -0.00762200      -0.05397400
Cu       1.25152000       8.76061000      10.00000000  F       0.00806800       0.00567000      -0.06162700
Cu       3.75455000       8.76061000      10.00000000  F      -0.00698500      -0.01315800      -0.05773200
Cu       6.25758000       8.76061000      10.00000000  F       0.00732200      -0.01889300      -0.06222100
Cu       8.76061000       8.76061000      10.00000000  F      -0.00092400      -0.00958300      -0.04875000
Cu      11.26364000       8.76061000      10.00000000  F      -0.00700900       0.00446800      -0.07074400
Cu       1.25152000      11.26364000      10.00000000  F       0.00848600      -0.00766100      -0.02020500
Cu       3.75455000      11.26364000      10.00000000  F      -0.01592200      -0.00166400      -0.06350300
Cu       6.25758000      11.26364000      10.00000000  F       0.00365700       0.00127100      -0.05704300
Cu       8.76061000      11.26364000      10.00000000  F       0.00658500       0.00444900      -0.07127800
Cu      11.26364000      11.26364000      10.00000000  F      -0.00439700       0.00550500      -0.04632100
Cu       0.00000000       0.00000000      11.76991000  F      -0.02541700       0.05550800       0.06446600
Cu       2.50303000       0.00000000      11.76991000  F       0.03386500       0.03745600       0.04468700
Cu       5.00606000       0.00000000      11.76991000  F       0.06520400       0.09051200       0.04263200
Cu       7.50909000       0.00000000      11.76991000  F       0.01943000       0.08487700       0.05763100
Cu      10.01212000       0.00000000      11.76991000  F      -0.04215600       0.09637400       0.07027800
Cu       0.00000000       2.50303000      11.76991000  F      -0.06105100       0.04947100       0.06073800
Cu       2.50303000       2.50303000      11.76991000  F       0.07163900       0.01313900       0.03602200
Cu       5.00606000       2.50303000      11.76991000  F      -0.00242000      -0.02217700       0.03820700
Cu       7.50909000       2.50303000      11.76991000  F      -0.00802100      -0.02507800       0.07426800
Cu      10.01212000       2.50303000      11.76991000  F       0.03511800      -0.05514000       0.03640500
Cu       0.00000000       5.00606000      11.76991000  F      -0.05332700       0.02877800       0.05557400
Cu       2.50303000       5.00606000      11.76991000  F       0.09542200       0.03491300       0.11857300
Cu       5.00606000       5.00606000      11.76991000  F      -0.06692700       0.01972800       0.15373200
Cu       7.50909000       5.00606000      11.76991000  F      -0.03400800      -0.00343900       0.07934300
Cu      10.01212000       5.00606000      11.76991000  F       0.04156100      -0.00432800       0.04265500
Cu       0.00000000       7.50909000      11.76991000  F      -0.02663500      -0.05882500       0.09661000
Cu       2.50303000       7.50909000      11.76991000  F       0.07238600      -0.04634600       0.05998000
Cu       5.00606000       7.50909000      11.76991000  F      -0.03843400       0.03193100       0.06241500
Cu       7.50909000       7.50909000      11.76991000  F      -0.00191400       0.02088400       0.04967600
Cu      10.01212000       7.50909000      11.76991000  F       0.05164800       0.05070800       0.02912000
Cu       0.00000000      10.01212000      11.76991000  F       0.02333600      -0.08295400       0.09606200
Cu       2.50303000      10.01212000      11.76991000  F       0.02970000      -0.05765000       0.04284300
Cu       5.00606000      10.01212000      11.76991000  F       0.02209600      -0.10509000       0.07352200
Cu       7.50909000      10.01212000      11.76991000  F       0.03198800      -0.06645600       0.05223400
Cu      10.01212000      10.01212000      11.76991000  F      -0.04906000      -0.08541300       0.06691000
Cu       1.26068000       1.24598000      13.56904000  T       0.00276800      -0.00238600      -0.00158500
Cu       3.78561000       1.26106000      13.59322000  T      -0.00125200      -0.00259500      -0.00425000
Cu       6.28364000       1.28000000      13.61226000  T      -0.00065200       0.00208100      -0.00146400
Cu       8.75927000       1.28000000      13.61380000  T       0.00171000       0.00194700      -0.00328700
Cu      11.25854000       1.26421000      13.59699000  T       0.00307900      -0.00279400      -0.00346100
Cu       1.25811000       3.76326000      13.57294000  T       0.00346300       0.00014300       0.00255500
Cu       3.75731000       3.75273000      13.60285000  T      -0.00065700      -0.00201700      -0.00391100
Cu       6.27290000       3.76307000      13.57199000  T       0.00096200       0.00106500      -0.00387800
Cu       8.74673000       3.76380000      13.55936000  T      -0.00437500       0.00103900      -0.00197100
Cu      11.23510000       3.76043000      13.60062000  T      -0.00632500      -0.00408400      -0.00216400
Cu       1.27000000       6.25367000      13.59585000  T       0.00395800      -0.00262500       0.00050300
Cu       3.74872000       6.26969000      13.61958000  T      -0.00013700       0.00177100      -0.00599600
Cu       6.27682000       6.25047000      13.56644000  T       0.00052300      -0.00165300      -0.00194000
Cu       8.75037000       6.24596000      13.55600000  T      -0.00573100      -0.00127800      -0.00270600
Cu      11.23836000       6.24776000      13.59947000  T      -0.00664400       0.00096900      -0.00179300
Cu       1.28220000       8.74844000      13.59281000  T       0.00126100       0.00417800      -0.00409800
Cu       3.77120000       8.73969000      13.61432000  T       0.00162200       0.00369000      -0.00722900
Cu       6.28583000       8.74216000      13.59856000  T      -0.00200400      -0.00073000      -0.00137700
Cu       8.76094000       8.73126000      13.61015000  T      -0.00063100      -0.00124200      -0.00411100
Cu      11.25895000       8.75495000      13.58943000  T       0.00121600       0.00386200      -0.00284000
Cu       1.24497000      11.26066000      13.58404000  T      -0.00175100       0.00072600      -0.00382600
Cu       3.74805000      11.26322000      13.56412000  T      -0.00144400       0.00040000      -0.00180700
Cu       6.25692000      11.27019000      13.56278000  T      -0.00023200       0.00143100      -0.00121700
Cu       8.76219000      11.26345000      13.56918000  T       0.00019700      -0.00020400      -0.00230900
Cu      11.26985000      11.26748000      13.57459000  T       0.00110700       0.00151500      -0.00509700
Cu      12.51333000       0.01020000      15.36392000  T      -0.00125400       0.00199100      -0.00363400
Cu       2.50620000      -0.00663000      15.35988000  T       0.00216700       0.00138900      -0.00620700
Cu       5.00191000      12.48912000      15.35368000  T       0.00084800      -0.00053100      -0.00391100
Cu       7.50534000      12.49261000      15.34757000  T      -0.00043300      -0.00051900      -0.00211600
Cu      10.01352000      12.49412000      15.35482000  T      -0.00138900       0.00025500      -0.00613900
Cu       0.05879000       2.50901000      15.34889000  T       0.00218100       0.00137800      -0.00656700
Cu       2.51864000       2.44522000      15.35690000  T       0.00343100       0.00541200      -0.00393400
Cu       4.99844000       2.42474000      15.46086000  T      -0.00081300      -0.00238000      -0.00059100
Cu       7.55074000       2.50646000      15.47459000  T      -0.00643200       0.00069500       0.00090200
Cu      10.10270000       2.45186000      15.44158000  T      -0.00219000       0.00299900      -0.00046100
Cu      12.47468000       5.00483000      15.33371000  T       0.00454300      -0.00030900      -0.00913600
Cu       2.40874000       4.90552000      15.46348000  T      -0.00572800       0.00332100       0.01337600
Pd       4.99747000       5.01464000      15.47624000  T       0.00415500      -0.00478300      -0.00340600
Y        7.48246000       4.99802000      17.22316000  T      -0.00105700      -0.00137700       0.00825700
Cu       9.97416000       5.00474000      15.43998000  T      -0.00611800       0.00117300      -0.00210000
Cu       0.02113000       7.51535000      15.32748000  T       0.00041100      -0.00080500      -0.00961100
Cu       2.50963000       7.57285000      15.46846000  T       0.00121200      -0.00072500      -0.00433900
Cu       5.05707000       7.60720000      15.42680000  T      -0.00091100      -0.00183500       0.00053400
Cu       7.56931000       7.50010000      15.47678000  T      -0.00705900      -0.00017300       0.00003000
Cu      10.09162000       7.56140000      15.44063000  T      -0.00559300      -0.00388900      -0.00165800
Cu      12.51317000      10.00978000      15.36050000  T      -0.00112400       0.00140400      -0.00419500
Cu       2.50844000      10.04460000      15.35718000  T       0.00208200       0.00019200      -0.00453000
Cu       5.00835000      10.05057000      15.34477000  T       0.00079900       0.00033500      -0.00231400
Cu       7.50556000      10.02488000      15.34402000  T      -0.00068600      -0.00096800      -0.00263900
Cu      10.01400000      10.03101000      15.35142000  T      -0.00066100       0.00003300      -0.00519200
O        6.13626000       3.39696000      16.67336000  T       0.00220700      -0.00108600      -0.00136200
O        6.14008000       6.60013000      16.67204000  T       0.00158300      -0.00202300       0.00482300
O        9.00160000       6.42828000      16.54539000  T      -0.00687600       0.00393500       0.00396600
O        8.99531000       3.56714000      16.53928000  T      -0.00499500      -0.00207700       0.00278200
C        2.88662000       5.61325000      17.21156000  T      -0.01730700      -0.00167600       0.00560100
O        3.27364000       4.86686000      18.26997000  T      -0.04241900      -0.00060500       0.00871200
O        2.78222000       6.85763000      17.39563000  T      -0.03654600      -0.00203700       0.01468000
H        3.43234000       5.49507000      19.01770000  T      -0.05662800       0.00302400       0.00558600
108
Lattice="12.515153631 0.0 0.0 0.0 12.515153631 0.0 0.0 0.0 25.30973" Properties=species:S:1:pos:R:3:move_mask:L:1:forces:R:3 stress="0.007827208209877782 2.6008368527555534e-05 0.00023829457691709695 2.6008368527555534e-05 0.007591173059264254 1.4405403062538561e-05 0.00023829457691709695 1.4405403062538561e-05 0.002048201151731598" free_energy=-445.2518474 energy=-445.25209051 pbc="T T T"
Cu       1.25152000       1.25152000      10.00000000  F       0.00465800       0.00703200      -0.06375200
Cu       3.75455000       1.25152000      10.00000000  F       0.00385100       0.02006000      -0.06953100
Cu       6.25758000       1.25152000      10.00000000  F      -0.00385000       0.02149400      -0.06780800
Cu       8.76061000       1.25152000      10.00000000  F       0.00817100       0.00129600      -0.04834400
Cu      11.26364000       1.25152000      10.00000000  F      -0.01356300      -0.00459800      -0.07524600
Cu       1.25152000       3.75455000      10.00000000  F      -0.00508500       0.00111800      -0.06748300
Cu       3.75455000       3.75455000      10.00000000  F       0.01489000      -0.02232800      -0.05191300
Cu       6.25758000       3.75455000      10.00000000  F      -0.01978700      -0.02499400      -0.07751000
Cu       8.76061000       3.75455000      10.00000000  F       0.00794800      -0.01508100      -0.07116400
Cu      11.26364000       3.75455000      10.00000000  F       0.00492800       0.00054600      -0.05969500
Cu       1.25152000       6.25758000      10.00000000  F      -0.00584900      -0.00729000      -0.05900900
Cu       3.75455000       6.25758000      10.00000000  F       0.01429300       0.01639800      -0.04365200
Cu       6.25758000       6.25758000      10.00000000  F      -0.01735600       0.02105300      -0.07676500
Cu       8.76061000       6.25758000      10.00000000  F       0.00870100       0.01803900      -0.08180800
Cu      11.26364000       6.25758000      10.00000000  F       0.00215100      -0.00753800      -0.05414900
Cu       1.25152000       8.76061000      10.00000000  F       0.00739900       0.00567300      -0.06218100
Cu       3.75455000       8.76061000      10.00000000  F      -0.00706300      -0.01318600      -0.05848300
Cu       6.25758000       8.76061000      10.00000000  F       0.00770000      -0.01877400      -0.06249200
Cu       8.76061000       8.76061000      10.00000000  F      -0.00109300      -0.00947000      -0.04848900
Cu      11.26364000       8.76061000      10.00000000  F      -0.00767800       0.00454000      -0.07077900
Cu       1.25152000      11.26364000      10.00000000  F       0.00769300      -0.00776200      -0.02071400
Cu       3.75455000      11.26364000      10.00000000  F      -0.01590800      -0.00180700      -0.06416400
Cu       6.25758000      11.26364000      10.00000000  F       0.00402200       0.00102600      -0.05723800
Cu       8.76061000      11.26364000      10.00000000  F       0.00641500       0.00427800      -0.07109200
Cu      11.26364000      11.26364000      10.00000000  F      -0.00497300       0.00540400      -0.04633400
Cu       0.00000000       0.00000000      11.76991000  F      -0.02623400       0.05540700       0.06337600
Cu       2.50303000       0.00000000      11.76991000  F       0.03308700       0.03678500       0.04420900
Cu       5.00606000       0.00000000      11.76991000  F       0.06579400       0.08953900       0.04250900
Cu       7.50909000       0.00000000      11.76991000  F       0.01976200       0.08442600       0.05775600
Cu      10.01212000       0.00000000      11.76991000  F      -0.04316500       0.09597600       0.06949500
Cu       0.00000000       2.50303000      11.76991000  F      -0.06171600       0.04940800       0.06102400
Cu       2.50303000       2.50303000      11.76991000  F       0.07078400       0.01276600       0.03553200
Cu       5.00606000       2.50303000      11.76991000  F      -0.00296900      -0.02293300       0.03772100
Cu       7.50909000       2.50303000      11.76991000  F      -0.00738600      -0.02629800       0.07305600
Cu      10.01212000       2.50303000      11.76991000  F       0.03490000      -0.05561500       0.03581200
Cu       0.00000000       5.00606000      11.76991000  F      -0.05412800       0.02847200       0.05670100
Cu       2.50303000       5.00606000      11.76991000  F       0.09489700       0.03481600       0.11857400
Cu       5.00606000       5.00606000      11.76991000  F      -0.06760600       0.01983300       0.15303600
Cu       7.50909000       5.00606000      11.76991000  F      -0.03338100      -0.00333800       0.07713700
Cu      10.01212000       5.00606000      11.76991000  F       0.04126200      -0.00429500       0.04214600
Cu       0.00000000       7.50909000      11.76991000  F      -0.02785100      -0.05865800       0.09711000
Cu       2.50303000       7.50909000      11.76991000  F       0.07173500      -0.04640600       0.05983800
Cu       5.00606000       7.50909000      11.76991000  F      -0.03849000       0.03210400       0.06190100
Cu       7.50909000       7.50909000      11.76991000  F      -0.00181500       0.02197800       0.04864500
Cu      10.01212000       7.50909000      11.76991000  F       0.05122900       0.05111200       0.02890200
Cu       0.00000000      10.01212000      11.76991000  F       0.02209200      -0.08263600       0.09494700
Cu       2.50303000      10.01212000      11.76991000  F       0.02908700      -0.05727400       0.04227000
Cu       5.00606000      10.01212000      11.76991000  F       0.02274100      -0.10491800       0.07344300
Cu       7.50909000      10.01212000      11.76991000  F       0.03212200      -0.06653300       0.05229300
Cu      10.01212000      10.01212000      11.76991000  F      -0.05015100      -0.08499900       0.06633200
Cu       1.26070000       1.24577000      13.56900000  T       0.00126700      -0.00106200      -0.00109500
Cu       3.78543000       1.26071000      13.59308000  T      -0.00064000      -0.00147400      -0.00264400
Cu       6.28348000       1.27985000      13.61227000  T      -0.00018100       0.00094200      -0.00108100
Cu       8.75921000       1.28005000      13.61367000  T       0.00092100       0.00120000      -0.00176200
Cu      11.25853000       1.26398000      13.59680000  T       0.00143700      -0.00157400      -0.00201500
Cu       1.25839000       3.76325000      13.57315000  T       0.00182800      -0.00002300       0.00096400
Cu       3.75713000       3.75251000      13.60289000  T      -0.00021500       0.00003200      -0.00144900
Cu       6.27306000       3.76275000      13.57134000  T      -0.00019100       0.00027000      -0.00267600
Cu       8.74659000       3.76385000      13.55925000  T      -0.00334000       0.00038500      -0.00084700
Cu      11.23488000       3.76023000      13.60063000  T      -0.00442000      -0.00237500      -0.00158900
Cu       1.27019000       6.25364000      13.59591000  T       0.00214300      -0.00089100      -0.00052000
Cu       3.74863000       6.26959000      13.61968000  T       0.00051900       0.00057700      -0.00167000
Cu       6.27696000       6.25052000      13.56597000  T      -0.00083200      -0.00038200      -0.00080100
Cu       8.75013000       6.24591000      13.55585000  T      -0.00432000      -0.00025300      -0.00133700
Cu      11.23807000       6.24779000      13.59953000  T      -0.00508100       0.00051700      -0.00153700
Cu       1.28207000       8.74875000      13.59263000  T       0.00043100       0.00236400      -0.00273300
Cu       3.77105000       8.73970000      13.61407000  T       0.00087300       0.00169600      -0.00346500
Cu       6.28554000       8.74212000      13.59862000  T      -0.00129000      -0.00063300      -0.00069300
Cu       8.76071000       8.73126000      13.60999000  T      -0.00091800      -0.00093300      -0.00243800
Cu      11.25880000       8.75527000      13.58930000  T      -0.00039800       0.00223600      -0.00181000
Cu       1.24485000      11.26068000      13.58388000  T      -0.00158900       0.00058900      -0.00196600
Cu       3.74801000      11.26306000      13.56413000  T      -0.00085000      -0.00006900      -0.00135700
Cu       6.25692000      11.27013000      13.56286000  T       0.00013200       0.00036300      -0.00099300
Cu       8.76218000      11.26345000      13.56916000  T      -0.00025000      -0.00029800      -0.00182200
Cu      11.26986000      11.26758000      13.57433000  T      -0.00025500       0.00097800      -0.00325600
Cu      12.51322000       0.01027000      15.36384000  T      -0.00122800       0.00104300      -0.00348900
Cu       2.50631000      -0.00668000      15.35969000  T       0.00086200       0.00130600      -0.00469400
Cu       5.00195000      12.48871000      15.35370000  T       0.00051800      -0.00067900      -0.00323700
Cu       7.50530000      12.49256000      15.34767000  T       0.00003100      -0.00046200      -0.00276000
Cu      10.01342000      12.49411000      15.35463000  T      -0.00111000       0.00012100      -0.00589800
Cu       0.05858000       2.50894000      15.34856000  T       0.00080100       0.00059600      -0.00573700
Cu       2.51851000       2.44542000      15.35687000  T       0.00243000       0.00376600      -0.00323300
Cu       4.99809000       2.42421000      15.46109000  T      -0.00096900      -0.00192700      -0.00028600
Cu       7.54997000       2.50655000      15.47461000  T      -0.00382400       0.00014200      -0.00004000
Cu      10.10228000       2.45198000      15.44152000  T      -0.00254100       0.00198300      -0.00078200
Cu      12.47524000       5.00480000      15.33348000  T      -0.00024500      -0.00031600      -0.00882000
Cu       2.40885000       4.90582000      15.46462000  T      -0.00062700       0.00213600       0.00433100
Pd       4.99939000       5.01381000      15.47527000  T       0.00030500      -0.00183100       0.00033000
Y        7.48257000       4.99786000      17.22429000  T      -0.00134800       0.00058300       0.00493000
Cu       9.97414000       5.00481000      15.44009000  T      -0.00655000       0.00094700      -0.00075000
Cu       0.02067000       7.51553000      15.32695000  T      -0.00148200       0.00024600      -0.00887800
Cu       2.50941000       7.57289000      15.46880000  T       0.00160000      -0.00115100      -0.00162100
Cu       5.05648000       7.60653000      15.42707000  T      -0.00162800      -0.00284000       0.00115000
Cu       7.56832000       7.49991000      15.47681000  T      -0.00592100      -0.00086200       0.00049400
Cu      10.09085000       7.56125000      15.44056000  T      -0.00507300      -0.00220700      -0.00226700
Cu      12.51301000      10.00997000      15.36040000  T      -0.00099000       0.00152600      -0.00422700
Cu       2.50849000      10.04457000      15.35712000  T       0.00103200      -0.00006400      -0.00396000
Cu       5.00833000      10.05015000      15.34489000  T       0.00041400      -0.00087400      -0.00203500
Cu       7.50549000      10.02480000      15.34409000  T      -0.00029000      -0.00088300      -0.00315900
Cu      10.01391000      10.03108000      15.35129000  T      -0.00084400      -0.00022100      -0.00532800
O        6.13595000       3.39696000      16.67356000  T      -0.00007500      -0.00022900       0.00047400
O        6.13941000       6.59950000      16.67270000  T      -0.00256100      -0.00134300       0.00328900
O        9.00066000       6.42855000      16.54557000  T      -0.00630900       0.00297100       0.00299000
O        8.99463000       3.56696000      16.53940000  T      -0.00339100      -0.00150400       0.00190300
C        2.87660000       5.61399000      17.21404000  T      -0.01279100       0.00148900       0.00220800
O        3.26144000       4.86647000      18.27213000  T      -0.02554600      -0.00324400       0.00731700
O        2.77310000       6.85826000      17.39866000  T      -0.02256900       0.00191500       0.00389200
H        3.42133000       5.49458000      19.01961000  T      -0.06007600       0.00384100       0.01451500
108
Lattice="12.515153631 0.0 0.0 0.0 12.515153631 0.0 0.0 0.0 25.30973" Properties=species:S:1:pos:R:3:move_mask:L:1:forces:R:3 stress="0.007802479350721031 2.6039576073184956e-05 0.00023353230545404796 2.6039576073184956e-05 0.007571531030045099 1.2845025781067747e-05 0.00023353230545404796 1.2845025781067747e-05 0.002022835658644009" free_energy=-445.25200032 energy=-445.25224086 pbc="T T T"
Cu       1.25152000       1.25152000      10.00000000  F       0.00460200       0.00708100      -0.06399500
Cu       3.75455000       1.25152000      10.00000000  F       0.00345700       0.02012000      -0.06961600
Cu       6.25758000       1.25152000      10.00000000  F      -0.00435400       0.02163400      -0.06810800
Cu       8.76061000       1.25152000      10.00000000  F       0.00770900       0.00147000      -0.04887600
Cu      11.26364000       1.25152000      10.00000000  F      -0.01368100      -0.00445600      -0.07582200
Cu       1.25152000       3.75455000      10.00000000  F      -0.00522800       0.00113400      -0.06756800
Cu       3.75455000       3.75455000      10.00000000  F       0.01454400      -0.02235000      -0.05193100
Cu       6.25758000       3.75455000      10.00000000  F      -0.02022500      -0.02495600      -0.07763500
Cu       8.76061000       3.75455000      10.00000000  F       0.00752900      -0.01498500      -0.07154300
Cu      11.26364000       3.75455000      10.00000000  F       0.00474200       0.00068000      -0.05997500
Cu       1.25152000       6.25758000      10.00000000  F      -0.00606900      -0.00716700      -0.05900200
Cu       3.75455000       6.25758000      10.00000000  F       0.01387300       0.01641300      -0.04369400
Cu       6.25758000       6.25758000      10.00000000  F      -0.01778300       0.02096700      -0.07694800
Cu       8.76061000       6.25758000      10.00000000  F       0.00835400       0.01797500      -0.08212600
Cu      11.26364000       6.25758000      10.00000000  F       0.00201900      -0.00748800      -0.05427200
Cu       1.25152000       8.76061000      10.00000000  F       0.00719600       0.00571400      -0.06225100
Cu       3.75455000       8.76061000      10.00000000  F      -0.00757900      -0.01312200      -0.05860800
Cu       6.25758000       8.76061000      10.00000000  F       0.00721300      -0.01877700      -0.06289000
Cu       8.76061000       8.76061000      10.00000000  F      -0.00140500      -0.00954100      -0.04892700
Cu      11.26364000       8.76061000      10.00000000  F      -0.00768300       0.00447400      -0.07108100
Cu       1.25152000      11.26364000      10.00000000  F       0.00759100      -0.00778100      -0.02083700
Cu       3.75455000      11.26364000      10.00000000  F      -0.01638600      -0.00172100      -0.06427900
Cu       6.25758000      11.26364000      10.00000000  F       0.00345500       0.00114600      -0.05772100
Cu       8.76061000      11.26364000      10.00000000  F       0.00601500       0.00435000      -0.07182900
Cu      11.26364000      11.26364000      10.00000000  F      -0.00500500       0.00535000      -0.04680200
Cu       0.00000000       0.00000000      11.76991000  F      -0.02596100       0.05552300       0.06245600
Cu       2.50303000       0.00000000      11.76991000  F       0.03288000       0.03666000       0.04335100
Cu       5.00606000       0.00000000      11.76991000  F       0.06523300       0.08959300       0.04201800
Cu       7.50909000       0.00000000      11.76991000  F       0.01902400       0.08475300       0.05758500
Cu      10.01212000       0.00000000      11.76991000  F      -0.04359300       0.09620400       0.06891600
Cu       0.00000000       2.50303000      11.76991000  F      -0.06162000       0.04981800       0.06088700
Cu       2.50303000       2.50303000      11.76991000  F       0.07066200       0.01288700       0.03495500
Cu       5.00606000       2.50303000      11.76991000  F      -0.00370700      -0.02285700       0.03731100
Cu       7.50909000       2.50303000      11.76991000  F      -0.00800200      -0.02619300       0.07249500
Cu      10.01212000       2.50303000      11.76991000  F       0.03449200      -0.05521900       0.03547900
Cu       0.00000000       5.00606000      11.76991000  F      -0.05431200       0.02859100       0.05710800
Cu       2.50303000       5.00606000      11.76991000  F       0.09474900       0.03490400       0.11824300
Cu       5.00606000       5.00606000      11.76991000  F      -0.06838600       0.01985500       0.15249200
Cu       7.50909000       5.00606000      11.76991000  F      -0.03396500      -0.00332700       0.07628100
Cu      10.01212000       5.00606000      11.76991000  F       0.04081900      -0.00415700       0.04185600
Cu       0.00000000       7.50909000      11.76991000  F      -0.02799400      -0.05887600       0.09697500
Cu       2.50303000       7.50909000      11.76991000  F       0.07137000      -0.04649500       0.05927900
Cu       5.00606000       7.50909000      11.76991000  F      -0.03919400       0.03187400       0.06137500
Cu       7.50909000       7.50909000      11.76991000  F      -0.00248500       0.02184900       0.04807600
Cu      10.01212000       7.50909000      11.76991000  F       0.05104400       0.05082200       0.02854000
Cu       0.00000000      10.01212000      11.76991000  F       0.02215800      -0.08281900       0.09385900
Cu       2.50303000      10.01212000      11.76991000  F       0.02876000      -0.05717600       0.04132700
Cu       5.00606000      10.01212000      11.76991000  F       0.02207300      -0.10485400       0.07290900
Cu       7.50909000      10.01212000      11.76991000  F       0.03143200      -0.06675400       0.05205700
Cu      10.01212000      10.01212000      11.76991000  F      -0.05044000      -0.08526000       0.06570500
Cu       1.26076000       1.24572000      13.56896000  T       0.00040900      -0.00029900      -0.00120300
Cu       3.78538000       1.26061000      13.59297000  T      -0.00046900      -0.00064800      -0.00187700
Cu       6.28342000       1.27986000      13.61224000  T      -0.00031300       0.00032300      -0.00097900
Cu       8.75919000       1.28012000      13.61361000  T       0.00001800       0.00085300      -0.00119300
Cu      11.25856000       1.26390000      13.59670000  T       0.00029300      -0.00044900      -0.00151400
Cu       1.25851000       3.76326000      13.57321000  T       0.00078400       0.00000500      -0.00052700
Cu       3.75710000       3.75250000      13.60290000  T      -0.00048900       0.00025800      -0.00086200
Cu       6.27305000       3.76268000      13.57113000  T      -0.00025000      -0.00039100      -0.00251800
Cu       8.74643000       3.76388000      13.55922000  T      -0.00190700       0.00028700      -0.00076700
Cu      11.23470000       3.76014000      13.60060000  T      -0.00244400      -0.00098900      -0.00111500
Cu       1.27029000       6.25362000      13.59590000  T       0.00088000      -0.00013600      -0.00128200
Cu       3.74863000       6.26956000      13.61970000  T       0.00011000      -0.00004100      -0.00039400
Cu       6.27693000       6.25051000      13.56585000  T      -0.00070100       0.00017300      -0.00146700
Cu       8.74993000       6.24589000      13.55580000  T      -0.00256700      -0.00011500      -0.00111900
Cu      11.23785000       6.24780000      13.59951000  T      -0.00296800       0.00004700      -0.00127700
Cu       1.28206000       8.74886000      13.59251000  T       0.00002000       0.00125400      -0.00215600
Cu       3.77103000       8.73971000      13.61394000  T       0.00000700       0.00038000      -0.00195900
Cu       6.28542000       8.74207000      13.59863000  T      -0.00109200      -0.00045100      -0.00073400
Cu       8.76061000       8.73120000      13.60990000  T      -0.00116900      -0.00057100      -0.00162300
Cu      11.25874000       8.75538000      13.58922000  T      -0.00082000       0.00111100      -0.00164200
Cu       1.24479000      11.26069000      13.58379000  T      -0.00086000       0.00051300      -0.00156800
Cu       3.74798000      11.26302000      13.56408000  T      -0.00047000      -0.00017500      -0.00131200
Cu       6.25690000      11.27012000      13.56285000  T      -0.00028100      -0.00002200      -0.00103800
Cu       8.76216000      11.26343000      13.56909000  T      -0.00046200      -0.00004500      -0.00156200
Cu      11.26985000      11.26762000      13.57418000  T      -0.00037200       0.00067300      -0.00228700
Cu      12.51317000       0.01032000      15.36371000  T      -0.00081900       0.00070700      -0.00205000
Cu       2.50636000      -0.00664000      15.35950000  T       0.00024600       0.00081900      -0.00267700
Cu       5.00197000      12.48859000      15.35360000  T       0.00011600      -0.00087900      -0.00177400
Cu       7.50528000      12.49254000      15.34759000  T      -0.00015000      -0.00004800      -0.00144600
Cu      10.01336000      12.49412000      15.35439000  T      -0.00075000       0.00029900      -0.00331400
Cu       0.05855000       2.50895000      15.34830000  T      -0.00036800       0.00017900      -0.00355500
Cu       2.51857000       2.44559000      15.35675000  T       0.00073400       0.00196300      -0.00196500
Cu       4.99798000       2.42404000      15.46113000  T      -0.00112100      -0.00172000      -0.00036100
Cu       7.54966000       2.50658000      15.47460000  T      -0.00270500       0.00015000      -0.00050600
Cu      10.10209000       2.45207000      15.44148000  T      -0.00192600       0.00113900      -0.00077000
Cu      12.47533000       5.00480000      15.33313000  T      -0.00058500      -0.00013800      -0.00503900
Cu       2.40886000       4.90595000      15.46497000  T       0.00025900       0.00136400       0.00183700
Pd       5.00002000       5.01347000      15.47495000  T       0.00938000      -0.00299200      -0.00482000
Y        7.48254000       4.99782000      17.22476000  T      -0.00111300      -0.00006800       0.00591300
Cu       9.97389000       5.00486000      15.44010000  T      -0.00394100       0.00053000      -0.00031300
Cu       0.02049000       7.51558000      15.32652000  T      -0.00197600       0.00055400      -0.00539300
Cu       2.50940000       7.57284000      15.46884000  T       0.00028700      -0.00051900      -0.00042200
Cu       5.05627000       7.60626000      15.42717000  T      -0.00203400      -0.00242500       0.00064400
Cu       7.56787000       7.49982000      15.47683000  T      -0.00447200      -0.00071600      -0.00003300
Cu      10.09049000       7.56114000      15.44045000  T      -0.00373000      -0.00111800      -0.00163800
Cu      12.51295000      10.01005000      15.36023000  T      -0.00075100       0.00117700      -0.00246600
Cu       2.50852000      10.04454000      15.35697000  T       0.00028900      -0.00000400      -0.00231400
Cu       5.00832000      10.04999000      15.34484000  T      -0.00004200      -0.00114200      -0.00116000
Cu       7.50545000      10.02474000      15.34400000  T      -0.00038500      -0.00044700      -0.00173000
Cu      10.01386000      10.03107000      15.35109000  T      -0.00075400      -0.00000800      -0.00299900
O        6.13584000       3.39699000      16.67359000  T      -0.00056800       0.00042600      -0.00040700
O        6.13915000       6.59926000      16.67291000  T      -0.00195100      -0.00124300       0.00088300
O        9.00021000       6.42867000      16.54570000  T      -0.00432700       0.00138300       0.00210800
O        8.99433000       3.56692000      16.53949000  T      -0.00240900      -0.00019700       0.00133400
C        2.87280000       5.61423000      17.21490000  T      -0.01418200       0.00107600       0.00174800
O        3.25664000       4.86637000      18.27305000  T      -0.02618700       0.00082200       0.00645400
O        2.76950000       6.85845000      17.39968000  T      -0.01795000       0.00243400       0.00162700
H        3.41600000       5.49444000      19.02070000  T      -0.05893700       0.00158500       0.01338100
108
Lattice="12.515153631 0.0 0.0 0.0 12.515153631 0.0 0.0 0.0 25.30973" Properties=species:S:1:pos:R:3:move_mask:L:1:forces:R:3 stress="0.00775840805478317 2.6663726985773283e-05 0.00022899472831953085 2.6663726985773283e-05 0.007525949288898774 1.1509342828128729e-05 0.00022899472831953085 1.1509342828128729e-05 0.001963223004982698" free_energy=-445.2584846 energy=-445.25872426 pbc="T T T"
Cu       1.25152000       1.25152000      10.00000000  F       0.00497900       0.00719700      -0.06354600
Cu       3.75455000       1.25152000      10.00000000  F       0.00391600       0.02023600      -0.06913000
Cu       6.25758000       1.25152000      10.00000000  F      -0.00380900       0.02167200      -0.06759100
Cu       8.76061000       1.25152000      10.00000000  F       0.00801000       0.00146900      -0.04837000
Cu      11.26364000       1.25152000      10.00000000  F      -0.01340000      -0.00441700      -0.07541500
Cu       1.25152000       3.75455000      10.00000000  F      -0.00478300       0.00104000      -0.06709900
Cu       3.75455000       3.75455000      10.00000000  F       0.01500900      -0.02238900      -0.05134800
Cu       6.25758000       3.75455000      10.00000000  F      -0.01974800      -0.02493800      -0.07708700
Cu       8.76061000       3.75455000      10.00000000  F       0.00781900      -0.01504100      -0.07114500
Cu      11.26364000       3.75455000      10.00000000  F       0.00503900       0.00060800      -0.05959300
Cu       1.25152000       6.25758000      10.00000000  F      -0.00562200      -0.00715500      -0.05863600
Cu       3.75455000       6.25758000      10.00000000  F       0.01439000       0.01640700      -0.04321000
Cu       6.25758000       6.25758000      10.00000000  F      -0.01728000       0.02101100      -0.07644500
Cu       8.76061000       6.25758000      10.00000000  F       0.00861300       0.01799600      -0.08168100
Cu      11.26364000       6.25758000      10.00000000  F       0.00225500      -0.00743600      -0.05392000
Cu       1.25152000       8.76061000      10.00000000  F       0.00757800       0.00584800      -0.06193500
Cu       3.75455000       8.76061000      10.00000000  F      -0.00705800      -0.01302000      -0.05826600
Cu       6.25758000       8.76061000      10.00000000  F       0.00773600      -0.01862800      -0.06240900
Cu       8.76061000       8.76061000      10.00000000  F      -0.00113000      -0.00934300      -0.04813900
Cu      11.26364000       8.76061000      10.00000000  F      -0.00741700       0.00466300      -0.07065100
Cu       1.25152000      11.26364000      10.00000000  F       0.00790800      -0.00758700      -0.02039900
Cu       3.75455000      11.26364000      10.00000000  F      -0.01583700      -0.00153100      -0.06387300
Cu       6.25758000      11.26364000      10.00000000  F       0.00404000       0.00126400      -0.05727200
Cu       8.76061000      11.26364000      10.00000000  F       0.00632700       0.00455700      -0.07133500
Cu      11.26364000      11.26364000      10.00000000  F      -0.00480200       0.00549800      -0.04634900
Cu       0.00000000       0.00000000      11.76991000  F      -0.02545500       0.05597500       0.06191300
Cu       2.50303000       0.00000000      11.76991000  F       0.03328800       0.03685000       0.04293600
Cu       5.00606000       0.00000000      11.76991000  F       0.06581700       0.08982600       0.04183700
Cu       7.50909000       0.00000000      11.76991000  F       0.01927500       0.08525500       0.05758200
Cu      10.01212000       0.00000000      11.76991000  F      -0.04360300       0.09669800       0.06854600
Cu       0.00000000       2.50303000      11.76991000  F      -0.06115900       0.05000100       0.06092600
Cu       2.50303000       2.50303000      11.76991000  F       0.07128000       0.01304900       0.03464100
Cu       5.00606000       2.50303000      11.76991000  F      -0.00346500      -0.02269400       0.03711600
Cu       7.50909000       2.50303000      11.76991000  F      -0.00782800      -0.02625500       0.07211000
Cu      10.01212000       2.50303000      11.76991000  F       0.03458000      -0.05524100       0.03517900
Cu       0.00000000       5.00606000      11.76991000  F      -0.05394700       0.02828400       0.05749800
Cu       2.50303000       5.00606000      11.76991000  F       0.09550000       0.03476100       0.11804300
Cu       5.00606000       5.00606000      11.76991000  F      -0.06824600       0.01981700       0.15210200
Cu       7.50909000       5.00606000      11.76991000  F      -0.03408800      -0.00351900       0.07562800
Cu      10.01212000       5.00606000      11.76991000  F       0.04067900      -0.00448000       0.04153200
Cu       0.00000000       7.50909000      11.76991000  F      -0.02760200      -0.05906700       0.09696300
Cu       2.50303000       7.50909000      11.76991000  F       0.07212200      -0.04668900       0.05893100
Cu       5.00606000       7.50909000      11.76991000  F      -0.03890200       0.03161900       0.06112700
Cu       7.50909000       7.50909000      11.76991000  F      -0.00270000       0.02182100       0.04768300
Cu      10.01212000       7.50909000      11.76991000  F       0.05108200       0.05074400       0.02811400
Cu       0.00000000      10.01212000      11.76991000  F       0.02256300      -0.08253100       0.09318100
Cu       2.50303000      10.01212000      11.76991000  F       0.02929600      -0.05683000       0.04085400
Cu       5.00606000      10.01212000      11.76991000  F       0.02256000      -0.10467000       0.07274800
Cu       7.50909000      10.01212000      11.76991000  F       0.03150800      -0.06667700       0.05197400
Cu      10.01212000      10.01212000      11.76991000  F      -0.05046600      -0.08499400       0.06525300
Cu       1.26084000       1.24569000      13.56888000  T       0.00126500       0.00014100      -0.00142600
Cu       3.78535000       1.26056000      13.59283000  T       0.00029800      -0.00015000      -0.00213500
Cu       6.28336000       1.27991000      13.61218000  T      -0.00013900       0.00076500      -0.00099600
Cu       8.75917000       1.28022000      13.61353000  T      -0.00016200       0.00160200      -0.00111600
Cu      11.25860000       1.26386000      13.59659000  T       0.00041000      -0.00004500      -0.00172900
Cu       1.25862000       3.76327000      13.57321000  T       0.00183000      -0.00006300      -0.00128100
Cu       3.75707000       3.75253000      13.60287000  T       0.00000900       0.00095900      -0.00016400
Cu       6.27299000       3.76265000      13.57095000  T      -0.00071700      -0.00086700      -0.00279400
Cu       8.74620000       3.76392000      13.55920000  T      -0.00313100       0.00029100      -0.00033300
Cu      11.23444000       3.76006000      13.60053000  T      -0.00341600      -0.00118500      -0.00126400
Cu       1.27039000       6.25360000      13.59583000  T       0.00186400      -0.00007100      -0.00216600
Cu       3.74864000       6.26953000      13.61972000  T       0.00076300      -0.00073400       0.00090500
Cu       6.27682000       6.25047000      13.56579000  T      -0.00131900       0.00007000      -0.00148300
Cu       8.74966000       6.24585000      13.55575000  T      -0.00403900      -0.00046500      -0.00089600
Cu      11.23754000       6.24780000      13.59943000  T      -0.00431700      -0.00037000      -0.00174400
Cu       1.28206000       8.74896000      13.59234000  T       0.00074000       0.00153200      -0.00284800
Cu       3.77102000       8.73973000      13.61380000  T       0.00042500      -0.00030800      -0.00160200
Cu       6.28530000       8.74199000      13.59861000  T      -0.00142500      -0.00103000      -0.00027300
Cu       8.76050000       8.73110000      13.60980000  T      -0.00195600      -0.00118700      -0.00161700
Cu      11.25867000       8.75545000      13.58911000  T      -0.00130000       0.00123500      -0.00222600
Cu       1.24471000      11.26072000      13.58367000  T      -0.00052200       0.00104700      -0.00176300
Cu       3.74792000      11.26300000      13.56399000  T       0.00000600       0.00003300      -0.00150800
Cu       6.25685000      11.27013000      13.56278000  T      -0.00032500       0.00010400      -0.00124200
Cu       8.76210000      11.26341000      13.56897000  T      -0.00074600       0.00028300      -0.00212600
Cu      11.26982000      11.26765000      13.57398000  T      -0.00039400       0.00116100      -0.00300200
Cu      12.51310000       0.01038000      15.36352000  T      -0.00073900       0.00124500      -0.00257000
Cu       2.50640000      -0.00654000      15.35922000  T       0.00084100       0.00178400      -0.00349500
Cu       5.00198000      12.48853000      15.35340000  T       0.00055200      -0.00106900      -0.00241100
Cu       7.50525000      12.49254000      15.34744000  T      -0.00013400       0.00028100      -0.00208200
Cu      10.01328000      12.49414000      15.35405000  T      -0.00099100       0.00074300      -0.00458000
Cu       0.05854000       2.50899000      15.34795000  T      -0.00017000       0.00028200      -0.00477400
Cu       2.51868000       2.44582000      15.35655000  T       0.00179100       0.00299600      -0.00263700
Cu       4.99788000       2.42391000      15.46109000  T      -0.00099100      -0.00231900      -0.00018700
Cu       7.54936000       2.50661000      15.47457000  T      -0.00383200       0.00047100      -0.00013300
Cu      10.10189000       2.45219000      15.44142000  T      -0.00263300       0.00154800      -0.00034400
Cu      12.47526000       5.00480000      15.33261000  T      -0.00140600      -0.00011600      -0.00678800
Cu       2.40883000       4.90607000      15.46521000  T       0.00013900       0.00155300       0.00197400
Pd       5.00054000       5.01318000      15.47470000  T       0.02639100      -0.01366400      -0.01296200
Y        7.48249000       4.99778000      17.22536000  T      -0.00117500      -0.00077700       0.00801600
Cu       9.97345000       5.00492000      15.44008000  T      -0.00615200       0.00050000       0.00035800
Cu       0.02031000       7.51561000      15.32595000  T      -0.00284800       0.00085700      -0.00743000
Cu       2.50942000       7.57275000      15.46878000  T       0.00045000      -0.00099900       0.00023800
Cu       5.05606000       7.60600000      15.42724000  T      -0.00313100      -0.00365600       0.00143500
Cu       7.56743000       7.49972000      15.47686000  T      -0.00672100      -0.00131000       0.00068200
Cu      10.09011000       7.56098000      15.44030000  T      -0.00544300      -0.00143300      -0.00172000
Cu      12.51288000      10.01013000      15.35997000  T      -0.00055600       0.00188500      -0.00322500
Cu       2.50855000      10.04451000      15.35673000  T       0.00083800      -0.00001200      -0.00298200
Cu       5.00831000      10.04988000      15.34473000  T       0.00022300      -0.00190900      -0.00131900
Cu       7.50542000      10.02467000      15.34383000  T      -0.00037000      -0.00062900      -0.00226500
Cu      10.01379000      10.03103000      15.35077000  T      -0.00099100      -0.00007700      -0.00408600
O        6.13572000       3.39704000      16.67356000  T      -0.00059800       0.00064000      -0.00029500
O        6.13887000       6.59900000      16.67306000  T      -0.00148700      -0.00213400       0.00077100
O        8.99970000       6.42881000      16.54587000  T      -0.00497200       0.00043100       0.00395500
O        8.99400000       3.56689000      16.53960000  T      -0.00289400       0.00006200       0.00254200
C        2.86851000       5.61446000      17.21579000  T      -0.01690900       0.00050100       0.00457700
O        3.25124000       4.86632000      18.27413000  T      -0.03916500       0.00117000       0.00852100
O        2.76558000       6.85865000      17.40062000  T      -0.02783100       0.00909400       0.00439000
H        3.40900000       5.49429000      19.02219000  T      -0.05760800       0.00227900       0.01608000
108
Lattice="12.515153631 0.0 0.0 0.0 12.515153631 0.0 0.0 0.0 25.30973" Properties=species:S:1:pos:R:3:move_mask:L:1:forces:R:3 stress="0.007786488604340519 2.6070783618814368e-05 0.00021396517434440395 2.6070783618814368e-05 0.0075511337782217134 9.830376873266131e-06 0.00021396517434440395 9.830376873266131e-06 0.0019830585209847547" free_energy=-445.25637506 energy=-445.25660977 pbc="T T T"
Cu       1.25152000       1.25152000      10.00000000  F       0.00501000       0.00699100      -0.06351200
Cu       3.75455000       1.25152000      10.00000000  F       0.00368200       0.01996600      -0.06925000
Cu       6.25758000       1.25152000      10.00000000  F      -0.00362100       0.02131200      -0.06779000
Cu       8.76061000       1.25152000      10.00000000  F       0.00821500       0.00125200      -0.04836800
Cu      11.26364000       1.25152000      10.00000000  F      -0.01295100      -0.00456600      -0.07535300
Cu       1.25152000       3.75455000      10.00000000  F      -0.00472400       0.00095300      -0.06698000
Cu       3.75455000       3.75455000      10.00000000  F       0.01471400      -0.02248100      -0.05146400
Cu       6.25758000       3.75455000      10.00000000  F      -0.01960800      -0.02492700      -0.07727500
Cu       8.76061000       3.75455000      10.00000000  F       0.00816000      -0.01510600      -0.07130500
Cu      11.26364000       3.75455000      10.00000000  F       0.00548600       0.00057100      -0.05940000
Cu       1.25152000       6.25758000      10.00000000  F      -0.00557600      -0.00699200      -0.05847100
Cu       3.75455000       6.25758000      10.00000000  F       0.01408300       0.01653200      -0.04325700
Cu       6.25758000       6.25758000      10.00000000  F      -0.01722700       0.02097300      -0.07663600
Cu       8.76061000       6.25758000      10.00000000  F       0.00894900       0.01804000      -0.08195000
Cu      11.26364000       6.25758000      10.00000000  F       0.00275200      -0.00732600      -0.05363400
Cu       1.25152000       8.76061000      10.00000000  F       0.00759000       0.00593900      -0.06171600
Cu       3.75455000       8.76061000      10.00000000  F      -0.00737600      -0.01292000      -0.05840100
Cu       6.25758000       8.76061000      10.00000000  F       0.00788400      -0.01841900      -0.06272500
Cu       8.76061000       8.76061000      10.00000000  F      -0.00084700      -0.00924800      -0.04840400
Cu      11.26364000       8.76061000      10.00000000  F      -0.00689100       0.00468000      -0.07064400
Cu       1.25152000      11.26364000      10.00000000  F       0.00790500      -0.00776900      -0.02010100
Cu       3.75455000      11.26364000      10.00000000  F      -0.01597100      -0.00162500      -0.06376400
Cu       6.25758000      11.26364000      10.00000000  F       0.00408400       0.00122000      -0.05750800
Cu       8.76061000      11.26364000      10.00000000  F       0.00641400       0.00450000      -0.07169500
Cu      11.26364000      11.26364000      10.00000000  F      -0.00415400       0.00535000      -0.04625100
Cu       0.00000000       0.00000000      11.76991000  F      -0.02481900       0.05621900       0.05948000
Cu       2.50303000       0.00000000      11.76991000  F       0.03284300       0.03630000       0.04065900
Cu       5.00606000       0.00000000      11.76991000  F       0.06601300       0.08933200       0.03996700
Cu       7.50909000       0.00000000      11.76991000  F       0.01915500       0.08565400       0.05656700
Cu      10.01212000       0.00000000      11.76991000  F      -0.04412200       0.09698400       0.06663500
Cu       0.00000000       2.50303000      11.76991000  F      -0.06111300       0.05052500       0.06033200
Cu       2.50303000       2.50303000      11.76991000  F       0.07156900       0.01320500       0.03248700
Cu       5.00606000       2.50303000      11.76991000  F      -0.00450400      -0.02257000       0.03521400
Cu       7.50909000       2.50303000      11.76991000  F      -0.00774800      -0.02648900       0.06999500
Cu      10.01212000       2.50303000      11.76991000  F       0.03425100      -0.05493900       0.03383400
Cu       0.00000000       5.00606000      11.76991000  F      -0.05477000       0.02813300       0.05854800
Cu       2.50303000       5.00606000      11.76991000  F       0.09595900       0.03505700       0.11644100
Cu       5.00606000       5.00606000      11.76991000  F      -0.06943400       0.02033500       0.15000500
Cu       7.50909000       5.00606000      11.76991000  F      -0.03468200      -0.00328200       0.07298100
Cu      10.01212000       5.00606000      11.76991000  F       0.03938100      -0.00439400       0.04036700
Cu       0.00000000       7.50909000      11.76991000  F      -0.02836500      -0.05937000       0.09650600
Cu       2.50303000       7.50909000      11.76991000  F       0.07264000      -0.04707800       0.05722900
Cu       5.00606000       7.50909000      11.76991000  F      -0.03960500       0.03113100       0.05960300
Cu       7.50909000       7.50909000      11.76991000  F      -0.00362800       0.02182300       0.04597600
Cu      10.01212000       7.50909000      11.76991000  F       0.05046700       0.05030100       0.02666600
Cu       0.00000000      10.01212000      11.76991000  F       0.02239500      -0.08268000       0.09034000
Cu       2.50303000      10.01212000      11.76991000  F       0.02913800      -0.05657700       0.03861400
Cu       5.00606000      10.01212000      11.76991000  F       0.02244300      -0.10516500       0.07148900
Cu       7.50909000      10.01212000      11.76991000  F       0.03109000      -0.06783000       0.05094700
Cu      10.01212000      10.01212000      11.76991000  F      -0.05108100      -0.08555900       0.06333200
Cu       1.26109000       1.24566000      13.56853000  T      -0.00025100       0.00111100      -0.00161800
Cu       3.78531000       1.26043000      13.59225000  T       0.00105800       0.00127000      -0.00072900
Cu       6.28321000       1.28007000      13.61191000  T       0.00067800      -0.00082600      -0.00102400
Cu       8.75905000       1.28061000      13.61324000  T      -0.00031600       0.00053600      -0.00026700
Cu      11.25864000       1.26379000      13.59616000  T      -0.00107000       0.00159000      -0.00083100
Cu       1.25896000       3.76333000      13.57299000  T      -0.00033300      -0.00009900      -0.00424000
Cu       3.75698000       3.75277000      13.60283000  T      -0.00020600       0.00187000       0.00094000
Cu       6.27271000       3.76248000      13.57026000  T      -0.00096800      -0.00122500      -0.00097900
Cu       8.74535000       3.76405000      13.55913000  T      -0.00012600       0.00005700      -0.00009300
Cu      11.23345000       3.75982000      13.60026000  T      -0.00012800       0.00083400      -0.00088800
Cu       1.27068000       6.25358000      13.59537000  T      -0.00083700       0.00140000      -0.00398800
Cu       3.74867000       6.26935000      13.61994000  T      -0.00037500      -0.00114900       0.00353700
Cu       6.27641000       6.25040000      13.56548000  T      -0.00099100       0.00100900      -0.00159300
Cu       8.74864000       6.24573000      13.55558000  T      -0.00097300      -0.00005400      -0.00005600
Cu      11.23634000       6.24776000      13.59908000  T      -0.00096700      -0.00083200      -0.00179600
Cu       1.28207000       8.74925000      13.59165000  T       0.00009500       0.00003800      -0.00191500
Cu       3.77096000       8.73962000      13.61337000  T      -0.00070100      -0.00297200       0.00162000
Cu       6.28486000       8.74165000      13.59853000  T      -0.00036600      -0.00092800       0.00004100
Cu       8.76001000       8.73068000      13.60941000  T      -0.00181700      -0.00051500      -0.00016000
Cu      11.25830000       8.75564000      13.58862000  T      -0.00192900      -0.00049200      -0.00221000
Cu       1.24446000      11.26083000      13.58322000  T       0.00108400       0.00097200      -0.00094400
Cu       3.74777000      11.26291000      13.56359000  T       0.00095500      -0.00048200      -0.00125000
Cu       6.25668000      11.27008000      13.56249000  T      -0.00012300      -0.00123800      -0.00129500
Cu       8.76185000      11.26333000      13.56847000  T      -0.00014400       0.00027500      -0.00183700
Cu      11.26965000      11.26776000      13.57326000  T      -0.00015300       0.00062200      -0.00125600
Cu      12.51282000       0.01059000      15.36275000  T       0.00031500       0.00046900      -0.00161300
Cu       2.50650000      -0.00619000      15.35821000  T      -0.00008300       0.00086100      -0.00065400
Cu       5.00202000      12.48820000      15.35265000  T       0.00020800      -0.00170500      -0.00065300
Cu       7.50515000      12.49253000      15.34678000  T       0.00042300       0.00036900      -0.00103900
Cu      10.01296000      12.49423000      15.35276000  T       0.00041500       0.00054300      -0.00123200
Cu       0.05842000       2.50910000      15.34661000  T      -0.00155900      -0.00042800      -0.00208100
Cu       2.51906000       2.44660000      15.35576000  T      -0.00100800      -0.00025800      -0.00103800
Cu       4.99751000       2.42336000      15.46096000  T      -0.00020000      -0.00079600       0.00041600
Cu       7.54831000       2.50675000      15.47444000  T      -0.00074200       0.00097100      -0.00010700
Cu      10.10108000       2.45267000      15.44123000  T      -0.00106300       0.00071900       0.00022900
Cu      12.47476000       5.00480000      15.33065000  T      -0.00355900       0.00015400      -0.00128700
Cu       2.40876000       4.90655000      15.46583000  T       0.00058500       0.00109200      -0.00352500
Pd       5.00203000       5.01233000      15.47407000  T       0.01874000      -0.01040000      -0.00726000
Y        7.48228000       4.99765000      17.22744000  T      -0.00380500      -0.00076900       0.00315200
Cu       9.97166000       5.00513000      15.44005000  T      -0.00317200      -0.00003000       0.00125300
Cu       0.01944000       7.51576000      15.32377000  T      -0.00432600       0.00181000      -0.00244400
Cu       2.50946000       7.57240000      15.46868000  T      -0.00199700       0.00047500       0.00181400
Cu       5.05508000       7.60496000      15.42756000  T      -0.00388200      -0.00201100       0.00156500
Cu       7.56567000       7.49925000      15.47698000  T      -0.00418300      -0.00173800       0.00077400
Cu      10.08854000       7.56038000      15.43972000  T      -0.00336700      -0.00028500      -0.00028100
Cu      12.51264000      10.01043000      15.35895000  T       0.00028200       0.00120100      -0.00193100
Cu       2.50862000      10.04438000      15.35580000  T      -0.00004500       0.00005600      -0.00087500
Cu       5.00826000      10.04932000      15.34428000  T      -0.00003000      -0.00285600      -0.00025600
Cu       7.50528000      10.02438000      15.34313000  T       0.00011200      -0.00018200      -0.00075200
Cu      10.01351000      10.03084000      15.34956000  T      -0.00013600      -0.00000800      -0.00131800
O        6.13508000       3.39738000      16.67362000  T      -0.00240100       0.00194900       0.00160500
O        6.13736000       6.59772000      16.67383000  T      -0.00482000      -0.00198300       0.00030100
O        8.99750000       6.42935000      16.54654000  T      -0.00168800      -0.00038300       0.00139000
O        8.99264000       3.56681000      16.54005000  T       0.00005700       0.00098900       0.00107000
C        2.84957000       5.61555000      17.21978000  T      -0.01158100       0.00107200       0.00092400
O        3.22643000       4.86619000      18.27912000  T      -0.04600500       0.00561200       0.00950600
O        2.74747000       6.85964000      17.40467000  T      -0.03012900       0.00892800       0.00065400
H        3.37808000       5.49347000      19.02900000  T      -0.05190600      -0.00017700       0.01816100
108
Lattice="12.515153631 0.0 0.0 0.0 12.515153631 0.0 0.0 0.0 25.30973" Properties=species:S:1:pos:R:3:move_mask:L:1:forces:R:3 stress="0.007803877448765231 2.5340527051086027e-05 0.0001950471601838518 2.5340527051086027e-05 0.007562199973901905 1.0535667404490939e-05 0.0001950471601838518 1.0535667404490939e-05 0.001985349154833954" free_energy=-445.26038774 energy=-445.26061349 pbc="T T T"
Cu       1.25152000       1.25152000      10.00000000  F       0.00539100       0.00740100      -0.06373800
Cu       3.75455000       1.25152000      10.00000000  F       0.00379600       0.02023000      -0.06929200
Cu       6.25758000       1.25152000      10.00000000  F      -0.00369400       0.02136700      -0.06787100
Cu       8.76061000       1.25152000      10.00000000  F       0.00769200       0.00145300      -0.04856500
Cu      11.26364000       1.25152000      10.00000000  F      -0.01285800      -0.00417500      -0.07572100
Cu       1.25152000       3.75455000      10.00000000  F      -0.00432600       0.00117400      -0.06679200
Cu       3.75455000       3.75455000      10.00000000  F       0.01469700      -0.02227600      -0.05120800
Cu       6.25758000       3.75455000      10.00000000  F      -0.01976100      -0.02460100      -0.07715700
Cu       8.76061000       3.75455000      10.00000000  F       0.00782500      -0.01486200      -0.07145500
Cu      11.26364000       3.75455000      10.00000000  F       0.00563700       0.00083100      -0.05939200
Cu       1.25152000       6.25758000      10.00000000  F      -0.00519500      -0.00715000      -0.05820100
Cu       3.75455000       6.25758000      10.00000000  F       0.01413000       0.01641000      -0.04286400
Cu       6.25758000       6.25758000      10.00000000  F      -0.01741500       0.02082400      -0.07639800
Cu       8.76061000       6.25758000      10.00000000  F       0.00854400       0.01789800      -0.08199500
Cu      11.26364000       6.25758000      10.00000000  F       0.00289900      -0.00745700      -0.05343400
Cu       1.25152000       8.76061000      10.00000000  F       0.00794500       0.00555500      -0.06171100
Cu       3.75455000       8.76061000      10.00000000  F      -0.00722600      -0.01323700      -0.05830700
Cu       6.25758000       8.76061000      10.00000000  F       0.00780500      -0.01855600      -0.06267500
Cu       8.76061000       8.76061000      10.00000000  F      -0.00138300      -0.00948700      -0.04830000
Cu      11.26364000       8.76061000      10.00000000  F      -0.00676500       0.00427200      -0.07081400
Cu       1.25152000      11.26364000      10.00000000  F       0.00822800      -0.00789300      -0.02021600
Cu       3.75455000      11.26364000      10.00000000  F      -0.01563500      -0.00170200      -0.06368000
Cu       6.25758000      11.26364000      10.00000000  F       0.00400500       0.00109600      -0.05764900
Cu       8.76061000      11.26364000      10.00000000  F       0.00567900       0.00443300      -0.07219400
Cu      11.26364000      11.26364000      10.00000000  F      -0.00401500       0.00521700      -0.04666000
Cu       0.00000000       0.00000000      11.76991000  F      -0.02426400       0.05692100       0.05775100
Cu       2.50303000       0.00000000      11.76991000  F       0.03316500       0.03625900       0.03897000
Cu       5.00606000       0.00000000      11.76991000  F       0.06625100       0.08911200       0.03822500
Cu       7.50909000       0.00000000      11.76991000  F       0.01826800       0.08627900       0.05547600
Cu      10.01212000       0.00000000      11.76991000  F      -0.04536000       0.09776100       0.06500500
Cu       0.00000000       2.50303000      11.76991000  F      -0.06141400       0.05136400       0.05919100
Cu       2.50303000       2.50303000      11.76991000  F       0.07266600       0.01377100       0.03011700
Cu       5.00606000       2.50303000      11.76991000  F      -0.00562800      -0.02195700       0.03318500
Cu       7.50909000       2.50303000      11.76991000  F      -0.00835900      -0.02628200       0.06787300
Cu      10.01212000       2.50303000      11.76991000  F       0.03327200      -0.05412400       0.03242300
Cu       0.00000000       5.00606000      11.76991000  F      -0.05566500       0.02797400       0.05838600
Cu       2.50303000       5.00606000      11.76991000  F       0.09717700       0.03556800       0.11435100
Cu       5.00606000       5.00606000      11.76991000  F      -0.07087800       0.02099300       0.14767300
Cu       7.50909000       5.00606000      11.76991000  F      -0.03603200      -0.00321700       0.07039600
Cu      10.01212000       5.00606000      11.76991000  F       0.03744900      -0.00441400       0.03881800
Cu       0.00000000       7.50909000      11.76991000  F      -0.02917900      -0.05993200       0.09540400
Cu       2.50303000       7.50909000      11.76991000  F       0.07411500      -0.04793300       0.05540500
Cu       5.00606000       7.50909000      11.76991000  F      -0.04083300       0.03028200       0.05812800
Cu       7.50909000       7.50909000      11.76991000  F      -0.00526500       0.02152400       0.04403300
Cu      10.01212000       7.50909000      11.76991000  F       0.04887100       0.04933500       0.02503400
Cu       0.00000000      10.01212000      11.76991000  F       0.02232600      -0.08287300       0.08813000
Cu       2.50303000      10.01212000      11.76991000  F       0.02983900      -0.05675000       0.03696300
Cu       5.00606000      10.01212000      11.76991000  F       0.02206000      -0.10636300       0.07055500
Cu       7.50909000      10.01212000      11.76991000  F       0.02986900      -0.06927800       0.04981700
Cu      10.01212000      10.01212000      11.76991000  F      -0.05258500      -0.08620800       0.06163200
Cu       1.26124000       1.24573000      13.56811000  T      -0.00095700       0.00165300      -0.00104000
Cu       3.78534000       1.26041000      13.59171000  T       0.00143400       0.00199800       0.00087300
Cu       6.28308000       1.28010000      13.61159000  T       0.00058700      -0.00173400      -0.00027700
Cu       8.75886000       1.28097000      13.61297000  T      -0.00072500      -0.00016900       0.00060700
Cu      11.25851000       1.26387000      13.59575000  T      -0.00204300       0.00251900       0.00020700
Cu       1.25916000       3.76337000      13.57245000  T      -0.00176600       0.00022700      -0.00448400
Cu       3.75683000       3.75310000      13.60285000  T      -0.00052600       0.00177400       0.00150400
Cu       6.27233000       3.76223000      13.56960000  T      -0.00135100      -0.00066400       0.00105500
Cu       8.74459000       3.76416000      13.55905000  T       0.00160400      -0.00006100      -0.00002100
Cu      11.23258000       3.75970000      13.59996000  T       0.00211100       0.00212900      -0.00014600
Cu       1.27076000       6.25369000      13.59465000  T      -0.00289100       0.00187800      -0.00352400
Cu       3.74857000       6.26910000      13.62042000  T      -0.00148400      -0.00112900       0.00411200
Cu       6.27592000       6.25039000      13.56508000  T      -0.00129100       0.00082600      -0.00066400
Cu       8.74767000       6.24561000      13.55543000  T       0.00092400       0.00016000       0.00048400
Cu      11.23521000       6.24765000      13.59866000  T       0.00142500      -0.00101500      -0.00087400
Cu       1.28201000       8.74948000      13.59093000  T      -0.00046500      -0.00082100      -0.00033400
Cu       3.77078000       8.73925000      13.61316000  T      -0.00141900      -0.00414300       0.00347500
Cu       6.28440000       8.74128000      13.59847000  T      -0.00046100      -0.00094800       0.00075500
Cu       8.75939000       8.73028000      13.60907000  T      -0.00177800       0.00018400       0.00123100
Cu      11.25775000       8.75572000      13.58805000  T      -0.00219100      -0.00152900      -0.00122200
Cu       1.24432000      11.26099000      13.58279000  T       0.00239100       0.00081100       0.00003900
Cu       3.74771000      11.26277000      13.56316000  T       0.00178600      -0.00090300      -0.00014800
Cu       6.25648000      11.26991000      13.56214000  T      -0.00016800      -0.00203000      -0.00043300
Cu       8.76157000      11.26327000      13.56790000  T      -0.00006600       0.00030400      -0.00054300
Cu      11.26945000      11.26788000      13.57256000  T       0.00016600       0.00037300       0.00057100
Cu      12.51260000       0.01078000      15.36195000  T       0.00118900       0.00000400      -0.00033200
Cu       2.50654000      -0.00586000      15.35727000  T      -0.00027200       0.00002800       0.00130500
Cu       5.00202000      12.48777000      15.35191000  T      -0.00005700      -0.00198900       0.00061500
Cu       7.50504000      12.49253000      15.34610000  T       0.00033400       0.00030100      -0.00002200
Cu      10.01270000      12.49432000      15.35156000  T       0.00111000       0.00046500       0.00175300
Cu       0.05813000       2.50916000      15.34528000  T      -0.00224700      -0.00048500       0.00033400
Cu       2.51921000       2.44720000      15.35498000  T      -0.00315800      -0.00185300       0.00005400
Cu       4.99713000       2.42284000      15.46089000  T       0.00010100       0.00013000       0.00078400
Cu       7.54732000       2.50695000      15.47431000  T       0.00052600       0.00156500       0.00039900
Cu      10.10025000       2.45315000      15.44106000  T       0.00022700      -0.00003200       0.00084000
Cu      12.47397000       5.00481000      15.32887000  T      -0.00290800       0.00039100       0.00350100
Cu       2.40875000       4.90708000      15.46601000  T       0.00015600       0.00111200      -0.00540000
Pd       5.00317000       5.01156000      15.47373000  T       0.01283200      -0.00920500      -0.00297700
Y        7.48180000       4.99754000      17.22929000  T      -0.00612900      -0.00041600      -0.00031900
Cu       9.96984000       5.00531000      15.44009000  T      -0.00020400      -0.00018500       0.00152700
Cu       0.01823000       7.51604000      15.32168000  T      -0.00501200       0.00194200       0.00152900
Cu       2.50926000       7.57214000      15.46877000  T      -0.00488600       0.00190600       0.00226300
Cu       5.05381000       7.60389000      15.42801000  T      -0.00413000      -0.00035800       0.00207400
Cu       7.56378000       7.49869000      15.47713000  T      -0.00279400      -0.00177700       0.00074400
Cu      10.08685000       7.55981000      15.43917000  T      -0.00173700       0.00085300       0.00078400
Cu      12.51243000      10.01076000      15.35787000  T       0.00085300       0.00053900      -0.00073000
Cu       2.50864000      10.04427000      15.35493000  T      -0.00016300       0.00033400       0.00082100
Cu       5.00816000      10.04860000      15.34385000  T      -0.00015800      -0.00289600       0.00052800
Cu       7.50512000      10.02413000      15.34244000  T       0.00003700       0.00022600       0.00058400
Cu      10.01324000      10.03066000      15.34841000  T       0.00032700       0.00014600       0.00103300
O        6.13410000       3.39785000      16.67393000  T      -0.00336300       0.00146100       0.00218000
O        6.13516000       6.59628000      16.67477000  T      -0.00508500       0.00005800      -0.00107100
O        8.99522000       6.42991000      16.54715000  T       0.00107200      -0.00146200      -0.00095900
O        8.99132000       3.56677000      16.54047000  T       0.00204200       0.00189700       0.00013200
C        2.82828000       5.61689000      17.22407000  T      -0.00911300       0.00029100      -0.00145100
O        3.19681000       4.86632000      18.28517000  T      -0.04781700       0.00617900       0.00916200
O        2.72626000       6.86086000      17.40873000  T      -0.02315500       0.00806500      -0.00455800
H        3.34086000       5.49235000      19.03763000  T      -0.04713100      -0.00149900       0.01702400
108
Lattice="12.515153631 0.0 0.0 0.0 12.515153631 0.0 0.0 0.0 25.30973" Properties=species:S:1:pos:R:3:move_mask:L:1:forces:R:3 stress="0.007788080189167619 2.4260745972308225e-05 0.00017066782553815183 2.4260745972308225e-05 0.007535792148790292 9.792927818510832e-06 0.00017066782553815183 9.792927818510832e-06 0.0019530680696348856" free_energy=-445.26481406 energy=-445.2650264 pbc="T T T"
Cu       1.25152000       1.25152000      10.00000000  F       0.00512400       0.00730400      -0.06381400
Cu       3.75455000       1.25152000      10.00000000  F       0.00363900       0.02006900      -0.06944500
Cu       6.25758000       1.25152000      10.00000000  F      -0.00323400       0.02100700      -0.06796000
Cu       8.76061000       1.25152000      10.00000000  F       0.00772800       0.00115900      -0.04845700
Cu      11.26364000       1.25152000      10.00000000  F      -0.01288300      -0.00435700      -0.07564300
Cu       1.25152000       3.75455000      10.00000000  F      -0.00448400       0.00102000      -0.06679700
Cu       3.75455000       3.75455000      10.00000000  F       0.01444100      -0.02239200      -0.05118200
Cu       6.25758000       3.75455000      10.00000000  F      -0.01943600      -0.02463500      -0.07723100
Cu       8.76061000       3.75455000      10.00000000  F       0.00798200      -0.01503900      -0.07157600
Cu      11.26364000       3.75455000      10.00000000  F       0.00567100       0.00067300      -0.05941300
Cu       1.25152000       6.25758000      10.00000000  F      -0.00537000      -0.00705400      -0.05825500
Cu       3.75455000       6.25758000      10.00000000  F       0.01391400       0.01646700      -0.04287700
Cu       6.25758000       6.25758000      10.00000000  F      -0.01716900       0.02080500      -0.07656600
Cu       8.76061000       6.25758000      10.00000000  F       0.00865200       0.01795800      -0.08223200
Cu      11.26364000       6.25758000      10.00000000  F       0.00296700      -0.00732600      -0.05340700
Cu       1.25152000       8.76061000      10.00000000  F       0.00763800       0.00573800      -0.06171100
Cu       3.75455000       8.76061000      10.00000000  F      -0.00740900      -0.01307400      -0.05856900
Cu       6.25758000       8.76061000      10.00000000  F       0.00823700      -0.01820000      -0.06296900
Cu       8.76061000       8.76061000      10.00000000  F      -0.00132900      -0.00915000      -0.04817400
Cu      11.26364000       8.76061000      10.00000000  F      -0.00669200       0.00449000      -0.07081200
Cu       1.25152000      11.26364000      10.00000000  F       0.00781900      -0.00792500      -0.02009500
Cu       3.75455000      11.26364000      10.00000000  F      -0.01560100      -0.00164100      -0.06369400
Cu       6.25758000      11.26364000      10.00000000  F       0.00448600       0.00115400      -0.05790200
Cu       8.76061000      11.26364000      10.00000000  F       0.00556400       0.00453500      -0.07238300
Cu      11.26364000      11.26364000      10.00000000  F      -0.00395800       0.00521800      -0.04648500
Cu       0.00000000       0.00000000      11.76991000  F      -0.02454100       0.05736300       0.05611200
Cu       2.50303000       0.00000000      11.76991000  F       0.03295500       0.03621600       0.03756900
Cu       5.00606000       0.00000000      11.76991000  F       0.06651800       0.08880000       0.03646300
Cu       7.50909000       0.00000000      11.76991000  F       0.01815200       0.08678700       0.05406200
Cu      10.01212000       0.00000000      11.76991000  F      -0.04628200       0.09831900       0.06303100
Cu       0.00000000       2.50303000      11.76991000  F      -0.06287000       0.05126100       0.05729100
Cu       2.50303000       2.50303000      11.76991000  F       0.07352500       0.01365700       0.02769200
Cu       5.00606000       2.50303000      11.76991000  F      -0.00665000      -0.02157300       0.03166400
Cu       7.50909000       2.50303000      11.76991000  F      -0.00846900      -0.02644000       0.06618200
Cu      10.01212000       2.50303000      11.76991000  F       0.03248000      -0.05386800       0.03082600
Cu       0.00000000       5.00606000      11.76991000  F      -0.05742600       0.02774500       0.05702200
Cu       2.50303000       5.00606000      11.76991000  F       0.09811600       0.03617300       0.11240400
Cu       5.00606000       5.00606000      11.76991000  F      -0.07240800       0.02144100       0.14604300
Cu       7.50909000       5.00606000      11.76991000  F      -0.03699800      -0.00357500       0.06871200
Cu      10.01212000       5.00606000      11.76991000  F       0.03569500      -0.00458700       0.03707500
Cu       0.00000000       7.50909000      11.76991000  F      -0.03096800      -0.05951700       0.09344200
Cu       2.50303000       7.50909000      11.76991000  F       0.07520800      -0.04831900       0.05362900
Cu       5.00606000       7.50909000      11.76991000  F      -0.04249100       0.02960300       0.05726700
Cu       7.50909000       7.50909000      11.76991000  F      -0.00628900       0.02155300       0.04243000
Cu      10.01212000       7.50909000      11.76991000  F       0.04727800       0.04881800       0.02326100
Cu       0.00000000      10.01212000      11.76991000  F       0.02151200      -0.08236500       0.08598800
Cu       2.50303000      10.01212000      11.76991000  F       0.02996000      -0.05671400       0.03557500
Cu       5.00606000      10.01212000      11.76991000  F       0.02138800      -0.10772300       0.06984600
Cu       7.50909000      10.01212000      11.76991000  F       0.02943500      -0.07045900       0.04841900
Cu      10.01212000      10.01212000      11.76991000  F      -0.05384300      -0.08616600       0.05974800
Cu       1.26124000       1.24590000      13.56765000  T      -0.00182400       0.00094700      -0.00020200
Cu       3.78544000       1.26053000      13.59129000  T       0.00080400       0.00145100       0.00227200
Cu       6.28295000       1.27998000      13.61126000  T       0.00064500      -0.00186800       0.00095700
Cu       8.75855000       1.28127000      13.61273000  T      -0.00024800      -0.00087100       0.00145200
Cu      11.25815000       1.26411000      13.59536000  T      -0.00213600       0.00166900       0.00091500
Cu       1.25914000       3.76343000      13.57164000  T      -0.00271600       0.00032800      -0.00236200
Cu       3.75659000       3.75350000      13.60300000  T      -0.00109700       0.00077900       0.00200200
Cu       6.27180000       3.76193000      13.56911000  T      -0.00064200      -0.00017300       0.00303800
Cu       8.74393000       3.76422000      13.55895000  T       0.00270400      -0.00035400       0.00027200
Cu      11.23184000       3.75973000      13.59968000  T       0.00304600       0.00209500       0.00070800
Cu       1.27050000       6.25393000      13.59373000  T      -0.00453700       0.00182600      -0.00137700
Cu       3.74824000       6.26877000      13.62121000  T      -0.00265000      -0.00081500       0.00367100
Cu       6.27527000       6.25038000      13.56469000  T      -0.00109400       0.00005300       0.00118200
Cu       8.74677000       6.24550000      13.55533000  T       0.00214900       0.00050900       0.00104300
Cu      11.23418000       6.24746000      13.59824000  T       0.00254300      -0.00055400       0.00063500
Cu       1.28180000       8.74967000      13.59023000  T      -0.00185400      -0.00022700       0.00086400
Cu       3.77040000       8.73857000      13.61324000  T      -0.00215900      -0.00330800       0.00380000
Cu       6.28385000       8.74084000      13.59847000  T      -0.00031700      -0.00079400       0.00166500
Cu       8.75859000       8.72994000      13.60884000  T      -0.00107800       0.00096400       0.00215500
Cu      11.25699000       8.75571000      13.58742000  T      -0.00204300      -0.00091300      -0.00013500
Cu       1.24432000      11.26120000      13.58238000  T       0.00217900       0.00056900       0.00048300
Cu       3.74775000      11.26256000      13.56277000  T       0.00161900      -0.00097200       0.00097000
Cu       6.25624000      11.26960000      13.56177000  T       0.00065700      -0.00206700       0.00082500
Cu       8.76125000      11.26326000      13.56732000  T       0.00116500       0.00034400       0.00119700
Cu      11.26921000      11.26804000      13.57195000  T       0.00063800       0.00036800       0.00171100
Cu      12.51243000       0.01095000      15.36116000  T       0.00132400      -0.00015400       0.00031400
Cu       2.50652000      -0.00555000      15.35649000  T      -0.00025200      -0.00055900       0.00256900
Cu       5.00197000      12.48721000      15.35126000  T       0.00003300      -0.00159900       0.00192800
Cu       7.50491000      12.49256000      15.34545000  T       0.00065100       0.00034200       0.00112800
Cu      10.01249000      12.49445000      15.35058000  T       0.00155100       0.00020800       0.00362200
Cu       0.05761000       2.50916000      15.34405000  T      -0.00255700      -0.00056900       0.00217300
Cu       2.51903000       2.44764000      15.35422000  T      -0.00445000      -0.00207100       0.00110900
Cu       4.99672000       2.42235000      15.46087000  T      -0.00018500       0.00003500       0.00079300
Cu       7.54632000       2.50729000      15.47421000  T       0.00091500       0.00216500       0.00126300
Cu      10.09942000       2.45357000      15.44095000  T       0.00056200      -0.00044600       0.00162000
Cu      12.47299000       5.00482000      15.32746000  T      -0.00046100       0.00040400       0.00694500
Cu       2.40880000       4.90774000      15.46581000  T      -0.00117100       0.00096900      -0.00388900
Pd       5.00399000       5.01081000      15.47368000  T       0.00839500      -0.00919600       0.00133000
Y        7.48099000       4.99748000      17.23093000  T      -0.00770600      -0.00009200      -0.00255400
Cu       9.96805000       5.00546000      15.44022000  T       0.00222200      -0.00032300       0.00174300
Cu       0.01656000       7.51649000      15.31981000  T      -0.00538500       0.00219200       0.00415900
Cu       2.50856000       7.57206000      15.46905000  T      -0.00780500       0.00343000       0.00151300
Cu       5.05211000       7.60283000      15.42866000  T      -0.00434800       0.00110100       0.00233600
Cu       7.56163000       7.49798000      15.47732000  T      -0.00270600      -0.00185200       0.00120000
Cu      10.08502000       7.55934000      15.43869000  T      -0.00110300       0.00169500       0.00185500
Cu      12.51223000      10.01112000      15.35678000  T       0.00075000       0.00028600       0.00019900
Cu       2.50860000      10.04422000      15.35417000  T      -0.00035000       0.00102900       0.00226700
Cu       5.00800000      10.04770000      15.34350000  T      -0.00009000      -0.00208700       0.00167500
Cu       7.50493000      10.02392000      15.34186000  T       0.00042500       0.00046000       0.00182900
Cu      10.01297000      10.03054000      15.34741000  T       0.00088900       0.00082500       0.00274600
O        6.13254000       3.39848000      16.67449000  T      -0.00168400      -0.00044500       0.00178900
O        6.13198000       6.59463000      16.67587000  T      -0.00144100       0.00245000      -0.00175300
O        8.99269000       6.43040000      16.54767000  T       0.00255200      -0.00192000      -0.00307900
O        8.98992000       3.56681000      16.54089000  T       0.00235800       0.00155700      -0.00101100
C        2.80274000       5.61854000      17.22886000  T      -0.00900800      -0.00008800      -0.00159900
O        3.15897000       4.86666000      18.29296000  T      -0.04791900       0.00517700       0.00764000
O        2.70046000       6.86246000      17.41274000  T      -0.01425200       0.00647900      -0.00569100
H        3.29314000       5.49078000      19.04894000  T      -0.04278700      -0.00162800       0.01198700
108
Lattice="12.515153631 0.0 0.0 0.0 12.515153631 0.0 0.0 0.0 25.30973" Properties=species:S:1:pos:R:3:move_mask:L:1:forces:R:3 stress="0.00778236296680831 2.3155998857026887e-05 0.0001496401812930511 2.3155998857026887e-05 0.007521748753257056 1.0716671169141555e-05 0.0001496401812930511 1.0716671169141555e-05 0.001939523994831719" free_energy=-445.26734657 energy=-445.2675434 pbc="T T T"
Cu       1.25152000       1.25152000      10.00000000  F       0.00468000       0.00757800      -0.06419900
Cu       3.75455000       1.25152000      10.00000000  F       0.00338800       0.02023100      -0.06955300
Cu       6.25758000       1.25152000      10.00000000  F      -0.00376400       0.02094900      -0.06780500
Cu       8.76061000       1.25152000      10.00000000  F       0.00626200       0.00122600      -0.04842500
Cu      11.26364000       1.25152000      10.00000000  F      -0.01394700      -0.00411900      -0.07594300
Cu       1.25152000       3.75455000      10.00000000  F      -0.00489900       0.00107300      -0.06693800
Cu       3.75455000       3.75455000      10.00000000  F       0.01403300      -0.02236100      -0.05112400
Cu       6.25758000       3.75455000      10.00000000  F      -0.02007700      -0.02457900      -0.07702200
Cu       8.76061000       3.75455000      10.00000000  F       0.00672200      -0.01502500      -0.07153300
Cu      11.26364000       3.75455000      10.00000000  F       0.00467900       0.00072400      -0.05954000
Cu       1.25152000       6.25758000      10.00000000  F      -0.00583800      -0.00727700      -0.05841500
Cu       3.75455000       6.25758000      10.00000000  F       0.01355600       0.01623500      -0.04278400
Cu       6.25758000       6.25758000      10.00000000  F      -0.01783900       0.02060400      -0.07643100
Cu       8.76061000       6.25758000      10.00000000  F       0.00735200       0.01777200      -0.08227900
Cu      11.26364000       6.25758000      10.00000000  F       0.00199600      -0.00750200      -0.05348600
Cu       1.25152000       8.76061000      10.00000000  F       0.00712900       0.00549900      -0.06206400
Cu       3.75455000       8.76061000      10.00000000  F      -0.00765700      -0.01324300      -0.05877000
Cu       6.25758000       8.76061000      10.00000000  F       0.00770800      -0.01819000      -0.06301600
Cu       8.76061000       8.76061000      10.00000000  F      -0.00276900      -0.00922700      -0.04810000
Cu      11.26364000       8.76061000      10.00000000  F      -0.00769800       0.00424300      -0.07116300
Cu       1.25152000      11.26364000      10.00000000  F       0.00729900      -0.00795500      -0.02050300
Cu       3.75455000      11.26364000      10.00000000  F      -0.01565700      -0.00158600      -0.06375200
Cu       6.25758000      11.26364000      10.00000000  F       0.00400500       0.00119300      -0.05799400
Cu       8.76061000      11.26364000      10.00000000  F       0.00389700       0.00458600      -0.07269700
Cu      11.26364000      11.26364000      10.00000000  F      -0.00499700       0.00520200      -0.04690800
Cu       0.00000000       0.00000000      11.76991000  F      -0.02547000       0.05786500       0.05569200
Cu       2.50303000       0.00000000      11.76991000  F       0.03298300       0.03649700       0.03747500
Cu       5.00606000       0.00000000      11.76991000  F       0.06618700       0.08862100       0.03601200
Cu       7.50909000       0.00000000      11.76991000  F       0.01663600       0.08712400       0.05371500
Cu      10.01212000       0.00000000      11.76991000  F      -0.04841700       0.09874900       0.06219500
Cu       0.00000000       2.50303000      11.76991000  F      -0.06479300       0.05147400       0.05599000
Cu       2.50303000       2.50303000      11.76991000  F       0.07405800       0.01383800       0.02646300
Cu       5.00606000       2.50303000      11.76991000  F      -0.00801200      -0.02102400       0.03135300
Cu       7.50909000       2.50303000      11.76991000  F      -0.01006800      -0.02625600       0.06577900
Cu      10.01212000       2.50303000      11.76991000  F       0.03064800      -0.05323900       0.03017000
Cu       0.00000000       5.00606000      11.76991000  F      -0.05948100       0.02765300       0.05565200
Cu       2.50303000       5.00606000      11.76991000  F       0.09835100       0.03666500       0.11143100
Cu       5.00606000       5.00606000      11.76991000  F      -0.07423700       0.02165300       0.14552200
Cu       7.50909000       5.00606000      11.76991000  F      -0.03907500      -0.00388600       0.06841800
Cu      10.01212000       5.00606000      11.76991000  F       0.03335200      -0.00455500       0.03622800
Cu       0.00000000       7.50909000      11.76991000  F      -0.03325600      -0.05942000       0.09207600
Cu       2.50303000       7.50909000      11.76991000  F       0.07565700      -0.04901500       0.05304800
Cu       5.00606000       7.50909000      11.76991000  F      -0.04453700       0.02869600       0.05754600
Cu       7.50909000       7.50909000      11.76991000  F      -0.00841700       0.02121300       0.04222000
Cu      10.01212000       7.50909000      11.76991000  F       0.04467500       0.04797400       0.02267800
Cu       0.00000000      10.01212000      11.76991000  F       0.02013300      -0.08218800       0.08518900
Cu       2.50303000      10.01212000      11.76991000  F       0.03007500      -0.05707400       0.03543500
Cu       5.00606000      10.01212000      11.76991000  F       0.02023400      -0.10916600       0.07023000
Cu       7.50909000      10.01212000      11.76991000  F       0.02778900      -0.07162000       0.04815600
Cu      10.01212000      10.01212000      11.76991000  F      -0.05628800      -0.08627100       0.05911500
Cu       1.26109000       1.24605000      13.56733000  T      -0.00147900       0.00014700       0.00131400
Cu       3.78548000       1.26066000      13.59115000  T      -0.00031800       0.00018100       0.00254400
Cu       6.28283000       1.27978000      13.61111000  T      -0.00027300      -0.00074500       0.00175300
Cu       8.75826000       1.28142000      13.61267000  T      -0.00072400      -0.00097400       0.00190100
Cu      11.25771000       1.26435000      13.59515000  T      -0.00150100       0.00035700       0.00172500
Cu       1.25891000       3.76351000      13.57102000  T      -0.00206600       0.00012100       0.00097200
Cu       3.75627000       3.75380000      13.60325000  T      -0.00081600      -0.00057700       0.00118400
Cu       6.27136000       3.76171000      13.56897000  T       0.00008800       0.00040100       0.00283900
Cu       8.74359000       3.76424000      13.55890000  T       0.00159300      -0.00035700       0.00045600
Cu      11.23146000       3.75987000      13.59956000  T       0.00218400       0.00110300       0.00156100
Cu       1.26994000       6.25421000      13.59307000  T      -0.00321800       0.00053200       0.00153600
Cu       3.74774000       6.26850000      13.62199000  T      -0.00158700      -0.00026300       0.00113500
Cu       6.27468000       6.25034000      13.56454000  T      -0.00049200      -0.00036100       0.00206300
Cu       8.74622000       6.24545000      13.55533000  T       0.00145400       0.00054400       0.00106400
Cu      11.23356000       6.24732000      13.59804000  T       0.00208200       0.00001800       0.00201100
Cu       1.28145000       8.74981000      13.58981000  T      -0.00181800      -0.00004200       0.00207400
Cu       3.76992000       8.73792000      13.61351000  T      -0.00118500      -0.00040000       0.00224700
Cu       6.28336000       8.74047000      13.59859000  T      -0.00032900      -0.00003500       0.00174200
Cu       8.75791000       8.72976000      13.60881000  T      -0.00065500       0.00113700       0.00238400
Cu      11.25628000       8.75566000      13.58700000  T      -0.00113400      -0.00015300       0.00171300
Cu       1.24440000      11.26135000      13.58214000  T       0.00095100       0.00008200       0.00149700
Cu       3.74784000      11.26233000      13.56257000  T       0.00077700      -0.00016900       0.00196600
Cu       6.25609000      11.26925000      13.56159000  T       0.00040400      -0.00067500       0.00202000
Cu       8.76107000      11.26325000      13.56703000  T       0.00037200       0.00022700       0.00276000
Cu      11.26906000      11.26816000      13.57163000  T       0.00002000       0.00011400       0.00275200
Cu      12.51235000       0.01105000      15.36063000  T       0.00047500      -0.00025500       0.00206900
Cu       2.50646000      -0.00539000      15.35610000  T      -0.00008700      -0.00080600       0.00308200
Cu       5.00190000      12.48672000      15.35094000  T      -0.00015300      -0.00003800       0.00244000
Cu       7.50481000      12.49260000      15.34510000  T      -0.00027000       0.00015700       0.00219800
Cu      10.01240000      12.49454000      15.35015000  T       0.00030100      -0.00010100       0.00448600
Cu       0.05703000       2.50913000      15.34334000  T      -0.00147600      -0.00036300       0.00397200
Cu       2.51858000       2.44788000      15.35378000  T      -0.00289200      -0.00163600       0.00230500
Cu       4.99632000       2.42198000      15.46092000  T      -0.00049600       0.00023300       0.00059700
Cu       7.54558000       2.50767000      15.47424000  T       0.00088100       0.00073300       0.00119400
Cu      10.09880000       2.45386000      15.44099000  T       0.00034600      -0.00081800       0.00159300
Cu      12.47231000       5.00485000      15.32692000  T       0.00148700       0.00024200       0.00768600
Cu       2.40877000       4.90832000      15.46558000  T      -0.00161500      -0.00056700      -0.00091300
Pd       5.00437000       5.01018000      15.47392000  T       0.00015700      -0.00135200       0.00117900
Y        7.48006000       4.99748000      17.23194000  T      -0.00663900       0.00051400      -0.00398300
Cu       9.96692000       5.00553000      15.44039000  T       0.00390200      -0.00038700       0.00113700
Cu       0.01495000       7.51695000      15.31873000  T      -0.00205800       0.00064900       0.00626600
Cu       2.50745000       7.57222000      15.46936000  T      -0.00509800       0.00285300       0.00005900
Cu       5.05049000       7.60212000      15.42934000  T      -0.00116600       0.00178200       0.00117400
Cu       7.55983000       7.49736000      15.47753000  T       0.00026400       0.00005300       0.00054000
Cu      10.08359000       7.55912000      15.43846000  T       0.00053600       0.00186700       0.00233900
Cu      12.51210000      10.01138000      15.35602000  T       0.00006400      -0.00034800       0.00272500
Cu       2.50850000      10.04425000      15.35381000  T      -0.00026100       0.00114900       0.00324800
Cu       5.00783000      10.04695000      15.34339000  T      -0.00009400       0.00057900       0.00189400
Cu       7.50477000      10.02379000      15.34159000  T      -0.00027700       0.00046800       0.00252200
Cu      10.01281000      10.03050000      15.34691000  T       0.00000800       0.00077100       0.00398300
O        6.13109000       3.39893000      16.67517000  T       0.00040900      -0.00227400       0.00124700
O        6.12919000       6.59345000      16.67680000  T       0.00321100       0.00486600      -0.00227300
O        8.99074000       6.43070000      16.54779000  T       0.00327000      -0.00205600      -0.00389600
O        8.98885000       3.56693000      16.54112000  T       0.00168000       0.00145600      -0.00158100
C        2.78059000       5.61995000      17.23279000  T      -0.00694600       0.00120500      -0.00292700
O        3.12423000       4.86705000      18.29996000  T      -0.03218200       0.00048500       0.00376300
O        2.67837000       6.86397000      17.41557000  T       0.00414800       0.00056100      -0.00707400
H        3.24942000       5.48929000      19.05909000  T      -0.03805000      -0.00019600       0.00638900
108
Lattice="12.515153631 0.0 0.0 0.0 12.515153631 0.0 0.0 0.0 25.30973" Properties=species:S:1:pos:R:3:move_mask:L:1:forces:R:3 stress="0.0078047575015519795 2.4385576154825886e-05 0.0001320204010306827 2.4385576154825886e-05 0.007536010601609698 8.632007121096547e-06 0.0001320204010306827 8.632007121096547e-06 0.0019720859479414516" free_energy=-445.26989129 energy=-445.27007494 pbc="T T T"
Cu       1.25152000       1.25152000      10.00000000  F       0.00385700       0.00725900      -0.06270600
Cu       3.75455000       1.25152000      10.00000000  F       0.00217400       0.02005800      -0.06867800
Cu       6.25758000       1.25152000      10.00000000  F      -0.00392900       0.02084100      -0.06726800
Cu       8.76061000       1.25152000      10.00000000  F       0.00673500       0.00104800      -0.04756800
Cu      11.26364000       1.25152000      10.00000000  F      -0.01362300      -0.00443900      -0.07447200
Cu       1.25152000       3.75455000      10.00000000  F      -0.00562100       0.00061800      -0.06606300
Cu       3.75455000       3.75455000      10.00000000  F       0.01295200      -0.02267700      -0.05044900
Cu       6.25758000       3.75455000      10.00000000  F      -0.02029600      -0.02491600      -0.07675400
Cu       8.76061000       3.75455000      10.00000000  F       0.00711400      -0.01538200      -0.07103600
Cu      11.26364000       3.75455000      10.00000000  F       0.00491700       0.00022700      -0.05869800
Cu       1.25152000       6.25758000      10.00000000  F      -0.00655400      -0.00713600      -0.05781600
Cu       3.75455000       6.25758000      10.00000000  F       0.01252500       0.01627000      -0.04245800
Cu       6.25758000       6.25758000      10.00000000  F      -0.01810900       0.02060100      -0.07657200
Cu       8.76061000       6.25758000      10.00000000  F       0.00774800       0.01781200      -0.08220600
Cu      11.26364000       6.25758000      10.00000000  F       0.00222600      -0.00732500      -0.05297000
Cu       1.25152000       8.76061000      10.00000000  F       0.00627800       0.00629300      -0.06108500
Cu       3.75455000       8.76061000      10.00000000  F      -0.00886800      -0.01264700      -0.05847100
Cu       6.25758000       8.76061000      10.00000000  F       0.00750300      -0.01767200      -0.06319200
Cu       8.76061000       8.76061000      10.00000000  F      -0.00227000      -0.00864600      -0.04774400
Cu      11.26364000       8.76061000      10.00000000  F      -0.00733300       0.00499000      -0.07040500
Cu       1.25152000      11.26364000      10.00000000  F       0.00644500      -0.00755200      -0.01911500
Cu       3.75455000      11.26364000      10.00000000  F      -0.01692600      -0.00112100      -0.06298900
Cu       6.25758000      11.26364000      10.00000000  F       0.00389700       0.00171700      -0.05789800
Cu       8.76061000      11.26364000      10.00000000  F       0.00438400       0.00509100      -0.07221700
Cu      11.26364000      11.26364000      10.00000000  F      -0.00464700       0.00566200      -0.04542400
Cu       0.00000000       0.00000000      11.76991000  F      -0.02638500       0.05790500       0.05810700
Cu       2.50303000       0.00000000      11.76991000  F       0.03201200       0.03700400       0.04038200
Cu       5.00606000       0.00000000      11.76991000  F       0.06521300       0.08848300       0.03897700
Cu       7.50909000       0.00000000      11.76991000  F       0.01677800       0.08710500       0.05649000
Cu      10.01212000       0.00000000      11.76991000  F      -0.04807900       0.09853000       0.06431700
Cu       0.00000000       2.50303000      11.76991000  F      -0.06636600       0.05030000       0.05680100
Cu       2.50303000       2.50303000      11.76991000  F       0.07292600       0.01288900       0.02873200
Cu       5.00606000       2.50303000      11.76991000  F      -0.00939000      -0.02127900       0.03497800
Cu       7.50909000       2.50303000      11.76991000  F      -0.01042200      -0.02673500       0.06919200
Cu      10.01212000       2.50303000      11.76991000  F       0.03139500      -0.05364400       0.03267400
Cu       0.00000000       5.00606000      11.76991000  F      -0.06055900       0.02750200       0.05510800
Cu       2.50303000       5.00606000      11.76991000  F       0.09647000       0.03676800       0.11401300
Cu       5.00606000       5.00606000      11.76991000  F      -0.07576500       0.02100000       0.14849400
Cu       7.50909000       5.00606000      11.76991000  F      -0.03949000      -0.00441500       0.07200100
Cu      10.01212000       5.00606000      11.76991000  F       0.03434900      -0.00454500       0.03839600
Cu       0.00000000       7.50909000      11.76991000  F      -0.03510100      -0.05779200       0.09225100
Cu       2.50303000       7.50909000      11.76991000  F       0.07391300      -0.04854300       0.05574400
Cu       5.00606000       7.50909000      11.76991000  F      -0.04683700       0.02867500       0.06085800
Cu       7.50909000       7.50909000      11.76991000  F      -0.00886700       0.02153700       0.04540900
Cu      10.01212000       7.50909000      11.76991000  F       0.04484400       0.04837800       0.02510700
Cu       0.00000000      10.01212000      11.76991000  F       0.01907100      -0.08067900       0.08725000
Cu       2.50303000      10.01212000      11.76991000  F       0.02881600      -0.05651700       0.03787100
Cu       5.00606000      10.01212000      11.76991000  F       0.01870200      -0.10911000       0.07310800
Cu       7.50909000      10.01212000      11.76991000  F       0.02806400      -0.07106400       0.05074000
Cu      10.01212000      10.01212000      11.76991000  F      -0.05623600      -0.08462200       0.06135700
Cu       1.26054000       1.24615000      13.56756000  T       0.00032900      -0.00053500       0.00072100
Cu       3.78531000       1.26071000      13.59177000  T      -0.00147900      -0.00111900      -0.00055400
Cu       6.28269000       1.27945000      13.61155000  T      -0.00066700       0.00086200       0.00049300
Cu       8.75800000       1.28122000      13.61319000  T       0.00060000       0.00034000       0.00029000
Cu      11.25711000       1.26453000      13.59553000  T       0.00123800      -0.00100600       0.00014100
Cu       1.25818000       3.76361000      13.57106000  T       0.00075500      -0.00116500       0.00110300
Cu       3.75572000       3.75380000      13.60378000  T      -0.00014600      -0.00125400       0.00001300
Cu       6.27121000       3.76165000      13.56962000  T       0.00033100      -0.00137300      -0.00118200
Cu       8.74394000       3.76414000      13.55902000  T      -0.00063900      -0.00058600       0.00079700
Cu      11.23191000       3.76027000      13.60004000  T      -0.00061700      -0.00166700       0.00073400
Cu       1.26867000       6.25457000      13.59321000  T       0.00113200      -0.00050000       0.00069800
Cu       3.74686000       6.26829000      13.62285000  T       0.00020500      -0.00013500      -0.00044000
Cu       6.27420000       6.25024000      13.56501000  T      -0.00008600      -0.00002400      -0.00019600
Cu       8.74640000       6.24559000      13.55561000  T      -0.00078800      -0.00047100       0.00005400
Cu      11.23384000       6.24727000      13.59860000  T      -0.00087700       0.00002100       0.00044000
Cu       1.28064000       8.74994000      13.59014000  T      -0.00037400       0.00146400      -0.00061000
Cu       3.76918000       8.73751000      13.61427000  T      -0.00024200       0.00250700      -0.00159200
Cu       6.28294000       8.74026000      13.59916000  T      -0.00075400       0.00081500       0.00017500
Cu       8.75743000       8.73002000      13.60943000  T       0.00066400       0.00049600      -0.00054700
Cu      11.25562000       8.75566000      13.58726000  T       0.00091700       0.00173200       0.00020900
Cu       1.24465000      11.26143000      13.58240000  T      -0.00124700       0.00061700       0.00007800
Cu       3.74803000      11.26214000      13.56300000  T      -0.00129000       0.00132300       0.00001800
Cu       6.25616000      11.26887000      13.56204000  T      -0.00003700       0.00178700       0.00047400
Cu       8.76122000      11.26332000      13.56763000  T       0.00049600       0.00089500       0.00013500
Cu      11.26906000      11.26826000      13.57218000  T       0.00032600       0.00090000      -0.00049400
Cu      12.51246000       0.01105000      15.36095000  T      -0.00035100       0.00045700       0.00013400
Cu       2.50636000      -0.00550000      15.35680000  T      -0.00019200       0.00110600      -0.00084300
Cu       5.00180000      12.48638000      15.35159000  T      -0.00007000       0.00093400       0.00014700
Cu       7.50475000      12.49268000      15.34568000  T      -0.00002300       0.00060600       0.00100800
Cu      10.01254000      12.49457000      15.35126000  T      -0.00007000       0.00062000      -0.00068500
Cu       0.05625000       2.50901000      15.34409000  T       0.00028800      -0.00047600      -0.00043100
Cu       2.51740000       2.44762000      15.35424000  T       0.00133900       0.00030400      -0.00001300
Cu       4.99581000       2.42174000      15.46125000  T      -0.00029100      -0.00015700       0.00143100
Cu       7.54546000       2.50805000      15.47466000  T      -0.00093600      -0.00083900       0.00064900
Cu      10.09859000       2.45379000      15.44154000  T      -0.00137400       0.00055200       0.00057400
Cu      12.47236000       5.00494000      15.32882000  T       0.00041600      -0.00049300      -0.00065700
Cu       2.40841000       4.90846000      15.46514000  T       0.00080300      -0.00193200      -0.00008900
Pd       5.00438000       5.00960000      15.47451000  T      -0.00088500       0.00259400      -0.00118600
Y        7.47832000       4.99763000      17.23144000  T       0.01024200       0.00084800       0.00118800
Cu       9.96753000       5.00546000      15.44085000  T       0.00010600      -0.00031000       0.00030500
Cu       0.01330000       7.51748000      15.31982000  T       0.00051500       0.00025000      -0.00085700
Cu       2.50524000       7.57323000      15.46953000  T       0.00199500       0.00033800      -0.00196100
Cu       5.04886000       7.60217000      15.43018000  T      -0.00139900      -0.00140700       0.00003500
Cu       7.55891000       7.49715000      15.47777000  T       0.00098700       0.00193200      -0.00052300
Cu      10.08295000       7.55963000      15.43898000  T      -0.00136500       0.00020900       0.00033700
Cu      12.51206000      10.01146000      15.35637000  T      -0.00021400       0.00135500       0.00074300
Cu       2.50832000      10.04463000      15.35456000  T      -0.00034200       0.00135700      -0.00033200
Cu       5.00765000      10.04670000      15.34401000  T      -0.00039000       0.00159300       0.00060700
Cu       7.50467000      10.02388000      15.34231000  T       0.00002100       0.00082300       0.00105400
Cu      10.01284000      10.03073000      15.34783000  T       0.00017100       0.00089600       0.00009700
O        6.13022000       3.39838000      16.67633000  T      -0.00117600      -0.00243600      -0.00005500
O        6.12842000       6.59432000      16.67706000  T       0.00018400      -0.00002200       0.00103600
O        8.99043000       6.43006000      16.54693000  T      -0.00266400      -0.00114700       0.00188400
O        8.98858000       3.56752000      16.54097000  T      -0.00248100      -0.00132300      -0.00008200
C        2.76554000       5.62086000      17.23427000  T      -0.00943700      -0.00200400       0.00418700
O        3.09292000       4.86715000      18.30571000  T      -0.02709200      -0.00303200       0.00536300
O        2.66747000       6.86548000      17.41487000  T       0.00567600      -0.00040400       0.00198500
H        3.21040000       5.48832000      19.06701000  T      -0.02937700      -0.00082300      -0.00011300
