108
Lattice="12.515153631 0.0 0.0 0.0 12.515153631 0.0 0.0 0.0 25.30973" Properties=species:S:1:pos:R:3:move_mask:L:1:forces:R:3 stress="0.00861953658586303 -1.6290338818555303e-06 0.00015839701859666534 -1.6290338818555303e-06 0.008598365386908035 -8.301207137424734e-07 0.00015839701859666534 -8.301207137424734e-07 0.0031150373405823203" free_energy=-445.01577635 energy=-445.0159198 pbc="T T T"
Cu       1.25152000       1.25152000      10.00000000  F       0.00238800      -0.00375400      -0.06910500
Cu       3.75455000       1.25152000      10.00000000  F      -0.00059900       0.01495800      -0.06791800
Cu       6.25758000       1.25152000      10.00000000  F       0.00628800       0.01316500      -0.06640000
Cu       8.76061000       1.25152000      10.00000000  F      -0.00182300      -0.00026400      -0.04277300
Cu      11.26364000       1.25152000      10.00000000  F      -0.00702300      -0.00934400      -0.07118200
Cu       1.25152000       3.75455000      10.00000000  F      -0.01120600       0.00613100      -0.06146900
Cu       3.75455000       3.75455000      10.00000000  F       0.01718900      -0.01922900      -0.04351700
Cu       6.25758000       3.75455000      10.00000000  F      -0.02017200      -0.01797000      -0.07813000
Cu       8.76061000       3.75455000      10.00000000  F       0.00855900      -0.01583000      -0.07591500
Cu      11.26364000       3.75455000      10.00000000  F       0.00894900       0.01027900      -0.05550400
Cu       1.25152000       6.25758000      10.00000000  F      -0.01171800      -0.00462100      -0.06311100
Cu       3.75455000       6.25758000      10.00000000  F       0.01856500       0.02007500      -0.04411600
Cu       6.25758000       6.25758000      10.00000000  F      -0.02028000       0.02005200      -0.08107800
Cu       8.76061000       6.25758000      10.00000000  F       0.00731800       0.01661500      -0.07652500
Cu      11.26364000       6.25758000      10.00000000  F       0.00942300      -0.00869200      -0.05690100
Cu       1.25152000       8.76061000      10.00000000  F       0.00256800       0.00055700      -0.06791700
Cu       3.75455000       8.76061000      10.00000000  F      -0.00144300      -0.01739400      -0.06695000
Cu       6.25758000       8.76061000      10.00000000  F       0.00653100      -0.01718600      -0.06439400
Cu       8.76061000       8.76061000      10.00000000  F      -0.00142100      -0.00200100      -0.04175400
Cu      11.26364000       8.76061000      10.00000000  F      -0.00700500       0.00586400      -0.06998100
Cu       1.25152000      11.26364000      10.00000000  F       0.00341900       0.00177800      -0.01491100
Cu       3.75455000      11.26364000      10.00000000  F      -0.01303600       0.00172600      -0.06452100
Cu       6.25758000      11.26364000      10.00000000  F       0.00881400       0.00205500      -0.06538400
Cu       8.76061000      11.26364000      10.00000000  F      -0.00453900       0.00162600      -0.08331500
Cu      11.26364000      11.26364000      10.00000000  F       0.00173900       0.00201500      -0.05263900
Cu       0.00000000       0.00000000      11.76991000  F      -0.00510000       0.04441100       0.16091600
Cu       2.50303000       0.00000000      11.76991000  F       0.02687900       0.04082800       0.13063000
Cu       5.00606000       0.00000000      11.76991000  F       0.04392800       0.07953000       0.12684900
Cu       7.50909000       0.00000000      11.76991000  F       0.02081500       0.07928200       0.12103800
Cu      10.01212000       0.00000000      11.76991000  F      -0.03841200       0.08698500       0.13208200
Cu       0.00000000       2.50303000      11.76991000  F      -0.06157900       0.04316600       0.12646600
Cu       2.50303000       2.50303000      11.76991000  F       0.07553900       0.01828300       0.11482900
Cu       5.00606000       2.50303000      11.76991000  F      -0.02743000      -0.02196100       0.11222400
Cu       7.50909000       2.50303000      11.76991000  F      -0.01353000      -0.02514200       0.12755600
Cu      10.01212000       2.50303000      11.76991000  F       0.07121600      -0.05191100       0.10229400
Cu       0.00000000       5.00606000      11.76991000  F      -0.08051700       0.00147700       0.08425600
Cu       2.50303000       5.00606000      11.76991000  F       0.09226400       0.00130000       0.15886000
Cu       5.00606000       5.00606000      11.76991000  F      -0.05259400       0.00181100       0.16075700
Cu       7.50909000       5.00606000      11.76991000  F      -0.03281100       0.00215300       0.13624800
Cu      10.01212000       5.00606000      11.76991000  F       0.05925000       0.00141000       0.10550100
Cu       0.00000000       7.50909000      11.76991000  F      -0.06183400      -0.04607700       0.12727300
Cu       2.50303000       7.50909000      11.76991000  F       0.07509800      -0.02010300       0.11541200
Cu       5.00606000       7.50909000      11.76991000  F      -0.02592900       0.01949800       0.11243800
Cu       7.50909000       7.50909000      11.76991000  F      -0.01382700       0.02150000       0.12829600
Cu      10.01212000       7.50909000      11.76991000  F       0.07272000       0.04957700       0.10280500
Cu       0.00000000      10.01212000      11.76991000  F      -0.00424800      -0.04322500       0.15845600
Cu       2.50303000      10.01212000      11.76991000  F       0.02801200      -0.04049800       0.13005800
Cu       5.00606000      10.01212000      11.76991000  F       0.04280600      -0.07814300       0.12557600
Cu       7.50909000      10.01212000      11.76991000  F       0.02200000      -0.07732300       0.11866800
Cu      10.01212000      10.01212000      11.76991000  F      -0.03953800      -0.08626800       0.13136500
Cu       1.26528000       1.24958000      13.59128000  T       0.00161700      -0.01126000      -0.00476200
Cu       3.78188000       1.26484000      13.61542000  T      -0.01057100      -0.00725800      -0.01276900
Cu       6.28600000       1.27576000      13.61981000  T      -0.00035700      -0.00308800      -0.00470500
Cu       8.76415000       1.28030000      13.62491000  T      -0.00442100      -0.00738200      -0.00375600
Cu      11.25990000       1.26255000      13.61295000  T       0.00630000      -0.01027300      -0.01793500
Cu       1.25581000       3.76511000      13.58847000  T       0.00535600      -0.00350400       0.00513500
Cu       3.75585000       3.75831000      13.62045000  T      -0.01944200      -0.00582800      -0.01089800
Cu       6.27151000       3.76281000      13.58054000  T       0.00188500      -0.00101500      -0.04902300
Cu       8.75109000       3.76439000      13.56674000  T      -0.00616500      -0.00114700      -0.04741400
Cu      11.24238000       3.76435000      13.61931000  T       0.00030600       0.00077900       0.00328100
Cu       1.25567000       6.24721000      13.58817000  T       0.00534900       0.00219100       0.00630700
Cu       3.75623000       6.25404000      13.61998000  T      -0.01747400       0.00514000      -0.00972100
Cu       6.27185000       6.24948000      13.58049000  T       0.00183300      -0.00032400      -0.04616800
Cu       8.75138000       6.24763000      13.56671000  T      -0.00603000      -0.00013200      -0.04707100
Cu      11.24264000       6.24775000      13.61943000  T      -0.00015900      -0.00310000       0.00049200
Cu       1.26558000       8.76216000      13.59165000  T       0.00152100       0.00955900      -0.00562400
Cu       3.78192000       8.74711000      13.61560000  T      -0.00969300       0.00822900      -0.01081900
Cu       6.28622000       8.73662000      13.61958000  T      -0.00107200       0.00615400      -0.00443200
Cu       8.76442000       8.73173000      13.62485000  T      -0.00456400       0.01145600      -0.00357200
Cu      11.26022000       8.74944000      13.61303000  T       0.00615500       0.01079800      -0.01537200
Cu       1.24868000      11.26349000      13.61027000  T      -0.01451600       0.00182300      -0.01502200
Cu       3.74357000      11.26359000      13.58477000  T      -0.01521900       0.00161500      -0.00304800
Cu       6.25350000      11.26374000      13.57684000  T      -0.00383800       0.00199900      -0.00102700
Cu       8.76232000      11.26357000      13.58135000  T       0.00617200       0.00146700      -0.00905300
Cu      11.26888000      11.26355000      13.59043000  T       0.02505700       0.00155400      -0.00695000
Cu      12.51070000       0.00246000      15.40197000  T      -0.00305800       0.01388100      -0.08931600
Cu       2.50524000      12.51507000      15.40025000  T       0.00781500       0.01502500      -0.08957600
Cu       5.00237000      12.48396000      15.37580000  T       0.01606800       0.00372300      -0.04681300
Cu       7.50680000      12.49550000      15.36963000  T      -0.00915500       0.00475600      -0.05794900
Cu      10.01338000      12.49610000      15.38132000  T      -0.00745000       0.01172300      -0.06261000
Cu       0.05411000       2.49666000      15.37291000  T       0.00866900       0.00592900      -0.05280400
Cu       2.52224000       2.49225000      15.38811000  T      -0.00755700       0.00266600      -0.04967000
Cu       5.00599000       2.42110000      15.47469000  T      -0.05074500      -0.08103600      -0.09346700
Cu       7.56669000       2.50629000      15.48723000  T       0.04490200      -0.08862900      -0.13140000
Cu      10.10003000       2.45889000      15.46858000  T       0.04880000      -0.05758000      -0.07842900
Cu      12.47337000       5.00586000      15.37846000  T       0.01181500       0.00126400      -0.06576700
Cu       2.40711000       5.00626000      15.50363000  T      -0.02089100       0.00102200      -0.07750600
Pd       5.00954000       5.00592000      15.49955000  T       0.01463800       0.00413700      -0.08941000
Y        7.47600000       5.00612000      17.25306000  T      -0.03763900       0.00103500       0.07887700
Cu       9.96932000       5.00584000      15.46791000  T       0.11697400       0.00069800      -0.14727300
Cu       0.05456000       7.51544000      15.37338000  T       0.00524400      -0.00668000      -0.05343500
Cu       2.52304000       7.51887000      15.38906000  T      -0.00692900      -0.00163500      -0.04764900
Cu       5.00696000       7.59157000      15.47438000  T      -0.04979900       0.07790900      -0.09210500
Cu       7.56737000       7.50591000      15.48716000  T       0.04492200       0.08720900      -0.13102100
Cu      10.10047000       7.55293000      15.46865000  T       0.04823900       0.05715200      -0.07841900
Cu      12.51077000      10.00970000      15.40215000  T      -0.00326100      -0.01299200      -0.08935000
Cu       2.50531000      10.01138000      15.40031000  T       0.00846300      -0.01520600      -0.09014400
Cu       5.00244000      10.04373000      15.37579000  T       0.01689400      -0.00787300      -0.04549900
Cu       7.50685000      10.03178000      15.36956000  T      -0.00834200      -0.01071700      -0.05865400
Cu      10.01341000      10.03083000      15.38136000  T      -0.00813000      -0.01413900      -0.06297100
O        6.18530000       3.39364000      16.63506000  T      -0.13597400       0.05617900       0.14375000
O        6.18599000       6.61902000      16.63501000  T      -0.13614900      -0.05966000       0.14349000
O        8.99382000       6.41507000      16.54381000  T       0.03978900       0.10448000       0.10358400
O        8.99320000       3.59658000      16.54373000  T       0.04018800      -0.10302000       0.10369900
C        2.60598000       5.02011000      17.44095000  T      -0.65397800       0.01127500       0.31456500
O        1.41204000       5.04116000      18.17696000  T       0.53949100      -0.01290700      -0.64750900
O        3.67645000       5.00968000      18.03665000  T      -0.02048000       0.00070500       0.07153000
H        1.68738000       5.04259000      19.11937000  T       0.02393200       0.00168100       0.27773400
108
Lattice="12.515153631 0.0 0.0 0.0 12.515153631 0.0 0.0 0.0 25.30973" Properties=species:S:1:pos:R:3:move_mask:L:1:forces:R:3 stress="0.008495960946679669 2.4217055408427044e-06 0.000248393338682776 2.4217055408427044e-06 0.008618394389692995 -4.880860136440708e-06 0.000248393338682776 -4.880860136440708e-06 0.002979946117061703" free_energy=-445.05212139 energy=-445.05228792 pbc="T T T"
Cu       1.25152000       1.25152000      10.00000000  F       0.00249700      -0.00314100      -0.06908600
Cu       3.75455000       1.25152000      10.00000000  F      -0.00016300       0.01525400      -0.06808400
Cu       6.25758000       1.25152000      10.00000000  F       0.00653700       0.01329200      -0.06694200
Cu       8.76061000       1.25152000      10.00000000  F      -0.00170300      -0.00020300      -0.04327300
Cu      11.26364000       1.25152000      10.00000000  F      -0.00693300      -0.00900500      -0.07315000
Cu       1.25152000       3.75455000      10.00000000  F      -0.01086600       0.00572000      -0.06221900
Cu       3.75455000       3.75455000      10.00000000  F       0.01763300      -0.01882200      -0.04473000
Cu       6.25758000       3.75455000      10.00000000  F      -0.02016100      -0.01769600      -0.07908900
Cu       8.76061000       3.75455000      10.00000000  F       0.00870800      -0.01601500      -0.07691300
Cu      11.26364000       3.75455000      10.00000000  F       0.00907100       0.01008300      -0.05534900
Cu       1.25152000       6.25758000      10.00000000  F      -0.01136900      -0.00409900      -0.06389800
Cu       3.75455000       6.25758000      10.00000000  F       0.01899200       0.01976600      -0.04530400
Cu       6.25758000       6.25758000      10.00000000  F      -0.02030900       0.01982200      -0.08205400
Cu       8.76061000       6.25758000      10.00000000  F       0.00744700       0.01681300      -0.07762400
Cu      11.26364000       6.25758000      10.00000000  F       0.00959300      -0.00842600      -0.05680100
Cu       1.25152000       8.76061000      10.00000000  F       0.00270700      -0.00020400      -0.06781500
Cu       3.75455000       8.76061000      10.00000000  F      -0.00106100      -0.01784200      -0.06711400
Cu       6.25758000       8.76061000      10.00000000  F       0.00674500      -0.01746100      -0.06500900
Cu       8.76061000       8.76061000      10.00000000  F      -0.00130600      -0.00219900      -0.04234300
Cu      11.26364000       8.76061000      10.00000000  F      -0.00684100       0.00537600      -0.07204500
Cu       1.25152000      11.26364000      10.00000000  F       0.00318500       0.00164300      -0.01449400
Cu       3.75455000      11.26364000      10.00000000  F      -0.01222300       0.00161500      -0.06171200
Cu       6.25758000      11.26364000      10.00000000  F       0.00897900       0.00198400      -0.06478800
Cu       8.76061000      11.26364000      10.00000000  F      -0.00414500       0.00157200      -0.08299900
Cu      11.26364000      11.26364000      10.00000000  F       0.00116100       0.00193700      -0.05155500
Cu       0.00000000       0.00000000      11.76991000  F      -0.00399700       0.04569300       0.13881800
Cu       2.50303000       0.00000000      11.76991000  F       0.02690400       0.03951900       0.11263000
Cu       5.00606000       0.00000000      11.76991000  F       0.04440600       0.07800100       0.11382900
Cu       7.50909000       0.00000000      11.76991000  F       0.02035800       0.07802200       0.10838200
Cu      10.01212000       0.00000000      11.76991000  F      -0.03837900       0.08521800       0.11702900
Cu       0.00000000       2.50303000      11.76991000  F      -0.06013300       0.04553900       0.11453600
Cu       2.50303000       2.50303000      11.76991000  F       0.07365100       0.01860900       0.10004200
Cu       5.00606000       2.50303000      11.76991000  F      -0.03048800      -0.02439000       0.09768200
Cu       7.50909000       2.50303000      11.76991000  F      -0.01354100      -0.03205700       0.10615000
Cu      10.01212000       2.50303000      11.76991000  F       0.07394900      -0.05320900       0.08728400
Cu       0.00000000       5.00606000      11.76991000  F      -0.07872500       0.00126200       0.07813800
Cu       2.50303000       5.00606000      11.76991000  F       0.08986900       0.00154800       0.14798000
Cu       5.00606000       5.00606000      11.76991000  F      -0.05955400       0.00203200       0.14537700
Cu       7.50909000       5.00606000      11.76991000  F      -0.03416500       0.00227800       0.10831800
Cu      10.01212000       5.00606000      11.76991000  F       0.06585000       0.00095200       0.08795200
Cu       0.00000000       7.50909000      11.76991000  F      -0.06030900      -0.04844000       0.11557600
Cu       2.50303000       7.50909000      11.76991000  F       0.07355700      -0.02063900       0.10121500
Cu       5.00606000       7.50909000      11.76991000  F      -0.02882100       0.02192700       0.09854300
Cu       7.50909000       7.50909000      11.76991000  F      -0.01413000       0.02835900       0.10779900
Cu      10.01212000       7.50909000      11.76991000  F       0.07532300       0.05132300       0.08813300
Cu       0.00000000      10.01212000      11.76991000  F      -0.00323300      -0.04465400       0.13715000
Cu       2.50303000      10.01212000      11.76991000  F       0.02817800      -0.03936800       0.11288300
Cu       5.00606000      10.01212000      11.76991000  F       0.04306100      -0.07641100       0.11306600
Cu       7.50909000      10.01212000      11.76991000  F       0.02138900      -0.07547600       0.10615400
Cu      10.01212000      10.01212000      11.76991000  F      -0.03919600      -0.08426600       0.11677300
Cu       1.26549000       1.24859000      13.58863000  T       0.00017000       0.00230900      -0.02537200
Cu       3.78067000       1.26380000      13.61158000  T       0.00092100      -0.00017700      -0.02572800
Cu       6.28569000       1.27538000      13.61728000  T      -0.00187100       0.00062300      -0.02119700
Cu       8.76393000       1.27919000      13.62195000  T       0.00003800      -0.00046000      -0.02368800
Cu      11.26075000       1.26145000      13.60841000  T       0.00009500       0.00098100      -0.02849400
Cu       1.25653000       3.76455000      13.58699000  T       0.00334500       0.00039200      -0.02086700
Cu       3.75383000       3.75784000      13.61801000  T       0.00054700       0.00097800      -0.01318500
Cu       6.27149000       3.76236000      13.57458000  T      -0.00125800      -0.00364400      -0.01385100
Cu       8.75041000       3.76425000      13.56114000  T      -0.00019700      -0.00103300      -0.00851100
Cu      11.24258000       3.76387000      13.61746000  T      -0.00015500      -0.00358500      -0.02072400
Cu       1.25643000       6.24763000      13.58682000  T       0.00379000      -0.00072600      -0.02063000
Cu       3.75440000       6.25452000      13.61762000  T       0.00055500      -0.00034000      -0.01343400
Cu       6.27190000       6.24982000      13.57483000  T      -0.00059000       0.00344300      -0.01392400
Cu       8.75071000       6.24767000      13.56112000  T      -0.00019100       0.00122500      -0.00902100
Cu      11.24278000       6.24795000      13.61720000  T       0.00001600       0.00314500      -0.02209200
Cu       1.26579000       8.76295000      13.58893000  T       0.00019300      -0.00296800      -0.02548300
Cu       3.78079000       8.74824000      13.61199000  T       0.00058000      -0.00015700      -0.02534400
Cu       6.28582000       8.73732000      13.61704000  T      -0.00223800      -0.00065600      -0.02170700
Cu       8.76418000       8.73327000      13.62185000  T      -0.00013200       0.00064200      -0.02458100
Cu      11.26105000       8.75060000      13.60873000  T       0.00027500      -0.00089000      -0.02920200
Cu       1.24733000      11.26365000      13.60652000  T       0.00049600      -0.00023100      -0.02788600
Cu       3.74217000      11.26376000      13.58283000  T       0.00204100       0.00020900      -0.02141500
Cu       6.25289000      11.26397000      13.57487000  T      -0.00120000       0.00056500      -0.02398500
Cu       8.76310000      11.26377000      13.57869000  T       0.00097000       0.00070800      -0.02264000
Cu      11.27127000      11.26372000      13.58788000  T      -0.00061800       0.00029000      -0.02352200
Cu      12.51033000       0.00431000      15.38974000  T      -0.00094000       0.00513800      -0.04364500
Cu       2.50638000      12.51680000      15.38778000  T       0.00344000       0.00305400      -0.04623500
Cu       5.00439000      12.48345000      15.36904000  T       0.00472600      -0.00404900      -0.02756800
Cu       7.50564000      12.49516000      15.36150000  T      -0.00141600      -0.00337600      -0.03095100
Cu      10.01236000      12.49649000      15.37225000  T      -0.00241700      -0.00486400      -0.03721300
Cu       0.05549000       2.49750000      15.36531000  T       0.00277800       0.00294100      -0.03018200
Cu       2.52078000       2.49287000      15.38107000  T      -0.00365800       0.00333500      -0.02722500
Cu       5.00404000       2.41564000      15.46607000  T       0.01556600       0.01065200      -0.01161100
Cu       7.56828000       2.50152000      15.47657000  T      -0.02217200       0.03136400       0.00871200
Cu      10.10370000       2.45458000      15.46063000  T      -0.00628500       0.00593000      -0.01509400
Cu      12.47638000       5.00599000      15.36873000  T       0.01377500       0.00006000      -0.03463700
Cu       2.40625000       5.00644000      15.49888000  T       0.00939200       0.00049100      -0.00870100
Pd       5.01244000       5.00618000      15.49146000  T       0.02076100      -0.00085700      -0.02417100
Y        7.47429000       5.00609000      17.25745000  T       0.01219800      -0.00082900      -0.04297900
Cu       9.97756000       5.00606000      15.45509000  T      -0.02563100       0.00124500       0.00478600
Cu       0.05550000       7.51450000      15.36561000  T       0.00186100      -0.00361800      -0.03147100
Cu       2.52156000       7.51839000      15.38227000  T      -0.00493800      -0.00278000      -0.02651700
Cu       5.00505000       7.59684000      15.46596000  T       0.01448700      -0.00953300      -0.01142700
Cu       7.56887000       7.51046000      15.47655000  T      -0.02223500      -0.03219500       0.00881000
Cu      10.10413000       7.55721000      15.46056000  T      -0.00604200      -0.00547100      -0.01623400
Cu      12.51038000      10.00802000      15.38978000  T      -0.00095300      -0.00371700      -0.04532600
Cu       2.50653000      10.00972000      15.38766000  T       0.00397300      -0.00162700      -0.04662200
Cu       5.00464000      10.04366000      15.36913000  T       0.00583900       0.00255200      -0.02791100
Cu       7.50580000      10.03134000      15.36140000  T      -0.00124700       0.00130100      -0.03087900
Cu      10.01228000      10.03013000      15.37225000  T      -0.00249500       0.00432800      -0.03716100
O        6.16808000       3.39760000      16.64695000  T      -0.03293600       0.00419400      -0.00223100
O        6.16852000       6.61457000      16.64689000  T      -0.03360000      -0.00581800      -0.00069500
O        8.99894000       6.42749000      16.55303000  T      -0.00066300       0.01586200      -0.00138900
O        8.99843000       3.58434000      16.55292000  T      -0.00009300      -0.01540000      -0.00295600
C        2.59108000       5.02042000      17.44616000  T      -0.02056100      -0.00008500       0.00480000
O        1.42206000       5.04060000      18.16451000  T      -0.05226700      -0.00076800      -0.01904100
O        3.66660000       5.00985000      18.03899000  T      -0.02387700       0.00070700       0.00068600
H        1.68263000       5.04272000      19.11938000  T      -0.02794800       0.00005400      -0.02828800
108
Lattice="12.515153631 0.0 0.0 0.0 12.515153631 0.0 0.0 0.0 25.30973" Properties=species:S:1:pos:R:3:move_mask:L:1:forces:R:3 stress="0.008169835853343143 3.0770639990604465e-06 0.0002447982294262673 3.0770639990604465e-06 0.008261779524276529 -3.102030035563979e-06 0.0002447982294262673 -3.102030035563979e-06 0.0024163752920491996" free_energy=-445.06036458 energy=-445.06060284 pbc="T T T"
Cu       1.25152000       1.25152000      10.00000000  F       0.00287500      -0.00194600      -0.06921100
Cu       3.75455000       1.25152000      10.00000000  F      -0.00009600       0.01597700      -0.06861200
Cu       6.25758000       1.25152000      10.00000000  F       0.00619600       0.01354900      -0.06780500
Cu       8.76061000       1.25152000      10.00000000  F      -0.00226200       0.00029500      -0.04391100
Cu      11.26364000       1.25152000      10.00000000  F      -0.00726600      -0.00809400      -0.07377500
Cu       1.25152000       3.75455000      10.00000000  F      -0.01069000       0.00570800      -0.06296800
Cu       3.75455000       3.75455000      10.00000000  F       0.01751700      -0.01879000      -0.04548200
Cu       6.25758000       3.75455000      10.00000000  F      -0.02066900      -0.01743800      -0.07877800
Cu       8.76061000       3.75455000      10.00000000  F       0.00846700      -0.01585600      -0.07700200
Cu      11.26364000       3.75455000      10.00000000  F       0.00882500       0.01043300      -0.05572800
Cu       1.25152000       6.25758000      10.00000000  F      -0.01123000      -0.00443800      -0.06468700
Cu       3.75455000       6.25758000      10.00000000  F       0.01890100       0.01936300      -0.04608100
Cu       6.25758000       6.25758000      10.00000000  F      -0.02076800       0.01930100      -0.08171700
Cu       8.76061000       6.25758000      10.00000000  F       0.00718600       0.01639600      -0.07764000
Cu      11.26364000       6.25758000      10.00000000  F       0.00931300      -0.00907000      -0.05714700
Cu       1.25152000       8.76061000      10.00000000  F       0.00302800      -0.00141000      -0.06797900
Cu       3.75455000       8.76061000      10.00000000  F      -0.00095800      -0.01855800      -0.06766000
Cu       6.25758000       8.76061000      10.00000000  F       0.00646000      -0.01777800      -0.06580000
Cu       8.76061000       8.76061000      10.00000000  F      -0.00184500      -0.00275200      -0.04289100
Cu      11.26364000       8.76061000      10.00000000  F      -0.00722000       0.00444700      -0.07263900
Cu       1.25152000      11.26364000      10.00000000  F       0.00301900       0.00170700      -0.01517900
Cu       3.75455000      11.26364000      10.00000000  F      -0.01151300       0.00168300      -0.06180700
Cu       6.25758000      11.26364000      10.00000000  F       0.00873200       0.00201500      -0.06531300
Cu       8.76061000      11.26364000      10.00000000  F      -0.00481400       0.00157300      -0.08310400
Cu      11.26364000      11.26364000      10.00000000  F       0.00052200       0.00193400      -0.05160000
Cu       0.00000000       0.00000000      11.76991000  F      -0.00493200       0.04908000       0.10058200
Cu       2.50303000       0.00000000      11.76991000  F       0.03043300       0.04162100       0.07682200
Cu       5.00606000       0.00000000      11.76991000  F       0.04624200       0.08177100       0.07952300
Cu       7.50909000       0.00000000      11.76991000  F       0.01993800       0.08412700       0.07779400
Cu      10.01212000       0.00000000      11.76991000  F      -0.04240200       0.08914400       0.08372800
Cu       0.00000000       2.50303000      11.76991000  F      -0.06173300       0.05161900       0.08300300
Cu       2.50303000       2.50303000      11.76991000  F       0.07880900       0.02395300       0.06788100
Cu       5.00606000       2.50303000      11.76991000  F      -0.02954700      -0.01931100       0.06827800
Cu       7.50909000       2.50303000      11.76991000  F      -0.01176900      -0.02811500       0.07893700
Cu      10.01212000       2.50303000      11.76991000  F       0.06834900      -0.04644800       0.05894800
Cu       0.00000000       5.00606000      11.76991000  F      -0.08189800       0.00081600       0.05384400
Cu       2.50303000       5.00606000      11.76991000  F       0.09667900       0.00132400       0.11999100
Cu       5.00606000       5.00606000      11.76991000  F      -0.05924500       0.00208900       0.12386200
Cu       7.50909000       5.00606000      11.76991000  F      -0.03166800       0.00209500       0.08875500
Cu      10.01212000       5.00606000      11.76991000  F       0.05994600       0.00049900       0.06677800
Cu       0.00000000       7.50909000      11.76991000  F      -0.06148400      -0.05508000       0.08358400
Cu       2.50303000       7.50909000      11.76991000  F       0.07885800      -0.02647500       0.06879200
Cu       5.00606000       7.50909000      11.76991000  F      -0.02776400       0.01655000       0.06928300
Cu       7.50909000       7.50909000      11.76991000  F      -0.01253600       0.02422500       0.08006300
Cu      10.01212000       7.50909000      11.76991000  F       0.06954900       0.04453300       0.05895500
Cu       0.00000000      10.01212000      11.76991000  F      -0.00407100      -0.04776100       0.09880200
Cu       2.50303000      10.01212000      11.76991000  F       0.03179200      -0.04141700       0.07721800
Cu       5.00606000      10.01212000      11.76991000  F       0.04486200      -0.08003900       0.07930200
Cu       7.50909000      10.01212000      11.76991000  F       0.02074500      -0.08124100       0.07581100
Cu      10.01212000      10.01212000      11.76991000  F      -0.04336300      -0.08769400       0.08332500
Cu       1.26563000       1.24971000      13.57980000  T      -0.00060700       0.00369300      -0.00721400
Cu       3.78151000       1.26460000      13.60339000  T       0.00264800       0.00452700      -0.00414400
Cu       6.28529000       1.27617000      13.61072000  T       0.00045400       0.00386800      -0.00221000
Cu       8.76276000       1.28043000      13.61545000  T      -0.00613200       0.00878700       0.00175200
Cu      11.26003000       1.26241000      13.59932000  T      -0.00611900       0.00549900      -0.00265200
Cu       1.25802000       3.76494000      13.57987000  T       0.00115500       0.00181200      -0.00411200
Cu       3.75434000       3.75839000      13.61342000  T       0.00382200       0.00222700      -0.00494300
Cu       6.27155000       3.76151000      13.56919000  T       0.00363100       0.00190400      -0.00235800
Cu       8.74997000       3.76424000      13.55831000  T      -0.00212500       0.00373500       0.00283300
Cu      11.24174000       3.76379000      13.61141000  T      -0.00553800       0.00497400      -0.00041800
Cu       1.25807000       6.24700000      13.57980000  T       0.00123700      -0.00303000      -0.00445200
Cu       3.75499000       6.25411000      13.61305000  T       0.00385900      -0.00257700      -0.00458200
Cu       6.27216000       6.25061000      13.56948000  T       0.00356400      -0.00229600      -0.00249500
Cu       8.75030000       6.24780000      13.55817000  T      -0.00187500      -0.00380600       0.00259000
Cu      11.24201000       6.24794000      13.61078000  T      -0.00527200      -0.00479900       0.00001200
Cu       1.26596000       8.76159000      13.58001000  T      -0.00035100      -0.00371600      -0.00737000
Cu       3.78150000       8.74739000      13.60386000  T       0.00263100      -0.00426300      -0.00474600
Cu       6.28535000       8.73643000      13.61039000  T       0.00056600      -0.00475500      -0.00210300
Cu       8.76292000       8.73209000      13.61511000  T      -0.00623100      -0.00927600       0.00182100
Cu      11.26034000       8.74970000      13.59934000  T      -0.00628000      -0.00483600      -0.00353600
Cu       1.24758000      11.26361000      13.59650000  T       0.00193600       0.00035000      -0.00960600
Cu       3.74337000      11.26384000      13.57496000  T       0.00548700       0.00030500      -0.00915800
Cu       6.25279000      11.26413000      13.56670000  T       0.00300200       0.00008400      -0.00437200
Cu       8.76277000      11.26388000      13.57053000  T      -0.00407600      -0.00043000      -0.00673800
Cu      11.27120000      11.26384000      13.57911000  T      -0.00223200       0.00037800      -0.01005100
Cu      12.51013000       0.00595000      15.37335000  T       0.00100600      -0.00133400      -0.01511500
Cu       2.50734000      12.51782000      15.37075000  T      -0.00126000      -0.00106100      -0.01303300
Cu       5.00578000      12.48309000      15.35837000  T      -0.00116500       0.00275000      -0.01183600
Cu       7.50533000      12.49555000      15.34971000  T       0.00198200       0.00588100      -0.01010800
Cu      10.01173000      12.49580000      15.35833000  T       0.00120500       0.00271200      -0.01306400
Cu       0.05565000       2.49847000      15.35366000  T      -0.00616000       0.00021000      -0.01253100
Cu       2.52021000       2.49371000      15.37063000  T       0.00021300      -0.00139500      -0.00955400
Cu       5.00555000       2.41622000      15.45865000  T      -0.00918500      -0.00116400      -0.00893100
Cu       7.56229000       2.50850000      15.47501000  T      -0.00128200      -0.00524200      -0.01198400
Cu      10.10202000       2.45495000      15.45265000  T      -0.00810500       0.00138800      -0.01052800
Cu      12.47941000       5.00599000      15.35593000  T      -0.00563300      -0.00019000      -0.00606500
Cu       2.40963000       5.00659000      15.49462000  T       0.00207700      -0.00051800      -0.01377600
Pd       5.01705000       5.00611000      15.48301000  T      -0.00256500      -0.00029700      -0.00120300
Y        7.47539000       5.00589000      17.24811000  T      -0.00842600       0.00002300       0.01217600
Cu       9.97269000       5.00651000      15.45274000  T       0.00469000      -0.00000000      -0.00613600
Cu       0.05535000       7.51341000      15.35338000  T      -0.00607400       0.00065000      -0.01337200
Cu       2.52053000       7.51776000      15.37193000  T      -0.00030800       0.00165200      -0.01045200
Cu       5.00648000       7.59626000      15.45879000  T      -0.00884400       0.00034100      -0.00838600
Cu       7.56284000       7.50304000      15.47508000  T      -0.00116500       0.00515400      -0.01226400
Cu      10.10240000       7.55696000      15.45228000  T      -0.00848300      -0.00072000      -0.01034500
Cu      12.51033000      10.00705000      15.37278000  T       0.00183400       0.00267200      -0.01507400
Cu       2.50785000      10.00926000      15.37058000  T      -0.00034000       0.00188200      -0.01221000
Cu       5.00646000      10.04358000      15.35817000  T      -0.00112200      -0.00194100      -0.01314100
Cu       7.50557000      10.03023000      15.34956000  T       0.00216200      -0.00502100      -0.01038400
Cu      10.01167000      10.03063000      15.35826000  T       0.00213400      -0.00213200      -0.01354100
O        6.15780000       3.40006000      16.64773000  T       0.00640700      -0.00296600      -0.01096100
O        6.15802000       6.61151000      16.64775000  T       0.00677600       0.00260000      -0.01144000
O        8.99790000       6.43296000      16.55252000  T      -0.00651900      -0.00638600      -0.01528900
O        8.99761000       3.57937000      16.55211000  T      -0.00624100       0.00630900      -0.01613300
C        2.58132000       5.02036000      17.44273000  T      -0.01441600      -0.00038900      -0.00317200
O        1.40808000       5.04013000      18.15518000  T      -0.02627700      -0.00055900      -0.03038800
O        3.65343000       5.01024000      18.04103000  T      -0.02787600       0.00072900       0.00060300
H        1.66780000       5.04276000      19.11003000  T      -0.04169500      -0.00011300      -0.01345400
108
Lattice="12.515153631 0.0 0.0 0.0 12.515153631 0.0 0.0 0.0 25.30973" Properties=species:S:1:pos:R:3:move_mask:L:1:forces:R:3 stress="0.00810132904917745 3.214377199829878e-06 0.00023682782227251437 3.214377199829878e-06 0.008195213829448983 -2.683848924129801e-06 0.00023682782227251437 -2.683848924129801e-06 0.0022829380684469417" free_energy=-445.06735547 energy=-445.06759181 pbc="T T T"
Cu       1.25152000       1.25152000      10.00000000  F       0.00260500      -0.00213100      -0.06949000
Cu       3.75455000       1.25152000      10.00000000  F      -0.00056000       0.01591100      -0.06900400
Cu       6.25758000       1.25152000      10.00000000  F       0.00593100       0.01338300      -0.06830700
Cu       8.76061000       1.25152000      10.00000000  F      -0.00219200       0.00002200      -0.04426800
Cu      11.26364000       1.25152000      10.00000000  F      -0.00720300      -0.00826100      -0.07407200
Cu       1.25152000       3.75455000      10.00000000  F      -0.01093300       0.00547100      -0.06346700
Cu       3.75455000       3.75455000      10.00000000  F       0.01710300      -0.01904900      -0.04600000
Cu       6.25758000       3.75455000      10.00000000  F      -0.02098300      -0.01753000      -0.07931900
Cu       8.76061000       3.75455000      10.00000000  F       0.00847400      -0.01592100      -0.07768400
Cu      11.26364000       3.75455000      10.00000000  F       0.00884700       0.01028300      -0.05621700
Cu       1.25152000       6.25758000      10.00000000  F      -0.01150600      -0.00425800      -0.06518900
Cu       3.75455000       6.25758000      10.00000000  F       0.01846400       0.01952600      -0.04671100
Cu       6.25758000       6.25758000      10.00000000  F      -0.02106500       0.01928900      -0.08237900
Cu       8.76061000       6.25758000      10.00000000  F       0.00722700       0.01639400      -0.07832900
Cu      11.26364000       6.25758000      10.00000000  F       0.00934000      -0.00892600      -0.05762600
Cu       1.25152000       8.76061000      10.00000000  F       0.00270600      -0.00117800      -0.06826700
Cu       3.75455000       8.76061000      10.00000000  F      -0.00146500      -0.01842000      -0.06825200
Cu       6.25758000       8.76061000      10.00000000  F       0.00620500      -0.01754500      -0.06647500
Cu       8.76061000       8.76061000      10.00000000  F      -0.00171400      -0.00243100      -0.04327100
Cu      11.26364000       8.76061000      10.00000000  F      -0.00714900       0.00464400      -0.07291900
Cu       1.25152000      11.26364000      10.00000000  F       0.00265300       0.00175600      -0.01548300
Cu       3.75455000      11.26364000      10.00000000  F      -0.01199900       0.00175300      -0.06230600
Cu       6.25758000      11.26364000      10.00000000  F       0.00856800       0.00209500      -0.06587700
Cu       8.76061000      11.26364000      10.00000000  F      -0.00480200       0.00163700      -0.08347700
Cu      11.26364000      11.26364000      10.00000000  F       0.00057600       0.00195200      -0.05173400
Cu       0.00000000       0.00000000      11.76991000  F      -0.00592000       0.05091400       0.09235600
Cu       2.50303000       0.00000000      11.76991000  F       0.03109200       0.04284600       0.06856400
Cu       5.00606000       0.00000000      11.76991000  F       0.04724600       0.08334300       0.07174800
Cu       7.50909000       0.00000000      11.76991000  F       0.01999100       0.08639400       0.07099600
Cu      10.01212000       0.00000000      11.76991000  F      -0.04446200       0.09148800       0.07700600
Cu       0.00000000       2.50303000      11.76991000  F      -0.06344300       0.05349800       0.07664800
Cu       2.50303000       2.50303000      11.76991000  F       0.07967800       0.02541200       0.06022100
Cu       5.00606000       2.50303000      11.76991000  F      -0.02880300      -0.01778200       0.06115300
Cu       7.50909000       2.50303000      11.76991000  F      -0.01115600      -0.02643200       0.07266400
Cu      10.01212000       2.50303000      11.76991000  F       0.06632400      -0.04432900       0.05324100
Cu       0.00000000       5.00606000      11.76991000  F      -0.08326100       0.00075100       0.04824900
Cu       2.50303000       5.00606000      11.76991000  F       0.09778100       0.00126400       0.11287500
Cu       5.00606000       5.00606000      11.76991000  F      -0.05839300       0.00210900       0.11785200
Cu       7.50909000       5.00606000      11.76991000  F      -0.03061300       0.00203000       0.08337800
Cu      10.01212000       5.00606000      11.76991000  F       0.05779000       0.00049000       0.06126200
Cu       0.00000000       7.50909000      11.76991000  F      -0.06302100      -0.05709600       0.07721700
Cu       2.50303000       7.50909000      11.76991000  F       0.07977300      -0.02809800       0.06113100
Cu       5.00606000       7.50909000      11.76991000  F      -0.02704900       0.01494700       0.06216700
Cu       7.50909000       7.50909000      11.76991000  F      -0.01197800       0.02247900       0.07358700
Cu      10.01212000       7.50909000      11.76991000  F       0.06755400       0.04237200       0.05300500
Cu       0.00000000      10.01212000      11.76991000  F      -0.00492700      -0.04936800       0.09054000
Cu       2.50303000      10.01212000      11.76991000  F       0.03244400      -0.04251000       0.06895700
Cu       5.00606000      10.01212000      11.76991000  F       0.04594400      -0.08158800       0.07166600
Cu       7.50909000      10.01212000      11.76991000  F       0.02065300      -0.08357400       0.06906700
Cu      10.01212000      10.01212000      11.76991000  F      -0.04548900      -0.08986800       0.07646400
Cu       1.26554000       1.25033000      13.57768000  T      -0.00133900       0.00094000      -0.00235400
Cu       3.78190000       1.26529000      13.60174000  T      -0.00124200       0.00086000      -0.00265900
Cu       6.28521000       1.27677000      13.60952000  T      -0.00142500       0.00117300      -0.00173600
Cu       8.76187000       1.28165000      13.61466000  T      -0.00178800       0.00212300      -0.00184600
Cu      11.25914000       1.26322000      13.59771000  T      -0.00283500       0.00182700      -0.00180600
Cu       1.25833000       3.76522000      13.57837000  T      -0.00135800       0.00014800      -0.00077600
Cu       3.75491000       3.75874000      13.61219000  T       0.00036600       0.00040200      -0.00332600
Cu       6.27197000       3.76165000      13.56827000  T       0.00120100       0.00125600      -0.00165900
Cu       8.74964000       3.76473000      13.55828000  T      -0.00140700       0.00264100      -0.00147900
Cu      11.24096000       3.76437000      13.61045000  T      -0.00189400       0.00138900      -0.00127600
Cu       1.25840000       6.24655000      13.57828000  T      -0.00137400      -0.00083700      -0.00088400
Cu       3.75557000       6.25374000      13.61186000  T       0.00045000      -0.00070200      -0.00319100
Cu       6.27260000       6.25041000      13.56854000  T       0.00117100      -0.00177200      -0.00172900
Cu       8.75001000       6.24732000      13.55810000  T      -0.00120900      -0.00292600      -0.00151900
Cu      11.24127000       6.24739000      13.60984000  T      -0.00179600      -0.00119900      -0.00082400
Cu       1.26591000       8.76095000      13.57785000  T      -0.00122600      -0.00068800      -0.00247000
Cu       3.78188000       8.74673000      13.60214000  T      -0.00107200      -0.00066000      -0.00278800
Cu       6.28528000       8.73571000      13.60918000  T      -0.00138400      -0.00136700      -0.00162100
Cu       8.76201000       8.73081000      13.61430000  T      -0.00173800      -0.00225700      -0.00171300
Cu      11.25945000       8.74897000      13.59758000  T      -0.00271600      -0.00124900      -0.00182100
Cu       1.24789000      11.26364000      13.59390000  T       0.00083000       0.00023300      -0.00395900
Cu       3.74423000      11.26389000      13.57272000  T       0.00138000       0.00030900      -0.00340900
Cu       6.25317000      11.26415000      13.56504000  T       0.00155700       0.00009400      -0.00011900
Cu       8.76227000      11.26384000      13.56858000  T      -0.00058800      -0.00009600      -0.00147400
Cu      11.27089000      11.26391000      13.57660000  T      -0.00050200       0.00033800      -0.00391000
Cu      12.51024000       0.00596000      15.36918000  T       0.00054300      -0.00105800      -0.00882700
Cu       2.50729000      12.51778000      15.36684000  T      -0.00070700      -0.00078000      -0.00582000
Cu       5.00578000      12.48337000      15.35544000  T      -0.00088800       0.00047000      -0.00555100
Cu       7.50556000      12.49625000      15.34692000  T       0.00074400       0.00035800      -0.00349400
Cu      10.01184000      12.49599000      15.35482000  T       0.00073900       0.00096500      -0.00569500
Cu       0.05483000       2.49858000      15.35052000  T      -0.00436000      -0.00028500      -0.00583500
Cu       2.52008000       2.49364000      15.36801000  T      -0.00333200      -0.00090500      -0.00430500
Cu       5.00461000       2.41633000      15.45667000  T      -0.00532800       0.00043100      -0.00275700
Cu       7.56116000       2.50891000      15.47344000  T      -0.00029100      -0.00571500      -0.00861600
Cu      10.10070000       2.45523000      15.45033000  T      -0.00422100       0.00071000      -0.00401000
Cu      12.47919000       5.00597000      15.35360000  T      -0.00098100       0.00005800       0.00013300
Cu       2.41039000       5.00653000      15.49243000  T      -0.00126300      -0.00036600      -0.00817300
Pd       5.01763000       5.00607000      15.48124000  T       0.00219200      -0.00035300      -0.00978500
Y        7.47445000       5.00584000      17.24775000  T      -0.00591500      -0.00037700       0.00048300
Cu       9.97249000       5.00658000      15.45187000  T       0.00591100       0.00008800      -0.00441300
Cu       0.05450000       7.51341000      15.35006000  T      -0.00443600       0.00110400      -0.00616000
Cu       2.52027000       7.51790000      15.36917000  T      -0.00342800       0.00106900      -0.00554600
Cu       5.00556000       7.59606000      15.45689000  T      -0.00524800      -0.00060900      -0.00276800
Cu       7.56172000       7.50256000      15.47347000  T      -0.00045600       0.00566800      -0.00891800
Cu      10.10101000       7.55677000      15.44994000  T      -0.00455700      -0.00053900      -0.00404500
Cu      12.51059000      10.00730000      15.36858000  T       0.00128300       0.00148100      -0.00790200
Cu       2.50797000      10.00947000      15.36674000  T      -0.00035100       0.00089100      -0.00594900
Cu       5.00652000      10.04334000      15.35503000  T      -0.00096400      -0.00013200      -0.00607600
Cu       7.50584000      10.02956000      15.34672000  T       0.00093400       0.00048000      -0.00361200
Cu      10.01190000      10.03048000      15.35467000  T       0.00140600      -0.00046800      -0.00628700
O        6.15744000       3.40008000      16.64603000  T       0.00177300      -0.00120600      -0.00570600
O        6.15769000       6.61135000      16.64600000  T       0.00200600       0.00102100      -0.00581600
O        8.99650000       6.43246000      16.55024000  T      -0.00465400      -0.00524900      -0.00816000
O        8.99628000       3.57995000      16.54969000  T      -0.00461500       0.00510000      -0.00823600
C        2.57743000       5.02030000      17.44099000  T      -0.01623600      -0.00016600      -0.00948900
O        1.40226000       5.04000000      18.15029000  T      -0.02664900      -0.00011600      -0.01890100
O        3.64798000       5.01039000      18.04173000  T      -0.02014200       0.00042000       0.00445800
H        1.65934000       5.04275000      19.10603000  T      -0.04345100      -0.00012800      -0.01976200
108
Lattice="12.515153631 0.0 0.0 0.0 12.515153631 0.0 0.0 0.0 25.30973" Properties=species:S:1:pos:R:3:move_mask:L:1:forces:R:3 stress="0.008078222982393428 3.2331017272075278e-06 0.00023132281122348534 3.2331017272075278e-06 0.008167220661019398 -2.7212979788851005e-06 0.00023132281122348534 -2.7212979788851005e-06 0.0022389541536368424" free_energy=-445.06447347 energy=-445.06469932 pbc="T T T"
Cu       1.25152000       1.25152000      10.00000000  F       0.00225800      -0.00251400      -0.06981400
Cu       3.75455000       1.25152000      10.00000000  F      -0.00047600       0.01561000      -0.06949800
Cu       6.25758000       1.25152000      10.00000000  F       0.00636200       0.01310900      -0.06846500
Cu       8.76061000       1.25152000      10.00000000  F      -0.00201300      -0.00030700      -0.04405100
Cu      11.26364000       1.25152000      10.00000000  F      -0.00749900      -0.00860800      -0.07412600
Cu       1.25152000       3.75455000      10.00000000  F      -0.01123300       0.00531000      -0.06390100
Cu       3.75455000       3.75455000      10.00000000  F       0.01725000      -0.01919300      -0.04648000
Cu       6.25758000       3.75455000      10.00000000  F      -0.02055500      -0.01759400      -0.07954600
Cu       8.76061000       3.75455000      10.00000000  F       0.00860300      -0.01600000      -0.07765900
Cu      11.26364000       3.75455000      10.00000000  F       0.00849400       0.01011000      -0.05636300
Cu       1.25152000       6.25758000      10.00000000  F      -0.01178100      -0.00399500      -0.06558100
Cu       3.75455000       6.25758000      10.00000000  F       0.01862400       0.01979500      -0.04704300
Cu       6.25758000       6.25758000      10.00000000  F      -0.02064700       0.01948100      -0.08248000
Cu       8.76061000       6.25758000      10.00000000  F       0.00733200       0.01657000      -0.07833000
Cu      11.26364000       6.25758000      10.00000000  F       0.00897800      -0.00871800      -0.05777200
Cu       1.25152000       8.76061000      10.00000000  F       0.00241500      -0.00082100      -0.06855100
Cu       3.75455000       8.76061000      10.00000000  F      -0.00134800      -0.01816600      -0.06850900
Cu       6.25758000       8.76061000      10.00000000  F       0.00660000      -0.01731100      -0.06642800
Cu       8.76061000       8.76061000      10.00000000  F      -0.00158500      -0.00214100      -0.04301500
Cu      11.26364000       8.76061000      10.00000000  F      -0.00743300       0.00498600      -0.07295700
Cu       1.25152000      11.26364000      10.00000000  F       0.00228000       0.00169600      -0.01572900
Cu       3.75455000      11.26364000      10.00000000  F      -0.01196500       0.00167500      -0.06253900
Cu       6.25758000      11.26364000      10.00000000  F       0.00902900       0.00201800      -0.06572900
Cu       8.76061000      11.26364000      10.00000000  F      -0.00461000       0.00158500      -0.08316900
Cu      11.26364000      11.26364000      10.00000000  F       0.00031600       0.00193100      -0.05170400
Cu       0.00000000       0.00000000      11.76991000  F      -0.00659600       0.05144800       0.08997900
Cu       2.50303000       0.00000000      11.76991000  F       0.03126500       0.04313800       0.06606300
Cu       5.00606000       0.00000000      11.76991000  F       0.04823300       0.08347100       0.06988100
Cu       7.50909000       0.00000000      11.76991000  F       0.02010100       0.08667000       0.06947300
Cu      10.01212000       0.00000000      11.76991000  F      -0.04548500       0.09191700       0.07503800
Cu       0.00000000       2.50303000      11.76991000  F      -0.06438200       0.05378200       0.07497500
Cu       2.50303000       2.50303000      11.76991000  F       0.07961900       0.02564000       0.05812800
Cu       5.00606000       2.50303000      11.76991000  F      -0.02813600      -0.01765800       0.05920000
Cu       7.50909000       2.50303000      11.76991000  F      -0.01097000      -0.02626900       0.07083100
Cu      10.01212000       2.50303000      11.76991000  F       0.06537900      -0.04379300       0.05158400
Cu       0.00000000       5.00606000      11.76991000  F      -0.08392000       0.00075300       0.04682300
Cu       2.50303000       5.00606000      11.76991000  F       0.09760200       0.00121300       0.11123700
Cu       5.00606000       5.00606000      11.76991000  F      -0.05769300       0.00204900       0.11584700
Cu       7.50909000       5.00606000      11.76991000  F      -0.03035800       0.00196800       0.08093400
Cu      10.01212000       5.00606000      11.76991000  F       0.05717100       0.00051600       0.05925200
Cu       0.00000000       7.50909000      11.76991000  F      -0.06397500      -0.05741700       0.07563300
Cu       2.50303000       7.50909000      11.76991000  F       0.07969700      -0.02842300       0.05910900
Cu       5.00606000       7.50909000      11.76991000  F      -0.02635600       0.01474700       0.06021300
Cu       7.50909000       7.50909000      11.76991000  F      -0.01176400       0.02227000       0.07178100
Cu      10.01212000       7.50909000      11.76991000  F       0.06669100       0.04186000       0.05140300
Cu       0.00000000      10.01212000      11.76991000  F      -0.00560200      -0.04977100       0.08815200
Cu       2.50303000      10.01212000      11.76991000  F       0.03261700      -0.04266400       0.06647600
Cu       5.00606000      10.01212000      11.76991000  F       0.04697200      -0.08161400       0.06985000
Cu       7.50909000      10.01212000      11.76991000  F       0.02074400      -0.08388300       0.06759900
Cu      10.01212000      10.01212000      11.76991000  F      -0.04649300      -0.09024600       0.07451200
Cu       1.26539000       1.25052000      13.57706000  T      -0.00135200       0.00016900      -0.00204900
Cu       3.78183000       1.26549000      13.60117000  T      -0.00122300       0.00006700      -0.00204700
Cu       6.28502000       1.27697000      13.60912000  T      -0.00119400      -0.00000700      -0.00159900
Cu       8.76156000       1.28202000      13.61427000  T      -0.00096500       0.00013600      -0.00255800
Cu      11.25871000       1.26353000      13.59720000  T      -0.00214800       0.00067600      -0.00216200
Cu       1.25824000       3.76527000      13.57802000  T      -0.00159300      -0.00029000      -0.00117600
Cu       3.75503000       3.75882000      13.61167000  T      -0.00026900      -0.00053000      -0.00237700
Cu       6.27214000       3.76177000      13.56795000  T       0.00079200      -0.00015100      -0.00159400
Cu       8.74945000       3.76505000      13.55814000  T      -0.00065800       0.00089400      -0.00129800
Cu      11.24067000       3.76459000      13.61014000  T      -0.00104800       0.00053500      -0.00138300
Cu       1.25832000       6.24640000      13.57792000  T      -0.00164600      -0.00007500      -0.00118600
Cu       3.75570000       6.25362000      13.61135000  T      -0.00021000       0.00032800      -0.00237900
Cu       6.27277000       6.25023000      13.56821000  T       0.00082800      -0.00024700      -0.00166400
Cu       8.74985000       6.24696000      13.55794000  T      -0.00055600      -0.00112400      -0.00133100
Cu      11.24100000       6.24720000      13.60958000  T      -0.00100600      -0.00022300      -0.00116700
Cu       1.26577000       8.76077000      13.57721000  T      -0.00136700       0.00003200      -0.00226200
Cu       3.78182000       8.74655000      13.60155000  T      -0.00104900       0.00005500      -0.00224300
Cu       6.28510000       8.73547000      13.60880000  T      -0.00112200      -0.00010100      -0.00155300
Cu       8.76170000       8.73042000      13.61391000  T      -0.00096300      -0.00018600      -0.00248200
Cu      11.25903000       8.74874000      13.59705000  T      -0.00199100      -0.00019900      -0.00208900
Cu       1.24806000      11.26367000      13.59302000  T       0.00064300       0.00009500      -0.00326100
Cu       3.74452000      11.26393000      13.57199000  T       0.00105400       0.00019000      -0.00241900
Cu       6.25340000      11.26417000      13.56473000  T       0.00125200       0.00007700      -0.00070300
Cu       8.76215000      11.26383000      13.56808000  T       0.00016300       0.00003700      -0.00130900
Cu      11.27080000      11.26395000      13.57576000  T      -0.00046800       0.00022800      -0.00300300
Cu      12.51033000       0.00587000      15.36759000  T       0.00001600      -0.00056000      -0.00589800
Cu       2.50725000      12.51771000      15.36559000  T      -0.00010600      -0.00050700      -0.00380400
Cu       5.00571000      12.48347000      15.35442000  T      -0.00011400       0.00017100      -0.00349400
Cu       7.50567000      12.49636000      15.34612000  T       0.00061800      -0.00055500      -0.00239200
Cu      10.01194000      12.49611000      15.35367000  T       0.00024600       0.00041800      -0.00391100
Cu       0.05423000       2.49857000      15.34943000  T      -0.00385000      -0.00050300      -0.00338600
Cu       2.51967000       2.49356000      15.36717000  T      -0.00342500      -0.00070500      -0.00259200
Cu       5.00392000       2.41642000      15.45608000  T      -0.00328200       0.00014600      -0.00176700
Cu       7.56083000       2.50847000      15.47237000  T      -0.00153900      -0.00282700      -0.00491300
Cu      10.10004000       2.45536000      15.44956000  T      -0.00328100       0.00050300      -0.00255000
Cu      12.47914000       5.00597000      15.35326000  T       0.00036500       0.00011400       0.00068800
Cu       2.41049000       5.00648000      15.49120000  T       0.00009900      -0.00031300      -0.00714700
Pd       5.01783000       5.00603000      15.48034000  T      -0.00036700       0.00004900       0.00259700
Y        7.47368000       5.00580000      17.24758000  T      -0.00348200      -0.00003700      -0.00229400
Cu       9.97303000       5.00660000      15.45134000  T       0.00318300       0.00008600      -0.00202300
Cu       0.05389000       7.51353000      15.34891000  T      -0.00394200       0.00110300      -0.00351200
Cu       2.51983000       7.51800000      15.36816000  T      -0.00352600       0.00066100      -0.00359100
Cu       5.00489000       7.59593000      15.45631000  T      -0.00340100      -0.00028000      -0.00182600
Cu       7.56137000       7.50297000      15.47237000  T      -0.00167900       0.00276900      -0.00496700
Cu      10.10029000       7.55666000      15.44917000  T      -0.00357700      -0.00022000      -0.00255300
Cu      12.51078000      10.00747000      15.36709000  T       0.00059500       0.00095300      -0.00521200
Cu       2.50800000      10.00958000      15.36550000  T       0.00009500       0.00050600      -0.00381300
Cu       5.00646000      10.04329000      15.35391000  T      -0.00005300       0.00001900      -0.00387500
Cu       7.50597000      10.02955000      15.34591000  T       0.00084100       0.00109400      -0.00249200
Cu      10.01209000      10.03042000      15.35346000  T       0.00074000      -0.00001700      -0.00412400
O        6.15739000       3.40000000      16.64508000  T      -0.00068400      -0.00147000      -0.00590300
O        6.15768000       6.61139000      16.64503000  T      -0.00048900       0.00107800      -0.00593700
O        8.99567000       6.43187000      16.54892000  T      -0.00502400      -0.00342300      -0.00816400
O        8.99547000       3.58055000      16.54835000  T      -0.00502500       0.00319100      -0.00801300
C        2.57493000       5.02028000      17.43976000  T      -0.01802800       0.00016000      -0.00707800
O        1.39822000       5.03994000      18.14691000  T      -0.02360000      -0.00051300      -0.02992500
O        3.64441000       5.01047000      18.04224000  T      -0.02257400       0.00042100       0.00401500
H        1.65300000       5.04274000      19.10316000  T      -0.04141200      -0.00010400      -0.01738500
108
Lattice="12.515153631 0.0 0.0 0.0 12.515153631 0.0 0.0 0.0 25.30973" Properties=species:S:1:pos:R:3:move_mask:L:1:forces:R:3 stress="0.00812267501038797 3.201894181578111e-06 0.00023040530938198044 3.201894181578111e-06 0.008222114733781542 -2.590226287241552e-06 0.00023040530938198044 -2.590226287241552e-06 0.0022914265208581427" free_energy=-445.06213986 energy=-445.06237325 pbc="T T T"
Cu       1.25152000       1.25152000      10.00000000  F       0.00236900      -0.00242700      -0.06946400
Cu       3.75455000       1.25152000      10.00000000  F      -0.00044100       0.01567700      -0.06911700
Cu       6.25758000       1.25152000      10.00000000  F       0.00632000       0.01320300      -0.06808200
Cu       8.76061000       1.25152000      10.00000000  F      -0.00197900      -0.00025900      -0.04378100
Cu      11.26364000       1.25152000      10.00000000  F      -0.00746400      -0.00854300      -0.07382300
Cu       1.25152000       3.75455000      10.00000000  F      -0.01115500       0.00543100      -0.06342700
Cu       3.75455000       3.75455000      10.00000000  F       0.01730800      -0.01904300      -0.04600100
Cu       6.25758000       3.75455000      10.00000000  F      -0.02059100      -0.01743300      -0.07914900
Cu       8.76061000       3.75455000      10.00000000  F       0.00858200      -0.01590300      -0.07725700
Cu      11.26364000       3.75455000      10.00000000  F       0.00858900       0.01018900      -0.05605100
Cu       1.25152000       6.25758000      10.00000000  F      -0.01169300      -0.00401700      -0.06509500
Cu       3.75455000       6.25758000      10.00000000  F       0.01868000       0.01974700      -0.04654500
Cu       6.25758000       6.25758000      10.00000000  F      -0.02070800       0.01941200      -0.08203400
Cu       8.76061000       6.25758000      10.00000000  F       0.00730200       0.01654500      -0.07788000
Cu      11.26364000       6.25758000      10.00000000  F       0.00909500      -0.00871700      -0.05744700
Cu       1.25152000       8.76061000      10.00000000  F       0.00253600      -0.00091100      -0.06814800
Cu       3.75455000       8.76061000      10.00000000  F      -0.00131600      -0.01823900      -0.06806200
Cu       6.25758000       8.76061000      10.00000000  F       0.00655300      -0.01740400      -0.06601000
Cu       8.76061000       8.76061000      10.00000000  F      -0.00155700      -0.00217100      -0.04274800
Cu      11.26364000       8.76061000      10.00000000  F      -0.00739300       0.00493000      -0.07264400
Cu       1.25152000      11.26364000      10.00000000  F       0.00240500       0.00167100      -0.01534700
Cu       3.75455000      11.26364000      10.00000000  F      -0.01196300       0.00164800      -0.06226800
Cu       6.25758000      11.26364000      10.00000000  F       0.00901200       0.00199800      -0.06550200
Cu       8.76061000      11.26364000      10.00000000  F      -0.00455800       0.00157300      -0.08294600
Cu      11.26364000      11.26364000      10.00000000  F       0.00032800       0.00191700      -0.05135200
Cu       0.00000000       0.00000000      11.76991000  F      -0.00635100       0.05117200       0.09109700
Cu       2.50303000       0.00000000      11.76991000  F       0.03118300       0.04307000       0.06745600
Cu       5.00606000       0.00000000      11.76991000  F       0.04778100       0.08366200       0.07116700
Cu       7.50909000       0.00000000      11.76991000  F       0.02022200       0.08680900       0.07061500
Cu      10.01212000       0.00000000      11.76991000  F      -0.04507200       0.09185700       0.07636600
Cu       0.00000000       2.50303000      11.76991000  F      -0.06378600       0.05379300       0.07610300
Cu       2.50303000       2.50303000      11.76991000  F       0.08014000       0.02574600       0.05962700
Cu       5.00606000       2.50303000      11.76991000  F      -0.02823100      -0.01710400       0.06102100
Cu       7.50909000       2.50303000      11.76991000  F      -0.01112500      -0.02596900       0.07259300
Cu      10.01212000       2.50303000      11.76991000  F       0.06569400      -0.04415900       0.05273200
Cu       0.00000000       5.00606000      11.76991000  F      -0.08352100       0.00081000       0.04801800
Cu       2.50303000       5.00606000      11.76991000  F       0.09845500       0.00131400       0.11247800
Cu       5.00606000       5.00606000      11.76991000  F      -0.05790400       0.00217600       0.11784800
Cu       7.50909000       5.00606000      11.76991000  F      -0.03082500       0.00209900       0.08329300
Cu      10.01212000       5.00606000      11.76991000  F       0.05724900       0.00055900       0.06072400
Cu       0.00000000       7.50909000      11.76991000  F      -0.06333500      -0.05736600       0.07679000
Cu       2.50303000       7.50909000      11.76991000  F       0.08022200      -0.02838700       0.06062800
Cu       5.00606000       7.50909000      11.76991000  F      -0.02652300       0.01432100       0.06205300
Cu       7.50909000       7.50909000      11.76991000  F      -0.01195300       0.02205700       0.07349500
Cu      10.01212000       7.50909000      11.76991000  F       0.06694500       0.04220700       0.05249500
Cu       0.00000000      10.01212000      11.76991000  F      -0.00533100      -0.04969200       0.08937100
Cu       2.50303000      10.01212000      11.76991000  F       0.03249800      -0.04278200       0.06795100
Cu       5.00606000      10.01212000      11.76991000  F       0.04646600      -0.08194300       0.07114100
Cu       7.50909000      10.01212000      11.76991000  F       0.02085700      -0.08405400       0.06869800
Cu      10.01212000      10.01212000      11.76991000  F      -0.04607800      -0.09028100       0.07580900
Cu       1.26551000       1.25045000      13.57724000  T      -0.00109200       0.00075000      -0.00071600
Cu       3.78189000       1.26546000      13.60138000  T      -0.00076100       0.00053700      -0.00125700
Cu       6.28516000       1.27696000      13.60931000  T      -0.00140300       0.00084200      -0.00077500
Cu       8.76176000       1.28195000      13.61459000  T      -0.00159700       0.00097000      -0.00231400
Cu      11.25906000       1.26336000      13.59742000  T      -0.00311500       0.00149200      -0.00115200
Cu       1.25842000       3.76528000      13.57813000  T      -0.00126300       0.00010000       0.00037100
Cu       3.75498000       3.75893000      13.61204000  T       0.00272600       0.00196500       0.00083100
Cu       6.27190000       3.76184000      13.56827000  T      -0.00090200       0.00341900       0.00227500
Cu       8.74956000       3.76489000      13.55831000  T      -0.00202000       0.00234200      -0.00227100
Cu      11.24083000       3.76447000      13.61029000  T      -0.00180000       0.00086100      -0.00116400
Cu       1.25851000       6.24644000      13.57804000  T      -0.00129900      -0.00058100       0.00026400
Cu       3.75565000       6.25355000      13.61174000  T       0.00256100      -0.00195800       0.00055700
Cu       6.27254000       6.25023000      13.56856000  T      -0.00086900      -0.00406500       0.00174100
Cu       8.74993000       6.24716000      13.55815000  T      -0.00178500      -0.00278100      -0.00258900
Cu      11.24114000       6.24727000      13.60971000  T      -0.00159900      -0.00052100      -0.00089800
Cu       1.26589000       8.76082000      13.57744000  T      -0.00104800      -0.00051200      -0.00110200
Cu       3.78187000       8.74656000      13.60181000  T      -0.00063800      -0.00035800      -0.00167800
Cu       6.28524000       8.73549000      13.60902000  T      -0.00143900      -0.00089800      -0.00112400
Cu       8.76189000       8.73048000      13.61426000  T      -0.00157800      -0.00103000      -0.00254100
Cu      11.25934000       8.74883000      13.59728000  T      -0.00277200      -0.00088400      -0.00129000
Cu       1.24783000      11.26366000      13.59337000  T       0.00112100       0.00010300      -0.00242200
Cu       3.74418000      11.26390000      13.57224000  T       0.00222200       0.00028000      -0.00124300
Cu       6.25315000      11.26415000      13.56476000  T       0.00183000       0.00011700       0.00141200
Cu       8.76218000      11.26382000      13.56822000  T      -0.00074800       0.00001800      -0.00007800
Cu      11.27088000      11.26392000      13.57610000  T      -0.00109500       0.00032700      -0.00251900
Cu      12.51025000       0.00596000      15.36851000  T       0.00059600      -0.00101600      -0.00925500
Cu       2.50715000      12.51780000      15.36623000  T      -0.00015300      -0.00069400      -0.00628600
Cu       5.00566000      12.48345000      15.35501000  T      -0.00074900       0.00016800      -0.00617400
Cu       7.50556000      12.49643000      15.34652000  T       0.00058600      -0.00083700      -0.00394100
Cu      10.01189000      12.49603000      15.35427000  T       0.00057800       0.00067500      -0.00603200
Cu       0.05482000       2.49866000      15.34997000  T      -0.00450700      -0.00080900      -0.00580900
Cu       2.52013000       2.49371000      15.36760000  T      -0.00376600      -0.00086600      -0.00424600
Cu       5.00439000       2.41643000      15.45637000  T      -0.00579000      -0.00005100      -0.00399000
Cu       7.56109000       2.50894000      15.47318000  T      -0.00085700      -0.00740300      -0.01066300
Cu      10.10057000       2.45529000      15.44997000  T      -0.00311900       0.00000200      -0.00387900
Cu      12.47907000       5.00596000      15.35313000  T      -0.00018000       0.00000900       0.00093700
Cu       2.41034000       5.00653000      15.49227000  T      -0.00099400      -0.00050300      -0.01224700
Pd       5.01697000       5.00617000      15.48359000  T       0.00653800      -0.00308000      -0.05683600
Y        7.47422000       5.00584000      17.24772000  T      -0.01252700      -0.00093800      -0.00029400
Cu       9.97249000       5.00660000      15.45166000  T       0.00793600      -0.00006400      -0.00603900
Cu       0.05448000       7.51333000      15.34948000  T      -0.00450000       0.00166800      -0.00602400
Cu       2.52033000       7.51786000      15.36877000  T      -0.00384700       0.00097100      -0.00578600
Cu       5.00540000       7.59594000      15.45662000  T      -0.00647900       0.00096700      -0.00448400
Cu       7.56165000       7.50251000      15.47321000  T      -0.00089400       0.00762800      -0.01128700
Cu      10.10085000       7.55668000      15.44960000  T      -0.00296800       0.00068900      -0.00422100
Cu      12.51060000      10.00731000      15.36791000  T       0.00157100       0.00157100      -0.00806600
Cu       2.50786000      10.00948000      15.36614000  T      -0.00001100       0.00098300      -0.00629100
Cu       5.00640000      10.04325000      15.35457000  T      -0.00085300       0.00034400      -0.00668600
Cu       7.50583000      10.02935000      15.34633000  T       0.00079400       0.00210800      -0.00392200
Cu      10.01195000      10.03042000      15.35410000  T       0.00139200       0.00003900      -0.00641700
O        6.15750000       3.40013000      16.64543000  T       0.00130900      -0.00091900       0.00085000
O        6.15780000       6.61134000      16.64535000  T       0.00182200       0.00058700       0.00186800
O        8.99607000       6.43216000      16.54947000  T      -0.00438000      -0.00456300      -0.00106900
O        8.99588000       3.58034000      16.54893000  T      -0.00408200       0.00393900      -0.00169700
C        2.57705000       5.02026000      17.44041000  T      -0.00764100      -0.00000500      -0.01251800
O        1.40134000       5.03995000      18.14805000  T      -0.04335800      -0.00018100      -0.01823100
O        3.64735000       5.01045000      18.04176000  T      -0.02375900       0.00041300       0.00513300
H        1.65556000       5.04276000      19.10419000  T      -0.03528300      -0.00015600      -0.00609800
108
Lattice="12.515153631 0.0 0.0 0.0 12.515153631 0.0 0.0 0.0 25.30973" Properties=species:S:1:pos:R:3:move_mask:L:1:forces:R:3 stress="0.008046678395271215 3.2955168184663605e-06 0.00022730952085554237 3.2955168184663605e-06 0.008137573492671453 -2.278150830947389e-06 0.00022730952085554237 -2.278150830947389e-06 0.0022005314234579054" free_energy=-445.06330718 energy=-445.06353053 pbc="T T T"
Cu       1.25152000       1.25152000      10.00000000  F       0.00334000      -0.00199400      -0.06872700
Cu       3.75455000       1.25152000      10.00000000  F      -0.00022600       0.01604700      -0.06820700
Cu       6.25758000       1.25152000      10.00000000  F       0.00574800       0.01344300      -0.06754900
Cu       8.76061000       1.25152000      10.00000000  F      -0.00227000       0.00009300      -0.04359700
Cu      11.26364000       1.25152000      10.00000000  F      -0.00670200      -0.00809300      -0.07362900
Cu       1.25152000       3.75455000      10.00000000  F      -0.01022400       0.00559500      -0.06256400
Cu       3.75455000       3.75455000      10.00000000  F       0.01742600      -0.01896200      -0.04495900
Cu       6.25758000       3.75455000      10.00000000  F      -0.02118200      -0.01737900      -0.07844200
Cu       8.76061000       3.75455000      10.00000000  F       0.00846800      -0.01571500      -0.07708500
Cu      11.26364000       3.75455000      10.00000000  F       0.00930400       0.01041300      -0.05558000
Cu       1.25152000       6.25758000      10.00000000  F      -0.01076500      -0.00428200      -0.06425400
Cu       3.75455000       6.25758000      10.00000000  F       0.01879900       0.01956400      -0.04553600
Cu       6.25758000       6.25758000      10.00000000  F      -0.02128700       0.01927000      -0.08135800
Cu       8.76061000       6.25758000      10.00000000  F       0.00719300       0.01629000      -0.07770200
Cu      11.26364000       6.25758000      10.00000000  F       0.00979600      -0.00902200      -0.05698200
Cu       1.25152000       8.76061000      10.00000000  F       0.00349400      -0.00136100      -0.06748900
Cu       3.75455000       8.76061000      10.00000000  F      -0.00109000      -0.01862200      -0.06722900
Cu       6.25758000       8.76061000      10.00000000  F       0.00599500      -0.01766700      -0.06550200
Cu       8.76061000       8.76061000      10.00000000  F      -0.00183800      -0.00255400      -0.04256300
Cu      11.26364000       8.76061000      10.00000000  F      -0.00665400       0.00445100      -0.07248000
Cu       1.25152000      11.26364000      10.00000000  F       0.00340900       0.00168500      -0.01484400
Cu       3.75455000      11.26364000      10.00000000  F      -0.01166900       0.00165900      -0.06134900
Cu       6.25758000      11.26364000      10.00000000  F       0.00846700       0.00200100      -0.06490300
Cu       8.76061000      11.26364000      10.00000000  F      -0.00494200       0.00156300      -0.08290500
Cu      11.26364000      11.26364000      10.00000000  F       0.00101400       0.00191400      -0.05130100
Cu       0.00000000       0.00000000      11.76991000  F      -0.00554900       0.05219900       0.08947200
Cu       2.50303000       0.00000000      11.76991000  F       0.03225100       0.04372100       0.06553400
Cu       5.00606000       0.00000000      11.76991000  F       0.04813500       0.08377000       0.06978700
Cu       7.50909000       0.00000000      11.76991000  F       0.01911300       0.08694700       0.06940500
Cu      10.01212000       0.00000000      11.76991000  F      -0.04561600       0.09244200       0.07452600
Cu       0.00000000       2.50303000      11.76991000  F      -0.06358000       0.05470300       0.07482100
Cu       2.50303000       2.50303000      11.76991000  F       0.08014600       0.02643300       0.05801600
Cu       5.00606000       2.50303000      11.76991000  F      -0.02855700      -0.01714800       0.05914200
Cu       7.50909000       2.50303000      11.76991000  F      -0.01186700      -0.02568800       0.07080100
Cu      10.01212000       2.50303000      11.76991000  F       0.06544300      -0.04268200       0.05151100
Cu       0.00000000       5.00606000      11.76991000  F      -0.08305100       0.00075100       0.04692600
Cu       2.50303000       5.00606000      11.76991000  F       0.09795500       0.00117100       0.11156800
Cu       5.00606000       5.00606000      11.76991000  F      -0.05807500       0.00199700       0.11585200
Cu       7.50909000       5.00606000      11.76991000  F      -0.03112900       0.00191300       0.08078400
Cu      10.01212000       5.00606000      11.76991000  F       0.05755000       0.00052900       0.05923700
Cu       0.00000000       7.50909000      11.76991000  F      -0.06318900      -0.05835000       0.07553700
Cu       2.50303000       7.50909000      11.76991000  F       0.08021300      -0.02927900       0.05904300
Cu       5.00606000       7.50909000      11.76991000  F      -0.02673800       0.01416500       0.06016100
Cu       7.50909000       7.50909000      11.76991000  F      -0.01263900       0.02162900       0.07179100
Cu      10.01212000       7.50909000      11.76991000  F       0.06679500       0.04076500       0.05140200
Cu       0.00000000      10.01212000      11.76991000  F      -0.00457100      -0.05043300       0.08761600
Cu       2.50303000      10.01212000      11.76991000  F       0.03361400      -0.04317400       0.06593500
Cu       5.00606000      10.01212000      11.76991000  F       0.04690800      -0.08185800       0.06975600
Cu       7.50909000      10.01212000      11.76991000  F       0.01976200      -0.08417000       0.06758500
Cu      10.01212000      10.01212000      11.76991000  F      -0.04661600      -0.09073700       0.07403600
Cu       1.26520000       1.25057000      13.57674000  T      -0.00059100       0.00117200      -0.00200400
Cu       3.78162000       1.26553000      13.60087000  T      -0.00142400       0.00052000      -0.00228100
Cu       6.28480000       1.27700000      13.60889000  T      -0.00250500       0.00033700      -0.00164000
Cu       8.76141000       1.28206000      13.61391000  T      -0.00198000       0.00091400      -0.00240100
Cu      11.25843000       1.26365000      13.59688000  T      -0.00213800       0.00202800      -0.00181100
Cu       1.25802000       3.76524000      13.57782000  T      -0.00135700       0.00023100      -0.00112300
Cu       3.75499000       3.75879000      13.61137000  T      -0.00034200      -0.00030900      -0.00277600
Cu       6.27217000       3.76179000      13.56778000  T       0.00014400       0.00006000      -0.00187900
Cu       8.74936000       3.76518000      13.55796000  T      -0.00089700       0.00149000      -0.00104100
Cu      11.24056000       3.76469000      13.60994000  T      -0.00052500       0.00147200      -0.00068200
Cu       1.25809000       6.24638000      13.57771000  T      -0.00144300      -0.00067400      -0.00120200
Cu       3.75567000       6.25363000      13.61105000  T      -0.00032100       0.00005500      -0.00288600
Cu       6.27281000       6.25015000      13.56803000  T       0.00020200      -0.00062300      -0.00205800
Cu       8.74977000       6.24680000      13.55776000  T      -0.00074800      -0.00182600      -0.00118900
Cu      11.24089000       6.24715000      13.60941000  T      -0.00045200      -0.00102200      -0.00046700
Cu       1.26558000       8.76075000      13.57686000  T      -0.00060300      -0.00095800      -0.00233000
Cu       3.78164000       8.74653000      13.60121000  T      -0.00125800      -0.00034600      -0.00265400
Cu       6.28489000       8.73542000      13.60858000  T      -0.00241900      -0.00048000      -0.00174300
Cu       8.76155000       8.73037000      13.61356000  T      -0.00193100      -0.00097700      -0.00241300
Cu      11.25877000       8.74869000      13.59673000  T      -0.00189400      -0.00139200      -0.00184000
Cu       1.24817000      11.26368000      13.59253000  T       0.00240700       0.00008900      -0.00349200
Cu       3.74465000      11.26395000      13.57163000  T       0.00194300       0.00022800      -0.00261200
Cu       6.25354000      11.26417000      13.56460000  T       0.00058200       0.00012100      -0.00043800
Cu       8.76218000      11.26383000      13.56788000  T      -0.00068600       0.00005400      -0.00091200
Cu      11.27077000      11.26398000      13.57532000  T       0.00011600       0.00028600      -0.00281700
Cu      12.51037000       0.00580000      15.36666000  T       0.00098300      -0.00030500      -0.00739200
Cu       2.50722000      12.51765000      15.36497000  T       0.00036800      -0.00050700      -0.00540000
Cu       5.00564000      12.48351000      15.35388000  T      -0.00055400       0.00021800      -0.00497600
Cu       7.50574000      12.49630000      15.34577000  T       0.00029100      -0.00044700      -0.00275800
Cu      10.01200000      12.49619000      15.35308000  T       0.00058400       0.00112400      -0.00418700
Cu       0.05366000       2.49850000      15.34887000  T      -0.00496000      -0.00022400      -0.00469300
Cu       2.51916000       2.49347000      15.36673000  T      -0.00464300      -0.00077500      -0.00401700
Cu       5.00336000       2.41647000      15.45578000  T      -0.00527400       0.00003700      -0.00264600
Cu       7.56054000       2.50808000      15.47163000  T      -0.00263700      -0.00344300      -0.00620200
Cu      10.09957000       2.45545000      15.44915000  T      -0.00396600       0.00126300      -0.00300400
Cu      12.47917000       5.00599000      15.35331000  T       0.00032600       0.00015200       0.00036900
Cu       2.41059000       5.00643000      15.49002000  T       0.00131600      -0.00044200      -0.01085700
Pd       5.01791000       5.00601000      15.47964000  T       0.00252000      -0.00082200      -0.01818500
Y        7.47311000       5.00578000      17.24725000  T      -0.00382000      -0.00010400      -0.00246100
Cu       9.97349000       5.00662000      15.45102000  T       0.00441100       0.00008300      -0.00213500
Cu       0.05329000       7.51369000      15.34832000  T      -0.00508400       0.00107700      -0.00488500
Cu       2.51930000       7.51809000      15.36758000  T      -0.00486900       0.00071200      -0.00543800
Cu       5.00431000       7.59587000      15.45601000  T      -0.00553200      -0.00012100      -0.00278200
Cu       7.56106000       7.50334000      15.47162000  T      -0.00286600       0.00331300      -0.00631400
Cu      10.09978000       7.55662000      15.44875000  T      -0.00428700      -0.00082500      -0.00311300
Cu      12.51091000      10.00760000      15.36626000  T       0.00180700       0.00090500      -0.00649100
Cu       2.50800000      10.00964000      15.36487000  T       0.00068100       0.00052200      -0.00543300
Cu       5.00640000      10.04327000      15.35332000  T      -0.00048300       0.00007900      -0.00547000
Cu       7.50608000      10.02967000      15.34554000  T       0.00058200       0.00123000      -0.00292700
Cu      10.01223000      10.03039000      15.35284000  T       0.00129000      -0.00056000      -0.00447700
O        6.15723000       3.39985000      16.64457000  T      -0.00201300      -0.00015100      -0.00201300
O        6.15753000       6.61151000      16.64451000  T      -0.00199300      -0.00019100      -0.00200600
O        8.99507000       6.43150000      16.54797000  T      -0.00304600      -0.00245800      -0.00493300
O        8.99489000       3.58091000      16.54742000  T      -0.00288800       0.00231000      -0.00486100
C        2.57254000       5.02029000      17.43867000  T      -0.01697700       0.00009600      -0.00936900
O        1.39435000       5.03987000      18.14344000  T      -0.02841500      -0.00031300      -0.01583700
O        3.64092000       5.01054000      18.04294000  T      -0.02326700       0.00040100       0.00676600
H        1.64671000       5.04271000      19.10041000  T      -0.03977900      -0.00024100      -0.01868800
108
Lattice="12.515153631 0.0 0.0 0.0 12.515153631 0.0 0.0 0.0 25.30973" Properties=species:S:1:pos:R:3:move_mask:L:1:forces:R:3 stress="0.008028890094262447 3.2580677637110607e-06 0.00022389541536368423 3.2580677637110607e-06 0.008115609622057469 -2.0909055571708913e-06 0.00022389541536368423 -2.0909055571708913e-06 0.002168131749585445" free_energy=-445.06354648 energy=-445.06376416 pbc="T T T"
Cu       1.25152000       1.25152000      10.00000000  F       0.00248100      -0.00231000      -0.06971200
Cu       3.75455000       1.25152000      10.00000000  F      -0.00064800       0.01580200      -0.06947100
Cu       6.25758000       1.25152000      10.00000000  F       0.00587900       0.01322000      -0.06864000
Cu       8.76061000       1.25152000      10.00000000  F      -0.00226300      -0.00018400      -0.04432000
Cu      11.26364000       1.25152000      10.00000000  F      -0.00723500      -0.00841800      -0.07433100
Cu       1.25152000       3.75455000      10.00000000  F      -0.01103600       0.00536400      -0.06378000
Cu       3.75455000       3.75455000      10.00000000  F       0.01708300      -0.01914900      -0.04633300
Cu       6.25758000       3.75455000      10.00000000  F      -0.02107800      -0.01753200      -0.07963600
Cu       8.76061000       3.75455000      10.00000000  F       0.00843700      -0.01586800      -0.07803100
Cu      11.26364000       3.75455000      10.00000000  F       0.00869800       0.01021700      -0.05649300
Cu       1.25152000       6.25758000      10.00000000  F      -0.01157400      -0.00404800      -0.06546700
Cu       3.75455000       6.25758000      10.00000000  F       0.01845500       0.01975800      -0.04690100
Cu       6.25758000       6.25758000      10.00000000  F      -0.02118900       0.01942400      -0.08255300
Cu       8.76061000       6.25758000      10.00000000  F       0.00716400       0.01644000      -0.07865300
Cu      11.26364000       6.25758000      10.00000000  F       0.00919400      -0.00882900      -0.05790100
Cu       1.25152000       8.76061000      10.00000000  F       0.00264300      -0.00104200      -0.06846900
Cu       3.75455000       8.76061000      10.00000000  F      -0.00151000      -0.01837600      -0.06848100
Cu       6.25758000       8.76061000      10.00000000  F       0.00611800      -0.01744000      -0.06659500
Cu       8.76061000       8.76061000      10.00000000  F      -0.00183500      -0.00227200      -0.04329300
Cu      11.26364000       8.76061000      10.00000000  F      -0.00718500       0.00477800      -0.07318800
Cu       1.25152000      11.26364000      10.00000000  F       0.00252100       0.00168400      -0.01571900
Cu       3.75455000      11.26364000      10.00000000  F      -0.01212000       0.00165600      -0.06247600
Cu       6.25758000      11.26364000      10.00000000  F       0.00862400       0.00200000      -0.06588000
Cu       8.76061000      11.26364000      10.00000000  F      -0.00490500       0.00156600      -0.08354500
Cu      11.26364000      11.26364000      10.00000000  F       0.00047900       0.00191700      -0.05182400
Cu       0.00000000       0.00000000      11.76991000  F      -0.00665400       0.05209200       0.08723400
Cu       2.50303000       0.00000000      11.76991000  F       0.03136100       0.04359000       0.06334100
Cu       5.00606000       0.00000000      11.76991000  F       0.04818600       0.08357000       0.06785200
Cu       7.50909000       0.00000000      11.76991000  F       0.01934100       0.08671800       0.06742900
Cu      10.01212000       0.00000000      11.76991000  F      -0.04604100       0.09223900       0.07226300
Cu       0.00000000       2.50303000      11.76991000  F      -0.06491200       0.05428500       0.07261700
Cu       2.50303000       2.50303000      11.76991000  F       0.07910200       0.02601900       0.05583200
Cu       5.00606000       2.50303000      11.76991000  F      -0.02864000      -0.01756100       0.05702700
Cu       7.50909000       2.50303000      11.76991000  F      -0.01167600      -0.02611400       0.06857000
Cu      10.01212000       2.50303000      11.76991000  F       0.06499900      -0.04283600       0.04939300
Cu       0.00000000       5.00606000      11.76991000  F      -0.08426000       0.00075900       0.04469300
Cu       2.50303000       5.00606000      11.76991000  F       0.09689000       0.00115700       0.10964800
Cu       5.00606000       5.00606000      11.76991000  F      -0.05804600       0.00197300       0.11386000
Cu       7.50909000       5.00606000      11.76991000  F      -0.03093500       0.00188600       0.07846200
Cu      10.01212000       5.00606000      11.76991000  F       0.05716800       0.00054500       0.05702300
Cu       0.00000000       7.50909000      11.76991000  F      -0.06453600      -0.05792500       0.07334600
Cu       2.50303000       7.50909000      11.76991000  F       0.07917400      -0.02890800       0.05688000
Cu       5.00606000       7.50909000      11.76991000  F      -0.02678000       0.01454400       0.05804500
Cu       7.50909000       7.50909000      11.76991000  F      -0.01244000       0.02204000       0.06959700
Cu      10.01212000       7.50909000      11.76991000  F       0.06637300       0.04096300       0.04932900
Cu       0.00000000      10.01212000      11.76991000  F      -0.00569000      -0.05024500       0.08534500
Cu       2.50303000      10.01212000      11.76991000  F       0.03274600      -0.04297900       0.06371500
Cu       5.00606000      10.01212000      11.76991000  F       0.04699300      -0.08162000       0.06782700
Cu       7.50909000      10.01212000      11.76991000  F       0.01998900      -0.08394900       0.06565000
Cu      10.01212000      10.01212000      11.76991000  F      -0.04704300      -0.09049500       0.07179800
Cu       1.26503000       1.25059000      13.57650000  T      -0.00031000       0.00047500      -0.00203900
Cu       3.78146000       1.26555000      13.60065000  T      -0.00082400       0.00015200      -0.00168200
Cu       6.28464000       1.27700000      13.60871000  T      -0.00145700      -0.00015300      -0.00139600
Cu       8.76127000       1.28206000      13.61362000  T      -0.00139600       0.00025100      -0.00154400
Cu      11.25822000       1.26372000      13.59662000  T      -0.00087600       0.00094400      -0.00179600
Cu       1.25784000       3.76521000      13.57762000  T      -0.00087800      -0.00007700      -0.00172800
Cu       3.75492000       3.75873000      13.61110000  T      -0.00113000      -0.00112200      -0.00301200
Cu       6.27220000       3.76175000      13.56756000  T       0.00035100      -0.00130800      -0.00275300
Cu       8.74928000       3.76524000      13.55779000  T      -0.00018200       0.00016300      -0.00008100
Cu      11.24047000       3.76476000      13.60977000  T      -0.00009400       0.00093100      -0.00052600
Cu       1.25791000       6.24639000      13.57751000  T      -0.00099900      -0.00002700      -0.00173100
Cu       3.75560000       6.25367000      13.61077000  T      -0.00104100       0.00089900      -0.00305000
Cu       6.27285000       6.25016000      13.56780000  T       0.00039700       0.00111500      -0.00275200
Cu       8.74970000       6.24673000      13.55759000  T      -0.00015400      -0.00023300      -0.00010000
Cu      11.24080000       6.24713000      13.60925000  T      -0.00012300      -0.00058200      -0.00048300
Cu       1.26542000       8.76075000      13.57659000  T      -0.00033700      -0.00045400      -0.00219700
Cu       3.78149000       8.74652000      13.60097000  T      -0.00075100      -0.00010200      -0.00185900
Cu       6.28474000       8.73541000      13.60839000  T      -0.00137500       0.00005300      -0.00135800
Cu       8.76142000       8.73036000      13.61328000  T      -0.00130600      -0.00024400      -0.00148800
Cu      11.25858000       8.74867000      13.59647000  T      -0.00082600      -0.00063000      -0.00179300
Cu       1.24823000      11.26369000      13.59218000  T       0.00137200      -0.00002000      -0.00258200
Cu       3.74473000      11.26397000      13.57138000  T       0.00082800       0.00006600      -0.00212400
Cu       6.25363000      11.26418000      13.56447000  T      -0.00016700       0.00005000      -0.00159700
Cu       8.76221000      11.26384000      13.56769000  T      -0.00032300       0.00001900      -0.00156100
Cu      11.27075000      11.26401000      13.57500000  T       0.00036400       0.00006400      -0.00213100
Cu      12.51038000       0.00575000      15.36602000  T       0.00040600       0.00017000      -0.00324700
Cu       2.50719000      12.51760000      15.36454000  T       0.00047300      -0.00008500      -0.00267700
Cu       5.00560000      12.48353000      15.35351000  T       0.00001000       0.00019800      -0.00230100
Cu       7.50578000      12.49626000      15.34550000  T      -0.00010700       0.00012400      -0.00151500
Cu      10.01204000      12.49623000      15.35266000  T       0.00002900       0.00055900      -0.00178900
Cu       0.05322000       2.49841000      15.34847000  T      -0.00293400       0.00006200      -0.00220100
Cu       2.51875000       2.49339000      15.36642000  T      -0.00296900      -0.00024400      -0.00231800
Cu       5.00293000       2.41649000      15.45556000  T      -0.00294400      -0.00041900      -0.00186000
Cu       7.56023000       2.50784000      15.47115000  T      -0.00270600       0.00001200      -0.00202700
Cu      10.09922000       2.45546000      15.44881000  T      -0.00289700       0.00091500      -0.00183300
Cu      12.47922000       5.00601000      15.35334000  T       0.00100900       0.00019400      -0.00024900
Cu       2.41077000       5.00640000      15.48911000  T       0.00166300      -0.00014700      -0.00649500
Pd       5.01811000       5.00598000      15.47870000  T      -0.00147000       0.00069400       0.00642400
Y        7.47268000       5.00578000      17.24682000  T      -0.00297400      -0.00003700      -0.00364900
Cu       9.97378000       5.00663000      15.45079000  T       0.00021600       0.00011300      -0.00030000
Cu       0.05285000       7.51384000      15.34792000  T      -0.00298200       0.00035700      -0.00213300
Cu       2.51888000       7.51816000      15.36716000  T      -0.00314800       0.00013800      -0.00295900
Cu       5.00387000       7.59584000      15.45578000  T      -0.00309000       0.00014100      -0.00189800
Cu       7.56073000       7.50356000      15.47113000  T      -0.00295300      -0.00005100      -0.00203000
Cu      10.09940000       7.55664000      15.44841000  T      -0.00317300      -0.00079000      -0.00180800
Cu      12.51098000      10.00771000      15.36568000  T       0.00074400       0.00022700      -0.00286400
Cu       2.50800000      10.00969000      15.36444000  T       0.00071400       0.00000700      -0.00275300
Cu       5.00637000      10.04326000      15.35292000  T       0.00013600      -0.00015500      -0.00237400
Cu       7.50614000      10.02976000      15.34526000  T       0.00004300       0.00004600      -0.00157300
Cu      10.01231000      10.03040000      15.35240000  T       0.00026900      -0.00031000      -0.00178500
O        6.15688000       3.39981000      16.64418000  T      -0.00221900      -0.00044200      -0.00255500
O        6.15717000       6.61153000      16.64409000  T      -0.00234400       0.00017100      -0.00273500
O        8.99457000       6.43133000      16.54732000  T      -0.00283100      -0.00077700      -0.00482500
O        8.99443000       3.58109000      16.54678000  T      -0.00258900       0.00089100      -0.00462200
C        2.57036000       5.02031000      17.43771000  T      -0.01473100       0.00005900      -0.00545800
O        1.39089000       5.03986000      18.14059000  T      -0.02276400       0.00015400      -0.01890400
O        3.63785000       5.01058000      18.04354000  T      -0.02350600       0.00010700       0.00360800
H        1.64134000       5.04268000      19.09800000  T      -0.03901000      -0.00021400      -0.01801700
108
Lattice="12.515153631 0.0 0.0 0.0 12.515153631 0.0 0.0 0.0 25.30973" Properties=species:S:1:pos:R:3:move_mask:L:1:forces:R:3 stress="0.008045417610427787 3.145720599445162e-06 0.00021777249491119273 3.145720599445162e-06 0.00813440904754463 -1.7975546282543783e-06 0.00021777249491119273 -1.7975546282543783e-06 0.0021733309266873057" free_energy=-445.06517867 energy=-445.06539234 pbc="T T T"
Cu       1.25152000       1.25152000      10.00000000  F       0.00258400      -0.00218000      -0.06940400
Cu       3.75455000       1.25152000      10.00000000  F      -0.00074500       0.01599800      -0.06929300
Cu       6.25758000       1.25152000      10.00000000  F       0.00584200       0.01336900      -0.06868900
Cu       8.76061000       1.25152000      10.00000000  F      -0.00204700      -0.00011300      -0.04430300
Cu      11.26364000       1.25152000      10.00000000  F      -0.00689400      -0.00828400      -0.07419800
Cu       1.25152000       3.75455000      10.00000000  F      -0.01093000       0.00542300      -0.06339400
Cu       3.75455000       3.75455000      10.00000000  F       0.01704000      -0.01906800      -0.04603000
Cu       6.25758000       3.75455000      10.00000000  F      -0.02119400      -0.01743300      -0.07955100
Cu       8.76061000       3.75455000      10.00000000  F       0.00868600      -0.01575600      -0.07800000
Cu      11.26364000       3.75455000      10.00000000  F       0.00901000       0.01029500      -0.05627700
Cu       1.25152000       6.25758000      10.00000000  F      -0.01146800      -0.00407700      -0.06505800
Cu       3.75455000       6.25758000      10.00000000  F       0.01840900       0.01969800      -0.04658600
Cu       6.25758000       6.25758000      10.00000000  F      -0.02130500       0.01934700      -0.08245900
Cu       8.76061000       6.25758000      10.00000000  F       0.00741600       0.01635800      -0.07859900
Cu      11.26364000       6.25758000      10.00000000  F       0.00950700      -0.00888000      -0.05764700
Cu       1.25152000       8.76061000      10.00000000  F       0.00274000      -0.00117400      -0.06813700
Cu       3.75455000       8.76061000      10.00000000  F      -0.00160900      -0.01857500      -0.06829100
Cu       6.25758000       8.76061000      10.00000000  F       0.00608200      -0.01759100      -0.06663100
Cu       8.76061000       8.76061000      10.00000000  F      -0.00161100      -0.00234900      -0.04325000
Cu      11.26364000       8.76061000      10.00000000  F      -0.00684500       0.00463900      -0.07301800
Cu       1.25152000      11.26364000      10.00000000  F       0.00259800       0.00167000      -0.01552600
Cu       3.75455000      11.26364000      10.00000000  F      -0.01225100       0.00164500      -0.06236500
Cu       6.25758000      11.26364000      10.00000000  F       0.00871000       0.00198900      -0.06596700
Cu       8.76061000      11.26364000      10.00000000  F      -0.00473100       0.00155200      -0.08365800
Cu      11.26364000      11.26364000      10.00000000  F       0.00077400       0.00190100      -0.05163900
Cu       0.00000000       0.00000000      11.76991000  F      -0.00663100       0.05237300       0.08580500
Cu       2.50303000       0.00000000      11.76991000  F       0.03118700       0.04384400       0.06201700
Cu       5.00606000       0.00000000      11.76991000  F       0.04782600       0.08375900       0.06672100
Cu       7.50909000       0.00000000      11.76991000  F       0.01917100       0.08695300       0.06625900
Cu      10.01212000       0.00000000      11.76991000  F      -0.04597900       0.09237500       0.07085600
Cu       0.00000000       2.50303000      11.76991000  F      -0.06523200       0.05451300       0.07119600
Cu       2.50303000       2.50303000      11.76991000  F       0.07858900       0.02608500       0.05439200
Cu       5.00606000       2.50303000      11.76991000  F      -0.02919200      -0.01761800       0.05567700
Cu       7.50909000       2.50303000      11.76991000  F      -0.01166800      -0.02616000       0.06723400
Cu      10.01212000       2.50303000      11.76991000  F       0.06507500      -0.04224900       0.04836600
Cu       0.00000000       5.00606000      11.76991000  F      -0.08453300       0.00078800       0.04338600
Cu       2.50303000       5.00606000      11.76991000  F       0.09635900       0.00117000       0.10858700
Cu       5.00606000       5.00606000      11.76991000  F      -0.05843700       0.00196500       0.11282500
Cu       7.50909000       5.00606000      11.76991000  F      -0.03086000       0.00189000       0.07741100
Cu      10.01212000       5.00606000      11.76991000  F       0.05727900       0.00059400       0.05603200
Cu       0.00000000       7.50909000      11.76991000  F      -0.06488500      -0.05810700       0.07191600
Cu       2.50303000       7.50909000      11.76991000  F       0.07867300      -0.02900800       0.05547200
Cu       5.00606000       7.50909000      11.76991000  F      -0.02727800       0.01459300       0.05669600
Cu       7.50909000       7.50909000      11.76991000  F      -0.01242000       0.02210400       0.06830000
Cu      10.01212000       7.50909000      11.76991000  F       0.06645300       0.04045800       0.04833300
Cu       0.00000000      10.01212000      11.76991000  F      -0.00567000      -0.05046500       0.08388300
Cu       2.50303000      10.01212000      11.76991000  F       0.03258000      -0.04320000       0.06236700
Cu       5.00606000      10.01212000      11.76991000  F       0.04667600      -0.08179300       0.06671000
Cu       7.50909000      10.01212000      11.76991000  F       0.01982000      -0.08420400       0.06453100
Cu      10.01212000      10.01212000      11.76991000  F      -0.04698700      -0.09060300       0.07039800
Cu       1.26481000       1.25062000      13.57610000  T      -0.00053200       0.00009500      -0.00068800
Cu       3.78121000       1.26556000      13.60031000  T      -0.00106100      -0.00019300      -0.00066200
Cu       6.28436000       1.27696000      13.60841000  T      -0.00111900      -0.00030400      -0.00051300
Cu       8.76100000       1.28206000      13.61323000  T      -0.00059300      -0.00017600      -0.00070800
Cu      11.25794000       1.26381000      13.59621000  T      -0.00032100       0.00032300      -0.00069900
Cu       1.25756000       3.76517000      13.57725000  T      -0.00100400      -0.00045900      -0.00148300
Cu       3.75470000       3.75860000      13.61062000  T      -0.00010100      -0.00021400      -0.00125300
Cu       6.27215000       3.76160000      13.56710000  T      -0.00046700      -0.00004100      -0.00087400
Cu       8.74916000       3.76525000      13.55760000  T       0.00023400       0.00013900      -0.00029100
Cu      11.24035000       3.76488000      13.60955000  T       0.00050100       0.00062900      -0.00013200
Cu       1.25760000       6.24642000      13.57713000  T      -0.00113800       0.00040400      -0.00155400
Cu       3.75540000       6.25378000      13.61028000  T      -0.00012400       0.00007700      -0.00133400
Cu       6.27281000       6.25029000      13.56734000  T      -0.00039300      -0.00001300      -0.00093800
Cu       8.74959000       6.24671000      13.55739000  T       0.00029100      -0.00015000      -0.00030200
Cu      11.24067000       6.24707000      13.60904000  T       0.00043000      -0.00033200      -0.00011000
Cu       1.26519000       8.76072000      13.57617000  T      -0.00051400      -0.00012400      -0.00076200
Cu       3.78126000       8.74653000      13.60060000  T      -0.00096100       0.00013300      -0.00076900
Cu       6.28448000       8.73544000      13.60810000  T      -0.00100900       0.00026000      -0.00048400
Cu       8.76115000       8.73038000      13.61290000  T      -0.00053700       0.00013500      -0.00065200
Cu      11.25830000       8.74865000      13.59606000  T      -0.00027200      -0.00006400      -0.00072400
Cu       1.24827000      11.26369000      13.59169000  T       0.00084500       0.00001000      -0.00087100
Cu       3.74477000      11.26398000      13.57099000  T       0.00051800       0.00001000      -0.00043700
Cu       6.25362000      11.26419000      13.56415000  T       0.00031500       0.00001700      -0.00020400
Cu       8.76215000      11.26384000      13.56734000  T       0.00054800      -0.00001700      -0.00022000
Cu      11.27069000      11.26403000      13.57454000  T       0.00082800       0.00007600      -0.00056300
Cu      12.51033000       0.00574000      15.36533000  T       0.00052700      -0.00001900      -0.00297800
Cu       2.50713000      12.51758000      15.36401000  T       0.00018800      -0.00011200      -0.00213600
Cu       5.00552000      12.48355000      15.35305000  T      -0.00003100      -0.00015000      -0.00144800
Cu       7.50572000      12.49625000      15.34512000  T       0.00021700      -0.00012800      -0.00106700
Cu      10.01198000      12.49628000      15.35218000  T       0.00052100       0.00010900      -0.00179300
Cu       0.05265000       2.49836000      15.34798000  T      -0.00250300      -0.00065400      -0.00214100
Cu       2.51818000       2.49335000      15.36595000  T      -0.00270600      -0.00031000      -0.00202000
Cu       5.00227000       2.41642000      15.45511000  T      -0.00386700      -0.00052300      -0.00208300
Cu       7.55967000       2.50772000      15.47058000  T      -0.00259800      -0.00099300      -0.00258000
Cu      10.09872000       2.45547000      15.44829000  T      -0.00147300      -0.00049500      -0.00257400
Cu      12.47930000       5.00604000      15.35320000  T       0.00091400       0.00018000       0.00016100
Cu       2.41106000       5.00637000      15.48757000  T       0.00324400      -0.00021500      -0.01229800
Pd       5.01807000       5.00598000      15.47831000  T       0.00037400       0.00002300      -0.00763500
Y        7.47196000       5.00578000      17.24576000  T      -0.00059800      -0.00000900       0.00006300
Cu       9.97388000       5.00665000      15.45049000  T       0.00163000       0.00004400      -0.00171700
Cu       0.05226000       7.51398000      15.34743000  T      -0.00257000       0.00116700      -0.00220000
Cu       2.51828000       7.51819000      15.36659000  T      -0.00291300       0.00022600      -0.00256500
Cu       5.00319000       7.59588000      15.45532000  T      -0.00363800       0.00038900      -0.00200700
Cu       7.56012000       7.50369000      15.47056000  T      -0.00304400       0.00118000      -0.00294800
Cu      10.09886000       7.55667000      15.44789000  T      -0.00162600       0.00075800      -0.00266700
Cu      12.51099000      10.00779000      15.36505000  T       0.00080200       0.00041300      -0.00273900
Cu       2.50798000      10.00971000      15.36390000  T       0.00039700      -0.00001700      -0.00228800
Cu       5.00631000      10.04325000      15.35245000  T       0.00009300       0.00010400      -0.00155700
Cu       7.50611000      10.02981000      15.34487000  T       0.00035900       0.00025200      -0.00108700
Cu      10.01230000      10.03040000      15.35191000  T       0.00072800       0.00013400      -0.00180100
O        6.15618000       3.39973000      16.64344000  T      -0.00434400       0.00119600       0.00036700
O        6.15644000       6.61155000      16.64330000  T      -0.00440700      -0.00128500       0.00016400
O        8.99370000       6.43117000      16.54600000  T      -0.00449700      -0.00049600      -0.00318000
O        8.99362000       3.58130000      16.54552000  T      -0.00424000       0.00073000      -0.00281700
C        2.56582000       5.02034000      17.43573000  T      -0.00471000      -0.00016300      -0.01150600
O        1.38390000       5.03988000      18.13380000  T      -0.04234400       0.00002100      -0.01823600
O        3.63145000       5.01059000      18.04456000  T      -0.02707800       0.00015100       0.01107400
H        1.62907000       5.04263000      19.09246000  T      -0.03285600      -0.00018900      -0.01193500
108
Lattice="12.515153631 0.0 0.0 0.0 12.515153631 0.0 0.0 0.0 25.30973" Properties=species:S:1:pos:R:3:move_mask:L:1:forces:R:3 stress="0.00808460180472008 3.120754562941629e-06 0.00021790980811196218 3.120754562941629e-06 0.008168799762828246 -1.91614330164616e-06 0.00021790980811196218 -1.91614330164616e-06 0.0022093694003801558" free_energy=-445.06506595 energy=-445.06527893 pbc="T T T"
Cu       1.25152000       1.25152000      10.00000000  F       0.00306600      -0.00223000      -0.06904100
Cu       3.75455000       1.25152000      10.00000000  F      -0.00009400       0.01586300      -0.06867400
Cu       6.25758000       1.25152000      10.00000000  F       0.00628800       0.01325100      -0.06786200
Cu       8.76061000       1.25152000      10.00000000  F      -0.00190000      -0.00014300      -0.04359600
Cu      11.26364000       1.25152000      10.00000000  F      -0.00676200      -0.00829900      -0.07371600
Cu       1.25152000       3.75455000      10.00000000  F      -0.01051300       0.00537800      -0.06296000
Cu       3.75455000       3.75455000      10.00000000  F       0.01764300      -0.01916600      -0.04547600
Cu       6.25758000       3.75455000      10.00000000  F      -0.02068200      -0.01753000      -0.07881900
Cu       8.76061000       3.75455000      10.00000000  F       0.00887000      -0.01580600      -0.07728200
Cu      11.26364000       3.75455000      10.00000000  F       0.00915400       0.01026600      -0.05574700
Cu       1.25152000       6.25758000      10.00000000  F      -0.01105200      -0.00409100      -0.06463500
Cu       3.75455000       6.25758000      10.00000000  F       0.01900900       0.01973800      -0.04604600
Cu       6.25758000       6.25758000      10.00000000  F      -0.02079300       0.01938200      -0.08173900
Cu       8.76061000       6.25758000      10.00000000  F       0.00760400       0.01634800      -0.07790000
Cu      11.26364000       6.25758000      10.00000000  F       0.00965200      -0.00890800      -0.05713800
Cu       1.25152000       8.76061000      10.00000000  F       0.00322400      -0.00114800      -0.06778400
Cu       3.75455000       8.76061000      10.00000000  F      -0.00096000      -0.01846300      -0.06769800
Cu       6.25758000       8.76061000      10.00000000  F       0.00652600      -0.01749500      -0.06583800
Cu       8.76061000       8.76061000      10.00000000  F      -0.00146500      -0.00234200      -0.04257200
Cu      11.26364000       8.76061000      10.00000000  F      -0.00671000       0.00462900      -0.07256300
Cu       1.25152000      11.26364000      10.00000000  F       0.00312100       0.00167000      -0.01511200
Cu       3.75455000      11.26364000      10.00000000  F      -0.01157700       0.00164700      -0.06171600
Cu       6.25758000      11.26364000      10.00000000  F       0.00909500       0.00199100      -0.06511000
Cu       8.76061000      11.26364000      10.00000000  F      -0.00460400       0.00155500      -0.08290900
Cu      11.26364000      11.26364000      10.00000000  F       0.00091900       0.00190200      -0.05123500
Cu       0.00000000       0.00000000      11.76991000  F      -0.00633700       0.05232600       0.08670400
Cu       2.50303000       0.00000000      11.76991000  F       0.03191200       0.04372700       0.06275400
Cu       5.00606000       0.00000000      11.76991000  F       0.04859600       0.08361300       0.06734600
Cu       7.50909000       0.00000000      11.76991000  F       0.01950600       0.08682300       0.06698800
Cu      10.01212000       0.00000000      11.76991000  F      -0.04592300       0.09236400       0.07175600
Cu       0.00000000       2.50303000      11.76991000  F      -0.06495600       0.05447500       0.07208200
Cu       2.50303000       2.50303000      11.76991000  F       0.07925200       0.02597100       0.05511400
Cu       5.00606000       2.50303000      11.76991000  F      -0.02841500      -0.01778800       0.05631400
Cu       7.50909000       2.50303000      11.76991000  F      -0.01125400      -0.02625400       0.06797400
Cu      10.01212000       2.50303000      11.76991000  F       0.06518900      -0.04234300       0.04923000
Cu       0.00000000       5.00606000      11.76991000  F      -0.08429100       0.00075300       0.04424200
Cu       2.50303000       5.00606000      11.76991000  F       0.09695200       0.00113400       0.10920500
Cu       5.00606000       5.00606000      11.76991000  F      -0.05766500       0.00193400       0.11339100
Cu       7.50909000       5.00606000      11.76991000  F      -0.03038700       0.00185600       0.07812800
Cu      10.01212000       5.00606000      11.76991000  F       0.05742600       0.00055500       0.05689500
Cu       0.00000000       7.50909000      11.76991000  F      -0.06460400      -0.05811800       0.07279900
Cu       2.50303000       7.50909000      11.76991000  F       0.07933400      -0.02893100       0.05618500
Cu       5.00606000       7.50909000      11.76991000  F      -0.02650800       0.01472300       0.05733000
Cu       7.50909000       7.50909000      11.76991000  F      -0.01200700       0.02215400       0.06902600
Cu      10.01212000       7.50909000      11.76991000  F       0.06656300       0.04049800       0.04918600
Cu       0.00000000      10.01212000      11.76991000  F      -0.00537400      -0.05043700       0.08478700
Cu       2.50303000      10.01212000      11.76991000  F       0.03330300      -0.04309800       0.06310800
Cu       5.00606000      10.01212000      11.76991000  F       0.04744100      -0.08166100       0.06733200
Cu       7.50909000      10.01212000      11.76991000  F       0.02015400      -0.08408100       0.06524900
Cu      10.01212000      10.01212000      11.76991000  F      -0.04693300      -0.09060800       0.07129400
Cu       1.26485000       1.25061000      13.57617000  T      -0.00079500       0.00021300      -0.00147100
Cu       3.78125000       1.26554000      13.60037000  T      -0.00110000      -0.00029500      -0.00133100
Cu       6.28441000       1.27695000      13.60846000  T      -0.00131400      -0.00054100      -0.00108000
Cu       8.76104000       1.28205000      13.61330000  T      -0.00112500      -0.00019000      -0.00138900
Cu      11.25798000       1.26379000      13.59628000  T      -0.00109700       0.00064700      -0.00139300
Cu       1.25760000       3.76516000      13.57731000  T      -0.00158200      -0.00055400      -0.00192100
Cu       3.75474000       3.75861000      13.61069000  T      -0.00037500      -0.00088200      -0.00251300
Cu       6.27217000       3.76162000      13.56717000  T       0.00031900      -0.00087500      -0.00226400
Cu       8.74920000       3.76525000      13.55764000  T       0.00025000       0.00014800      -0.00041000
Cu      11.24038000       3.76486000      13.60960000  T       0.00012700       0.00096100      -0.00019100
Cu       1.25764000       6.24642000      13.57719000  T      -0.00176900       0.00040700      -0.00199400
Cu       3.75544000       6.25377000      13.61036000  T      -0.00032500       0.00065300      -0.00264400
Cu       6.27283000       6.25027000      13.56741000  T       0.00041800       0.00069300      -0.00235000
Cu       8.74962000       6.24671000      13.55743000  T       0.00026400      -0.00023700      -0.00042800
Cu      11.24070000       6.24708000      13.60909000  T       0.00007000      -0.00054300      -0.00011700
Cu       1.26523000       8.76073000      13.57625000  T      -0.00079000      -0.00021500      -0.00154800
Cu       3.78130000       8.74653000      13.60067000  T      -0.00094500       0.00024300      -0.00150600
Cu       6.28452000       8.73545000      13.60815000  T      -0.00118300       0.00045800      -0.00104700
Cu       8.76120000       8.73039000      13.61297000  T      -0.00103300       0.00016600      -0.00129800
Cu      11.25835000       8.74866000      13.59613000  T      -0.00101300      -0.00022700      -0.00140900
Cu       1.24828000      11.26369000      13.59177000  T       0.00136600       0.00002400      -0.00182400
Cu       3.74479000      11.26398000      13.57106000  T       0.00130500       0.00003200      -0.00126500
Cu       6.25364000      11.26419000      13.56421000  T       0.00079600       0.00005200      -0.00081500
Cu       8.76217000      11.26384000      13.56741000  T       0.00048000       0.00000300      -0.00085200
Cu      11.27071000      11.26402000      13.57462000  T       0.00065600       0.00013100      -0.00145100
Cu      12.51035000       0.00574000      15.36541000  T       0.00054400      -0.00005800      -0.00421200
Cu       2.50715000      12.51758000      15.36408000  T       0.00043900      -0.00027600      -0.00302400
Cu       5.00554000      12.48354000      15.35312000  T       0.00034200      -0.00024500      -0.00236200
Cu       7.50575000      12.49625000      15.34517000  T       0.00050900      -0.00026800      -0.00184500
Cu      10.01201000      12.49627000      15.35224000  T       0.00053300       0.00027900      -0.00259400
Cu       0.05272000       2.49836000      15.34804000  T      -0.00419900      -0.00077300      -0.00285300
Cu       2.51824000       2.49335000      15.36602000  T      -0.00431400      -0.00061400      -0.00266800
Cu       5.00234000       2.41642000      15.45518000  T      -0.00479500      -0.00058800      -0.00240400
Cu       7.55973000       2.50773000      15.47065000  T      -0.00382900      -0.00112100      -0.00338400
Cu      10.09879000       2.45546000      15.44836000  T      -0.00295000      -0.00006700      -0.00311100
Cu      12.47930000       5.00604000      15.35325000  T       0.00113900       0.00025800       0.00044000
Cu       2.41107000       5.00637000      15.48767000  T       0.00401500      -0.00030400      -0.01340600
Pd       5.01813000       5.00598000      15.47818000  T       0.00053600       0.00020400      -0.01256500
Y        7.47206000       5.00578000      17.24597000  T      -0.00336900      -0.00001900      -0.00223700
Cu       9.97389000       5.00664000      15.45054000  T       0.00187700       0.00006200      -0.00156100
Cu       0.05233000       7.51397000      15.34750000  T      -0.00433300       0.00154400      -0.00291300
Cu       2.51834000       7.51819000      15.36666000  T      -0.00460400       0.00045600      -0.00349300
Cu       5.00326000       7.59588000      15.45539000  T      -0.00463500       0.00038100      -0.00233800
Cu       7.56019000       7.50368000      15.47063000  T      -0.00438900       0.00133400      -0.00378200
Cu      10.09893000       7.55667000      15.44795000  T      -0.00322200       0.00039400      -0.00317800
Cu      12.51101000      10.00778000      15.36513000  T       0.00101500       0.00067000      -0.00371400
Cu       2.50799000      10.00971000      15.36397000  T       0.00076900       0.00011800      -0.00321200
Cu       5.00633000      10.04326000      15.35251000  T       0.00052300       0.00021500      -0.00250600
Cu       7.50613000      10.02981000      15.34492000  T       0.00072700       0.00047700      -0.00186300
Cu      10.01232000      10.03040000      15.35197000  T       0.00086800       0.00012400      -0.00261300
O        6.15626000       3.39977000      16.64362000  T      -0.00358100       0.00068300       0.00047200
O        6.15653000       6.61152000      16.64349000  T      -0.00362800      -0.00086800       0.00039500
O        8.99383000       6.43120000      16.54626000  T      -0.00277400      -0.00054400      -0.00232700
O        8.99373000       3.58126000      16.54577000  T      -0.00254500       0.00067500      -0.00209300
C        2.56659000       5.02033000      17.43595000  T      -0.01273200      -0.00000600      -0.00245200
O        1.38472000       5.03987000      18.13512000  T      -0.03525000       0.00001200      -0.02181100
O        3.63241000       5.01059000      18.04456000  T      -0.03507300       0.00024600       0.00587300
H        1.63114000       5.04264000      19.09335000  T      -0.03325100      -0.00023500      -0.00739800
108
Lattice="12.515153631 0.0 0.0 0.0 12.515153631 0.0 0.0 0.0 25.30973" Properties=species:S:1:pos:R:3:move_mask:L:1:forces:R:3 stress="0.008014615762891551 3.1145130538157455e-06 0.00021859013260668345 3.1145130538157455e-06 0.008097365690882511 -1.8474867012614446e-06 0.00021859013260668345 -1.8474867012614446e-06 0.0021330357437706034" free_energy=-445.06519504 energy=-445.06540414 pbc="T T T"
Cu       1.25152000       1.25152000      10.00000000  F       0.00302700      -0.00237600      -0.06898600
Cu       3.75455000       1.25152000      10.00000000  F      -0.00007200       0.01579200      -0.06877500
Cu       6.25758000       1.25152000      10.00000000  F       0.00641800       0.01317600      -0.06791500
Cu       8.76061000       1.25152000      10.00000000  F      -0.00174800      -0.00028700      -0.04352200
Cu      11.26364000       1.25152000      10.00000000  F      -0.00667800      -0.00848000      -0.07360400
Cu       1.25152000       3.75455000      10.00000000  F      -0.01048600       0.00528200      -0.06309000
Cu       3.75455000       3.75455000      10.00000000  F       0.01770600      -0.01921800      -0.04561200
Cu       6.25758000       3.75455000      10.00000000  F      -0.02059500      -0.01757200      -0.07889100
Cu       8.76061000       3.75455000      10.00000000  F       0.00898200      -0.01588600      -0.07731400
Cu      11.26364000       3.75455000      10.00000000  F       0.00920800       0.01016500      -0.05578400
Cu       1.25152000       6.25758000      10.00000000  F      -0.01102500      -0.00398200      -0.06476700
Cu       3.75455000       6.25758000      10.00000000  F       0.01907000       0.01979300      -0.04618500
Cu       6.25758000       6.25758000      10.00000000  F      -0.02070600       0.01943100      -0.08183000
Cu       8.76061000       6.25758000      10.00000000  F       0.00771700       0.01643100      -0.07793800
Cu      11.26364000       6.25758000      10.00000000  F       0.00970700      -0.00879700      -0.05717300
Cu       1.25152000       8.76061000      10.00000000  F       0.00317900      -0.00098700      -0.06773700
Cu       3.75455000       8.76061000      10.00000000  F      -0.00094200      -0.01837400      -0.06780300
Cu       6.25758000       8.76061000      10.00000000  F       0.00665400      -0.01740300      -0.06591200
Cu       8.76061000       8.76061000      10.00000000  F      -0.00130800      -0.00218100      -0.04249900
Cu      11.26364000       8.76061000      10.00000000  F      -0.00662400       0.00482600      -0.07244900
Cu       1.25152000      11.26364000      10.00000000  F       0.00304000       0.00167800      -0.01502000
Cu       3.75455000      11.26364000      10.00000000  F      -0.01156700       0.00165900      -0.06176200
Cu       6.25758000      11.26364000      10.00000000  F       0.00925700       0.00200300      -0.06514100
Cu       8.76061000      11.26364000      10.00000000  F      -0.00441500       0.00156800      -0.08280300
Cu      11.26364000      11.26364000      10.00000000  F       0.00099700       0.00191000      -0.05101800
Cu       0.00000000       0.00000000      11.76991000  F      -0.00639300       0.05222600       0.08618300
Cu       2.50303000       0.00000000      11.76991000  F       0.03187200       0.04365200       0.06231900
Cu       5.00606000       0.00000000      11.76991000  F       0.04870400       0.08355600       0.06704500
Cu       7.50909000       0.00000000      11.76991000  F       0.01969800       0.08676200       0.06665100
Cu      10.01212000       0.00000000      11.76991000  F      -0.04583200       0.09223200       0.07128100
Cu       0.00000000       2.50303000      11.76991000  F      -0.06514400       0.05422000       0.07152600
Cu       2.50303000       2.50303000      11.76991000  F       0.07922700       0.02575900       0.05466000
Cu       5.00606000       2.50303000      11.76991000  F      -0.02837200      -0.01797600       0.05599000
Cu       7.50909000       2.50303000      11.76991000  F      -0.01111000      -0.02644700       0.06766400
Cu      10.01212000       2.50303000      11.76991000  F       0.06521900      -0.04244700       0.04888800
Cu       0.00000000       5.00606000      11.76991000  F      -0.08442100       0.00075900       0.04364700
Cu       2.50303000       5.00606000      11.76991000  F       0.09690200       0.00113300       0.10889400
Cu       5.00606000       5.00606000      11.76991000  F      -0.05754100       0.00192600       0.11312200
Cu       7.50909000       5.00606000      11.76991000  F      -0.03019200       0.00185400       0.07789900
Cu      10.01212000       5.00606000      11.76991000  F       0.05743100       0.00057000       0.05657200
Cu       0.00000000       7.50909000      11.76991000  F      -0.06480700      -0.05783500       0.07223100
Cu       2.50303000       7.50909000      11.76991000  F       0.07931500      -0.02872200       0.05573200
Cu       5.00606000       7.50909000      11.76991000  F      -0.02644600       0.01491500       0.05699600
Cu       7.50909000       7.50909000      11.76991000  F      -0.01184700       0.02236400       0.06872100
Cu      10.01212000       7.50909000      11.76991000  F       0.06658900       0.04064100       0.04885000
Cu       0.00000000      10.01212000      11.76991000  F      -0.00542700      -0.05029400       0.08425300
Cu       2.50303000      10.01212000      11.76991000  F       0.03327100      -0.04299700       0.06266900
Cu       5.00606000      10.01212000      11.76991000  F       0.04756400      -0.08158500       0.06703300
Cu       7.50909000      10.01212000      11.76991000  F       0.02035000      -0.08401000       0.06492500
Cu      10.01212000      10.01212000      11.76991000  F      -0.04685000      -0.09044600       0.07081900
Cu       1.26480000       1.25061000      13.57608000  T      -0.00076200      -0.00001500      -0.00135400
Cu       3.78119000       1.26552000      13.60030000  T      -0.00088000      -0.00018800      -0.00112600
Cu       6.28434000       1.27692000      13.60840000  T      -0.00114000      -0.00027500      -0.00083700
Cu       8.76098000       1.28203000      13.61322000  T      -0.00107300      -0.00017800      -0.00122900
Cu      11.25792000       1.26381000      13.59620000  T      -0.00107700       0.00028600      -0.00148800
Cu       1.25751000       3.76513000      13.57721000  T      -0.00123800      -0.00053400      -0.00183700
Cu       3.75472000       3.75856000      13.61055000  T      -0.00011400      -0.00071600      -0.00198100
Cu       6.27218000       3.76157000      13.56705000  T       0.00000300      -0.00044600      -0.00130900
Cu       8.74920000       3.76525000      13.55761000  T      -0.00017800       0.00009900      -0.00033500
Cu      11.24038000       3.76491000      13.60958000  T      -0.00016200       0.00059400      -0.00050200
Cu       1.25755000       6.24645000      13.57708000  T      -0.00140600       0.00049800      -0.00190800
Cu       3.75542000       6.25381000      13.61022000  T      -0.00010500       0.00053600      -0.00204500
Cu       6.27285000       6.25031000      13.56729000  T       0.00005000       0.00035300      -0.00138800
Cu       8.74963000       6.24671000      13.55741000  T      -0.00019700      -0.00014100      -0.00036200
Cu      11.24070000       6.24706000      13.60908000  T      -0.00023500      -0.00027200      -0.00048200
Cu       1.26518000       8.76073000      13.57616000  T      -0.00075400       0.00007000      -0.00146800
Cu       3.78124000       8.74655000      13.60058000  T      -0.00073800       0.00012700      -0.00121500
Cu       6.28446000       8.73548000      13.60809000  T      -0.00103100       0.00027500      -0.00084400
Cu       8.76114000       8.73040000      13.61290000  T      -0.00099600       0.00018500      -0.00119300
Cu      11.25829000       8.74866000      13.59605000  T      -0.00100300       0.00007500      -0.00148500
Cu       1.24835000      11.26369000      13.59166000  T       0.00090000       0.00002000      -0.00168000
Cu       3.74485000      11.26398000      13.57098000  T       0.00095300       0.00003300      -0.00114300
Cu       6.25368000      11.26419000      13.56416000  T       0.00066400       0.00004400      -0.00083400
Cu       8.76220000      11.26384000      13.56735000  T       0.00039600       0.00002400      -0.00096000
Cu      11.27074000      11.26403000      13.57454000  T       0.00042600       0.00012700      -0.00147400
Cu      12.51038000       0.00574000      15.36518000  T       0.00038000      -0.00012500      -0.00307800
Cu       2.50717000      12.51756000      15.36392000  T       0.00038200      -0.00018500      -0.00206400
Cu       5.00555000      12.48353000      15.35299000  T       0.00025200      -0.00002400      -0.00157600
Cu       7.50577000      12.49623000      15.34507000  T       0.00025300      -0.00011300      -0.00138300
Cu      10.01203000      12.49628000      15.35209000  T       0.00029500       0.00012000      -0.00199500
Cu       0.05250000       2.49832000      15.34789000  T      -0.00306700      -0.00047300      -0.00187000
Cu       2.51802000       2.49331000      15.36587000  T      -0.00320800      -0.00028400      -0.00192700
Cu       5.00210000       2.41640000      15.45506000  T      -0.00315500       0.00037300      -0.00127600
Cu       7.55954000       2.50768000      15.47048000  T      -0.00363500      -0.00030000      -0.00209200
Cu      10.09863000       2.45546000      15.44820000  T      -0.00293200       0.00002800      -0.00221000
Cu      12.47937000       5.00605000      15.35325000  T       0.00171400       0.00023300       0.00063000
Cu       2.41125000       5.00636000      15.48710000  T       0.00259500      -0.00020700      -0.00773900
Pd       5.01815000       5.00598000      15.47792000  T       0.00081100      -0.00005900      -0.00644500
Y        7.47194000       5.00578000      17.24587000  T      -0.00453000      -0.00004900      -0.00331200
Cu       9.97398000       5.00665000      15.45047000  T       0.00098300       0.00007800      -0.00077200
Cu       0.05211000       7.51405000      15.34734000  T      -0.00321200       0.00102800      -0.00192400
Cu       2.51810000       7.51822000      15.36648000  T      -0.00344900       0.00014400      -0.00249600
Cu       5.00303000       7.59589000      15.45527000  T      -0.00315700      -0.00040600      -0.00121200
Cu       7.55997000       7.50375000      15.47044000  T      -0.00392600       0.00039400      -0.00233600
Cu      10.09875000       7.55669000      15.44779000  T      -0.00317600       0.00020100      -0.00225900
Cu      12.51106000      10.00782000      15.36493000  T       0.00073300       0.00061300      -0.00271600
Cu       2.50803000      10.00971000      15.36380000  T       0.00066100       0.00008000      -0.00224700
Cu       5.00635000      10.04327000      15.35238000  T       0.00041600       0.00001400      -0.00167900
Cu       7.50617000      10.02983000      15.34482000  T       0.00042600       0.00031300      -0.00134600
Cu      10.01236000      10.03041000      15.35182000  T       0.00054700       0.00023200      -0.00196900
O        6.15612000       3.39977000      16.64361000  T      -0.00446700      -0.00053800      -0.00221800
O        6.15639000       6.61151000      16.64348000  T      -0.00449900       0.00039900      -0.00227000
O        8.99368000       6.43118000      16.54608000  T      -0.00357000      -0.00015100      -0.00365300
O        8.99360000       3.58129000      16.54561000  T      -0.00330300       0.00031400      -0.00331000
C        2.56576000       5.02034000      17.43576000  T      -0.01250100      -0.00013100      -0.00187800
O        1.38370000       5.03988000      18.13454000  T      -0.03607500      -0.00014700      -0.03370000
O        3.63123000       5.01058000      18.04494000  T      -0.03481800       0.00025400       0.00185600
H        1.62996000       5.04263000      19.09282000  T      -0.03462200      -0.00018600      -0.00809400
108
Lattice="12.515153631 0.0 0.0 0.0 12.515153631 0.0 0.0 0.0 25.30973" Properties=species:S:1:pos:R:3:move_mask:L:1:forces:R:3 stress="0.007992839137551345 3.120754562941629e-06 0.0002151573025874477 3.120754562941629e-06 0.008076924748495244 -1.6352753909814138e-06 0.0002151573025874477 -1.6352753909814138e-06 0.002104980160249758" free_energy=-445.06672958 energy=-445.0669376 pbc="T T T"
Cu       1.25152000       1.25152000      10.00000000  F       0.00230600      -0.00204500      -0.06987600
Cu       3.75455000       1.25152000      10.00000000  F      -0.00081200       0.01612600      -0.06956900
Cu       6.25758000       1.25152000      10.00000000  F       0.00555700       0.01347800      -0.06870100
Cu       8.76061000       1.25152000      10.00000000  F      -0.00265700      -0.00001700      -0.04429600
Cu      11.26364000       1.25152000      10.00000000  F      -0.00749900      -0.00816300      -0.07452000
Cu       1.25152000       3.75455000      10.00000000  F      -0.01121500       0.00546900      -0.06372000
Cu       3.75455000       3.75455000      10.00000000  F       0.01697000      -0.01901600      -0.04613600
Cu       6.25758000       3.75455000      10.00000000  F      -0.02148400      -0.01738200      -0.07943400
Cu       8.76061000       3.75455000      10.00000000  F       0.00809700      -0.01568000      -0.07793500
Cu      11.26364000       3.75455000      10.00000000  F       0.00839300       0.01036500      -0.05647600
Cu       1.25152000       6.25758000      10.00000000  F      -0.01174300      -0.00414900      -0.06541500
Cu       3.75455000       6.25758000      10.00000000  F       0.01833600       0.01963000      -0.04673900
Cu       6.25758000       6.25758000      10.00000000  F      -0.02160300       0.01927500      -0.08235800
Cu       8.76061000       6.25758000      10.00000000  F       0.00682900       0.01626800      -0.07854900
Cu      11.26364000       6.25758000      10.00000000  F       0.00889000      -0.00896700      -0.05787000
Cu       1.25152000       8.76061000      10.00000000  F       0.00245800      -0.00128700      -0.06863600
Cu       3.75455000       8.76061000      10.00000000  F      -0.00167300      -0.01868700      -0.06858700
Cu       6.25758000       8.76061000      10.00000000  F       0.00580300      -0.01767900      -0.06665600
Cu       8.76061000       8.76061000      10.00000000  F      -0.00222000      -0.00242700      -0.04326200
Cu      11.26364000       8.76061000      10.00000000  F      -0.00745600       0.00453500      -0.07336500
Cu       1.25152000      11.26364000      10.00000000  F       0.00230900       0.00168900      -0.01606400
Cu       3.75455000      11.26364000      10.00000000  F      -0.01230300       0.00166400      -0.06271000
Cu       6.25758000      11.26364000      10.00000000  F       0.00845000       0.00200800      -0.06600500
Cu       8.76061000      11.26364000      10.00000000  F      -0.00534700       0.00156800      -0.08369200
Cu      11.26364000      11.26364000      10.00000000  F       0.00013600       0.00192000      -0.05198900
Cu       0.00000000       0.00000000      11.76991000  F      -0.00729700       0.05250400       0.08496500
Cu       2.50303000       0.00000000      11.76991000  F       0.03107700       0.04390300       0.06109800
Cu       5.00606000       0.00000000      11.76991000  F       0.04782100       0.08375500       0.06587600
Cu       7.50909000       0.00000000      11.76991000  F       0.01866800       0.08699700       0.06549700
Cu      10.01212000       0.00000000      11.76991000  F      -0.04689500       0.09245200       0.07007800
Cu       0.00000000       2.50303000      11.76991000  F      -0.06619400       0.05455000       0.07037400
Cu       2.50303000       2.50303000      11.76991000  F       0.07835600       0.02608900       0.05358900
Cu       5.00606000       2.50303000      11.76991000  F      -0.02926600      -0.01768400       0.05489100
Cu       7.50909000       2.50303000      11.76991000  F      -0.01211700      -0.02615600       0.06660900
Cu      10.01212000       2.50303000      11.76991000  F       0.06418900      -0.04196200       0.04791100
Cu       0.00000000       5.00606000      11.76991000  F      -0.08544300       0.00077700       0.04265000
Cu       2.50303000       5.00606000      11.76991000  F       0.09599700       0.00114600       0.10807800
Cu       5.00606000       5.00606000      11.76991000  F      -0.05840900       0.00193000       0.11211200
Cu       7.50909000       5.00606000      11.76991000  F      -0.03122500       0.00186100       0.07695800
Cu      10.01212000       5.00606000      11.76991000  F       0.05645600       0.00058900       0.05561100
Cu       0.00000000       7.50909000      11.76991000  F      -0.06585900      -0.05812500       0.07107500
Cu       2.50303000       7.50909000      11.76991000  F       0.07843700      -0.02902500       0.05466200
Cu       5.00606000       7.50909000      11.76991000  F      -0.02733700       0.01464900       0.05589800
Cu       7.50909000       7.50909000      11.76991000  F      -0.01284900       0.02210000       0.06766000
Cu      10.01212000       7.50909000      11.76991000  F       0.06557100       0.04020000       0.04787300
Cu       0.00000000      10.01212000      11.76991000  F      -0.00633400      -0.05052400       0.08302900
Cu       2.50303000      10.01212000      11.76991000  F       0.03247800      -0.04321200       0.06144800
Cu       5.00606000      10.01212000      11.76991000  F       0.04668600      -0.08174100       0.06585700
Cu       7.50909000      10.01212000      11.76991000  F       0.01932300      -0.08420100       0.06377600
Cu      10.01212000      10.01212000      11.76991000  F      -0.04790600      -0.09062200       0.06961900
Cu       1.26470000       1.25060000      13.57598000  T      -0.00042700       0.00062900      -0.00065300
Cu       3.78109000       1.26550000      13.60020000  T      -0.00042500       0.00047500      -0.00050800
Cu       6.28424000       1.27690000      13.60831000  T      -0.00074400       0.00028900      -0.00046500
Cu       8.76089000       1.28202000      13.61313000  T      -0.00087600       0.00026400      -0.00080300
Cu      11.25783000       1.26381000      13.59609000  T      -0.00085000       0.00073400      -0.00079900
Cu       1.25739000       3.76510000      13.57707000  T      -0.00076400      -0.00003400      -0.00107500
Cu       3.75466000       3.75853000      13.61042000  T      -0.00001300      -0.00017600      -0.00116500
Cu       6.27213000       3.76155000      13.56696000  T       0.00000300      -0.00008800      -0.00112000
Cu       8.74915000       3.76525000      13.55756000  T      -0.00018000       0.00031600      -0.00050600
Cu      11.24032000       3.76492000      13.60952000  T      -0.00001200       0.00084200      -0.00007100
Cu       1.25742000       6.24648000      13.57695000  T      -0.00086200       0.00000000      -0.00109000
Cu       3.75535000       6.25384000      13.61008000  T      -0.00001200       0.00003700      -0.00120400
Cu       6.27279000       6.25033000      13.56720000  T       0.00003200       0.00001100      -0.00117200
Cu       8.74957000       6.24671000      13.55735000  T      -0.00018100      -0.00035900      -0.00053400
Cu      11.24064000       6.24705000      13.60901000  T      -0.00006100      -0.00061900      -0.00003300
Cu       1.26508000       8.76075000      13.57605000  T      -0.00042700      -0.00061100      -0.00074000
Cu       3.78115000       8.74657000      13.60048000  T      -0.00034900      -0.00053300      -0.00060200
Cu       6.28436000       8.73550000      13.60800000  T      -0.00066600      -0.00030900      -0.00046800
Cu       8.76105000       8.73042000      13.61280000  T      -0.00081700      -0.00026800      -0.00077800
Cu      11.25820000       8.74867000      13.59594000  T      -0.00079700      -0.00049800      -0.00079300
Cu       1.24831000      11.26369000      13.59155000  T       0.00066400       0.00000700      -0.00085100
Cu       3.74481000      11.26398000      13.57088000  T       0.00093300       0.00001100      -0.00048800
Cu       6.25364000      11.26420000      13.56407000  T       0.00057800       0.00002500      -0.00041700
Cu       8.76216000      11.26384000      13.56727000  T       0.00021300       0.00000500      -0.00052400
Cu      11.27070000      11.26404000      13.57443000  T       0.00019300       0.00008100      -0.00082500
Cu      12.51034000       0.00573000      15.36503000  T       0.00031600       0.00021500      -0.00165600
Cu       2.50712000      12.51755000      15.36380000  T       0.00039300       0.00021800      -0.00096700
Cu       5.00550000      12.48353000      15.35289000  T       0.00029400       0.00023100      -0.00083100
Cu       7.50572000      12.49623000      15.34497000  T       0.00020700       0.00013800      -0.00070600
Cu      10.01199000      12.49628000      15.35197000  T       0.00020500       0.00030000      -0.00103500
Cu       0.05235000       2.49830000      15.34778000  T      -0.00215600      -0.00008300      -0.00140000
Cu       2.51785000       2.49330000      15.36576000  T      -0.00215300       0.00036600      -0.00155400
Cu       5.00190000       2.41639000      15.45493000  T      -0.00275100       0.00032900      -0.00126500
Cu       7.55934000       2.50765000      15.47035000  T      -0.00277600      -0.00034200      -0.00189200
Cu      10.09846000       2.45546000      15.44806000  T      -0.00137200      -0.00027700      -0.00188400
Cu      12.47936000       5.00606000      15.35323000  T       0.00110100       0.00015600      -0.00000400
Cu       2.41131000       5.00635000      15.48642000  T       0.00321400      -0.00019600      -0.00837600
Pd       5.01813000       5.00598000      15.47777000  T      -0.00029100      -0.00013000      -0.00457900
Y        7.47160000       5.00578000      17.24550000  T      -0.00153100       0.00000700      -0.00094000
Cu       9.97395000       5.00665000      15.45038000  T       0.00113900       0.00004900      -0.00100100
Cu       0.05194000       7.51409000      15.34723000  T      -0.00227300       0.00048700      -0.00145800
Cu       2.51793000       7.51823000      15.36635000  T      -0.00234000      -0.00047200      -0.00196700
Cu       5.00282000       7.59591000      15.45515000  T      -0.00277300      -0.00038200      -0.00120000
Cu       7.55976000       7.50378000      15.47030000  T      -0.00296200       0.00039200      -0.00205000
Cu      10.09858000       7.55670000      15.44766000  T      -0.00153700       0.00045100      -0.00193500
Cu      12.51102000      10.00784000      15.36479000  T       0.00057500       0.00011600      -0.00136900
Cu       2.50799000      10.00972000      15.36367000  T       0.00059300      -0.00030700      -0.00108900
Cu       5.00630000      10.04327000      15.35227000  T       0.00041600      -0.00025200      -0.00088300
Cu       7.50612000      10.02984000      15.34472000  T       0.00033700      -0.00000200      -0.00068600
Cu      10.01232000      10.03043000      15.35171000  T       0.00038500      -0.00006100      -0.00100700
O        6.15570000       3.39979000      16.64342000  T      -0.00326400       0.00105800      -0.00007700
O        6.15597000       6.61149000      16.64328000  T      -0.00317600      -0.00101500      -0.00017300
O        8.99331000       6.43119000      16.54563000  T      -0.00289700      -0.00089700      -0.00103400
O        8.99325000       3.58130000      16.54518000  T      -0.00275500       0.00099700      -0.00088800
C        2.56335000       5.02033000      17.43466000  T      -0.01057900      -0.00015800      -0.01161900
O        1.37953000       5.03982000      18.13001000  T      -0.02897700      -0.00026700      -0.01427700
O        3.62759000       5.01062000      18.04565000  T      -0.01995900       0.00050100       0.00899000
H        1.62221000       5.04260000      19.08938000  T      -0.03325900      -0.00014800      -0.01613500
108
Lattice="12.515153631 0.0 0.0 0.0 12.515153631 0.0 0.0 0.0 25.30973" Properties=species:S:1:pos:R:3:move_mask:L:1:forces:R:3 stress="0.008012200298859835 3.0708224899345633e-06 0.00021360940832422862 3.0708224899345633e-06 0.008093764340116877 -1.572860299722581e-06 0.00021360940832422862 -1.572860299722581e-06 0.002122106861291182" free_energy=-445.06553912 energy=-445.06574728 pbc="T T T"
Cu       1.25152000       1.25152000      10.00000000  F       0.00324000      -0.00254800      -0.06949100
Cu       3.75455000       1.25152000      10.00000000  F       0.00010700       0.01553200      -0.06897100
Cu       6.25758000       1.25152000      10.00000000  F       0.00593900       0.01290800      -0.06809700
Cu       8.76061000       1.25152000      10.00000000  F      -0.00256200      -0.00045900      -0.04392600
Cu      11.26364000       1.25152000      10.00000000  F      -0.00704700      -0.00856100      -0.07429000
Cu       1.25152000       3.75455000      10.00000000  F      -0.01039400       0.00515900      -0.06364300
Cu       3.75455000       3.75455000      10.00000000  F       0.01784500      -0.01939800      -0.04591600
Cu       6.25758000       3.75455000      10.00000000  F      -0.02102000      -0.01774600      -0.07915900
Cu       8.76061000       3.75455000      10.00000000  F       0.00830600      -0.01595700      -0.07776800
Cu      11.26364000       3.75455000      10.00000000  F       0.00881300       0.01010900      -0.05643400
Cu       1.25152000       6.25758000      10.00000000  F      -0.01092800      -0.00386700      -0.06532800
Cu       3.75455000       6.25758000      10.00000000  F       0.01921500       0.01997700      -0.04648300
Cu       6.25758000       6.25758000      10.00000000  F      -0.02113300       0.01960800      -0.08207800
Cu       8.76061000       6.25758000      10.00000000  F       0.00703700       0.01650600      -0.07838800
Cu      11.26364000       6.25758000      10.00000000  F       0.00930700      -0.00875100      -0.05783200
Cu       1.25152000       8.76061000      10.00000000  F       0.00339900      -0.00082300      -0.06825800
Cu       3.75455000       8.76061000      10.00000000  F      -0.00075400      -0.01812700      -0.06798500
Cu       6.25758000       8.76061000      10.00000000  F       0.00617300      -0.01714900      -0.06604800
Cu       8.76061000       8.76061000      10.00000000  F      -0.00212800      -0.00202100      -0.04289400
Cu      11.26364000       8.76061000      10.00000000  F      -0.00699800       0.00490000      -0.07314700
Cu       1.25152000      11.26364000      10.00000000  F       0.00331700       0.00167200      -0.01553800
Cu       3.75455000      11.26364000      10.00000000  F      -0.01136300       0.00164500      -0.06185000
Cu       6.25758000      11.26364000      10.00000000  F       0.00878000       0.00199000      -0.06519100
Cu       8.76061000      11.26364000      10.00000000  F      -0.00531900       0.00155500      -0.08320400
Cu      11.26364000      11.26364000      10.00000000  F       0.00062400       0.00190600      -0.05166000
Cu       0.00000000       0.00000000      11.76991000  F      -0.00645400       0.05228500       0.08513700
Cu       2.50303000       0.00000000      11.76991000  F       0.03234900       0.04356400       0.06145900
Cu       5.00606000       0.00000000      11.76991000  F       0.04851000       0.08335000       0.06629400
Cu       7.50909000       0.00000000      11.76991000  F       0.01855800       0.08670400       0.06579800
Cu      10.01212000       0.00000000      11.76991000  F      -0.04689600       0.09221800       0.07023400
Cu       0.00000000       2.50303000      11.76991000  F      -0.06556000       0.05414300       0.07074000
Cu       2.50303000       2.50303000      11.76991000  F       0.07941900       0.02549200       0.05408900
Cu       5.00606000       2.50303000      11.76991000  F      -0.02859100      -0.01839200       0.05544200
Cu       7.50909000       2.50303000      11.76991000  F      -0.01202900      -0.02672000       0.06708100
Cu      10.01212000       2.50303000      11.76991000  F       0.06427300      -0.04223800       0.04836500
Cu       0.00000000       5.00606000      11.76991000  F      -0.08489100       0.00076500       0.04314800
Cu       2.50303000       5.00606000      11.76991000  F       0.09695500       0.00113200       0.10873800
Cu       5.00606000       5.00606000      11.76991000  F      -0.05767600       0.00191000       0.11282600
Cu       7.50909000       5.00606000      11.76991000  F      -0.03101300       0.00183700       0.07758300
Cu      10.01212000       5.00606000      11.76991000  F       0.05660000       0.00057400       0.05618800
Cu       0.00000000       7.50909000      11.76991000  F      -0.06523200      -0.05774300       0.07144400
Cu       2.50303000       7.50909000      11.76991000  F       0.07949700      -0.02847100       0.05516800
Cu       5.00606000       7.50909000      11.76991000  F      -0.02666000       0.01531300       0.05644500
Cu       7.50909000       7.50909000      11.76991000  F      -0.01275400       0.02263400       0.06813300
Cu      10.01212000       7.50909000      11.76991000  F       0.06566100       0.04045500       0.04833100
Cu       0.00000000      10.01212000      11.76991000  F      -0.00549000      -0.05033400       0.08319900
Cu       2.50303000      10.01212000      11.76991000  F       0.03374800      -0.04290500       0.06181000
Cu       5.00606000      10.01212000      11.76991000  F       0.04737800      -0.08136700       0.06628200
Cu       7.50909000      10.01212000      11.76991000  F       0.01921200      -0.08394200       0.06408000
Cu      10.01212000      10.01212000      11.76991000  F      -0.04790200      -0.09041900       0.06977400
Cu       1.26466000       1.25060000      13.57594000  T       0.00001900       0.00027600      -0.00066500
Cu       3.78105000       1.26549000      13.60016000  T      -0.00032800      -0.00012600      -0.00065900
Cu       6.28420000       1.27688000      13.60828000  T      -0.00142200      -0.00018900      -0.00046000
Cu       8.76085000       1.28200000      13.61308000  T      -0.00166400       0.00000200      -0.00070400
Cu      11.25778000       1.26382000      13.59604000  T      -0.00100700       0.00063800      -0.00082000
Cu       1.25732000       3.76507000      13.57700000  T      -0.00085300      -0.00052600      -0.00126700
Cu       3.75464000       3.75850000      13.61034000  T       0.00053600      -0.00072000      -0.00138300
Cu       6.27213000       3.76152000      13.56690000  T      -0.00026800      -0.00041900      -0.00064500
Cu       8.74914000       3.76525000      13.55753000  T      -0.00049400       0.00020700       0.00037000
Cu      11.24030000       3.76494000      13.60950000  T       0.00003200       0.00092600       0.00064300
Cu       1.25735000       6.24650000      13.57688000  T      -0.00102900       0.00048800      -0.00128600
Cu       3.75534000       6.25386000      13.61000000  T       0.00052800       0.00052000      -0.00143200
Cu       6.27279000       6.25036000      13.56713000  T      -0.00017900       0.00034100      -0.00073900
Cu       8.74956000       6.24671000      13.55732000  T      -0.00047600      -0.00027500       0.00032200
Cu      11.24062000       6.24705000      13.60899000  T      -0.00001900      -0.00060600       0.00066700
Cu       1.26504000       8.76075000      13.57601000  T       0.00002100      -0.00019600      -0.00077300
Cu       3.78111000       8.74659000      13.60044000  T      -0.00021000       0.00002700      -0.00078600
Cu       6.28433000       8.73552000      13.60797000  T      -0.00132400       0.00013200      -0.00045500
Cu       8.76101000       8.73044000      13.61275000  T      -0.00156800      -0.00003100      -0.00071400
Cu      11.25815000       8.74868000      13.59589000  T      -0.00092600      -0.00030800      -0.00080800
Cu       1.24832000      11.26370000      13.59150000  T       0.00177800       0.00000900      -0.00116300
Cu       3.74483000      11.26399000      13.57085000  T       0.00163000       0.00000500      -0.00077600
Cu       6.25366000      11.26420000      13.56404000  T       0.00039600       0.00003000      -0.00059500
Cu       8.76216000      11.26384000      13.56723000  T      -0.00019400       0.00000400      -0.00061400
Cu      11.27069000      11.26404000      13.57438000  T       0.00054700       0.00011100      -0.00095800
Cu      12.51033000       0.00573000      15.36492000  T       0.00077800       0.00013000      -0.00268100
Cu       2.50712000      12.51755000      15.36373000  T       0.00099300      -0.00001600      -0.00183800
Cu       5.00550000      12.48352000      15.35282000  T       0.00039000       0.00005300      -0.00151200
Cu       7.50573000      12.49622000      15.34491000  T      -0.00009900       0.00006700      -0.00112700
Cu      10.01199000      12.49628000      15.35189000  T       0.00011500       0.00034400      -0.00146600
Cu       0.05224000       2.49827000      15.34770000  T      -0.00308100      -0.00040700      -0.00172800
Cu       2.51774000       2.49329000      15.36568000  T      -0.00295000       0.00001500      -0.00209000
Cu       5.00176000       2.41637000      15.45485000  T      -0.00373900       0.00025700      -0.00161200
Cu       7.55921000       2.50762000      15.47025000  T      -0.00454700      -0.00025400      -0.00210500
Cu      10.09838000       2.45544000      15.44796000  T      -0.00298900       0.00029000      -0.00192600
Cu      12.47939000       5.00607000      15.35323000  T       0.00162400       0.00023900       0.00106400
Cu       2.41144000       5.00634000      15.48591000  T       0.00495200      -0.00027300      -0.01286200
Pd       5.01811000       5.00598000      15.47769000  T       0.00117600      -0.00016200      -0.01097500
Y        7.47153000       5.00578000      17.24540000  T      -0.00281200       0.00000300      -0.00208000
Cu       9.97398000       5.00666000      15.45032000  T       0.00077000       0.00008300      -0.00055000
Cu       0.05183000       7.51414000      15.34715000  T      -0.00323700       0.00103800      -0.00180000
Cu       2.51781000       7.51824000      15.36625000  T      -0.00322800      -0.00017100      -0.00273500
Cu       5.00268000       7.59592000      15.45507000  T      -0.00384900      -0.00030600      -0.00157400
Cu       7.55963000       7.50381000      15.47019000  T      -0.00469500       0.00035100      -0.00234700
Cu      10.09849000       7.55673000      15.44755000  T      -0.00320700      -0.00004600      -0.00203800
Cu      12.51103000      10.00786000      15.36469000  T       0.00114700       0.00036200      -0.00216700
Cu       2.50799000      10.00972000      15.36360000  T       0.00126200      -0.00018400      -0.00199800
Cu       5.00631000      10.04328000      15.35221000  T       0.00057000      -0.00012000      -0.00165200
Cu       7.50613000      10.02986000      15.34465000  T       0.00005400       0.00012000      -0.00117400
Cu      10.01233000      10.03044000      15.35162000  T       0.00039800      -0.00000100      -0.00150000
O        6.15548000       3.39981000      16.64341000  T      -0.00437200       0.00105400      -0.00050600
O        6.15576000       6.61147000      16.64327000  T      -0.00431700      -0.00102800      -0.00064700
O        8.99312000       6.43118000      16.54549000  T      -0.00335300      -0.00049100      -0.00251200
O        8.99307000       3.58132000      16.54505000  T      -0.00330200       0.00058000      -0.00242900
C        2.56244000       5.02032000      17.43412000  T      -0.01815700      -0.00000300      -0.00555400
O        1.37762000       5.03980000      18.12867000  T      -0.02616200      -0.00027200      -0.01428700
O        3.62599000       5.01065000      18.04621000  T      -0.02910600       0.00070900       0.00830400
H        1.61968000       5.04258000      19.08826000  T      -0.03402600      -0.00018400      -0.01840600
108
Lattice="12.515153631 0.0 0.0 0.0 12.515153631 0.0 0.0 0.0 25.30973" Properties=species:S:1:pos:R:3:move_mask:L:1:forces:R:3 stress="0.00801137641965522 3.0645809808086796e-06 0.00021232365744429667 3.0645809808086796e-06 0.008092104098689393 -1.4917206810860988e-06 0.00021232365744429667 -1.4917206810860988e-06 0.002118942416164359" free_energy=-445.0655397 energy=-445.06574548 pbc="T T T"
Cu       1.25152000       1.25152000      10.00000000  F       0.00226500      -0.00237300      -0.06933800
Cu       3.75455000       1.25152000      10.00000000  F      -0.00077600       0.01580000      -0.06925800
Cu       6.25758000       1.25152000      10.00000000  F       0.00580100       0.01315300      -0.06842300
Cu       8.76061000       1.25152000      10.00000000  F      -0.00234700      -0.00032700      -0.04385800
Cu      11.26364000       1.25152000      10.00000000  F      -0.00734000      -0.00847100      -0.07394500
Cu       1.25152000       3.75455000      10.00000000  F      -0.01126500       0.00525500      -0.06351900
Cu       3.75455000       3.75455000      10.00000000  F       0.01701500      -0.01923200      -0.04612000
Cu       6.25758000       3.75455000      10.00000000  F      -0.02124800      -0.01758500      -0.07942700
Cu       8.76061000       3.75455000      10.00000000  F       0.00844100      -0.01586200      -0.07774200
Cu      11.26364000       3.75455000      10.00000000  F       0.00852500       0.01016700      -0.05615700
Cu       1.25152000       6.25758000      10.00000000  F      -0.01179700      -0.00395000      -0.06520500
Cu       3.75455000       6.25758000      10.00000000  F       0.01838400       0.01982800      -0.04668900
Cu       6.25758000       6.25758000      10.00000000  F      -0.02136200       0.01946600      -0.08234700
Cu       8.76061000       6.25758000      10.00000000  F       0.00717200       0.01643000      -0.07835900
Cu      11.26364000       6.25758000      10.00000000  F       0.00902000      -0.00879200      -0.05755600
Cu       1.25152000       8.76061000      10.00000000  F       0.00242400      -0.00098000      -0.06810600
Cu       3.75455000       8.76061000      10.00000000  F      -0.00163500      -0.01837800      -0.06827500
Cu       6.25758000       8.76061000      10.00000000  F       0.00603600      -0.01737600      -0.06637500
Cu       8.76061000       8.76061000      10.00000000  F      -0.00191200      -0.00213500      -0.04282900
Cu      11.26364000       8.76061000      10.00000000  F      -0.00729400       0.00482800      -0.07280400
Cu       1.25152000      11.26364000      10.00000000  F       0.00227600       0.00168100      -0.01539900
Cu       3.75455000      11.26364000      10.00000000  F      -0.01226300       0.00165300      -0.06217100
Cu       6.25758000      11.26364000      10.00000000  F       0.00870500       0.00199700      -0.06555400
Cu       8.76061000      11.26364000      10.00000000  F      -0.00505300       0.00156200      -0.08312600
Cu      11.26364000      11.26364000      10.00000000  F       0.00030100       0.00191300      -0.05126400
Cu       0.00000000       0.00000000      11.76991000  F      -0.00734800       0.05229700       0.08488800
Cu       2.50303000       0.00000000      11.76991000  F       0.03099800       0.04363900       0.06096600
Cu       5.00606000       0.00000000      11.76991000  F       0.04798000       0.08346000       0.06566700
Cu       7.50909000       0.00000000      11.76991000  F       0.01899500       0.08678200       0.06531900
Cu      10.01212000       0.00000000      11.76991000  F      -0.04668700       0.09218900       0.06998100
Cu       0.00000000       2.50303000      11.76991000  F      -0.06646600       0.05409000       0.07022300
Cu       2.50303000       2.50303000      11.76991000  F       0.07814300       0.02555300       0.05332800
Cu       5.00606000       2.50303000      11.76991000  F      -0.02917500      -0.01826500       0.05455100
Cu       7.50909000       2.50303000      11.76991000  F      -0.01170400      -0.02665900       0.06640800
Cu      10.01212000       2.50303000      11.76991000  F       0.06442000      -0.04221800       0.04795700
Cu       0.00000000       5.00606000      11.76991000  F      -0.08572700       0.00077100       0.04245700
Cu       2.50303000       5.00606000      11.76991000  F       0.09569400       0.00113500       0.10786700
Cu       5.00606000       5.00606000      11.76991000  F      -0.05820100       0.00191300       0.11177000
Cu       7.50909000       5.00606000      11.76991000  F      -0.03074200       0.00183900       0.07683100
Cu      10.01212000       5.00606000      11.76991000  F       0.05671400       0.00058600       0.05565000
Cu       0.00000000       7.50909000      11.76991000  F      -0.06614600      -0.05766400       0.07092100
Cu       2.50303000       7.50909000      11.76991000  F       0.07822200      -0.02852400       0.05440500
Cu       5.00606000       7.50909000      11.76991000  F      -0.02723300       0.01519500       0.05554500
Cu       7.50909000       7.50909000      11.76991000  F      -0.01242200       0.02259300       0.06745000
Cu      10.01212000       7.50909000      11.76991000  F       0.06581000       0.04046200       0.04792000
Cu       0.00000000      10.01212000      11.76991000  F      -0.00638700      -0.05030800       0.08293800
Cu       2.50303000      10.01212000      11.76991000  F       0.03240200      -0.04295100       0.06131000
Cu       5.00606000      10.01212000      11.76991000  F       0.04685800      -0.08145300       0.06565000
Cu       7.50909000      10.01212000      11.76991000  F       0.01965200      -0.08400100       0.06360500
Cu      10.01212000      10.01212000      11.76991000  F      -0.04769300      -0.09036000       0.06951800
Cu       1.26465000       1.25060000      13.57589000  T      -0.00218100       0.00081600      -0.00084400
Cu       3.78103000       1.26547000      13.60012000  T      -0.00259200       0.00111700      -0.00019400
Cu       6.28415000       1.27687000      13.60824000  T      -0.00060600       0.00106200       0.00032200
Cu       8.76078000       1.28199000      13.61304000  T       0.00112700       0.00068100      -0.00016900
Cu      11.25773000       1.26383000      13.59599000  T      -0.00002100       0.00089100      -0.00075700
Cu       1.25728000       3.76506000      13.57694000  T      -0.00241000      -0.00026000      -0.00270200
Cu       3.75465000       3.75847000      13.61026000  T      -0.00158900      -0.00035300      -0.00261100
Cu       6.27212000       3.76150000      13.56684000  T       0.00056700       0.00022100      -0.00119200
Cu       8.74912000       3.76525000      13.55752000  T       0.00169200       0.00072000      -0.00005600
Cu      11.24030000       3.76497000      13.60949000  T       0.00097800       0.00107200      -0.00038700
Cu       1.25730000       6.24652000      13.57681000  T      -0.00259300       0.00019400      -0.00270200
Cu       3.75534000       6.25389000      13.60992000  T      -0.00158400       0.00010200      -0.00267600
Cu       6.27279000       6.25038000      13.56707000  T       0.00057600      -0.00035800      -0.00124200
Cu       8.74954000       6.24671000      13.55731000  T       0.00171800      -0.00083600      -0.00012900
Cu      11.24061000       6.24703000      13.60899000  T       0.00091900      -0.00078900      -0.00035700
Cu       1.26503000       8.76076000      13.57596000  T      -0.00221000      -0.00078900      -0.00098100
Cu       3.78110000       8.74660000      13.60039000  T      -0.00247200      -0.00122500      -0.00033300
Cu       6.28428000       8.73553000      13.60793000  T      -0.00048700      -0.00110400       0.00029900
Cu       8.76096000       8.73044000      13.61271000  T       0.00118900      -0.00070700      -0.00014300
Cu      11.25811000       8.74868000      13.59584000  T       0.00003500      -0.00057100      -0.00074700
Cu       1.24838000      11.26370000      13.59144000  T      -0.00076600       0.00001200      -0.00048200
Cu       3.74488000      11.26399000      13.57080000  T      -0.00103000       0.00001100       0.00035400
Cu       6.25368000      11.26420000      13.56401000  T       0.00130600       0.00002800       0.00072300
Cu       8.76216000      11.26384000      13.56719000  T       0.00309100      -0.00000500       0.00041500
Cu      11.27071000      11.26405000      13.57432000  T       0.00161000       0.00010600      -0.00041100
Cu      12.51035000       0.00573000      15.36483000  T       0.00028300       0.00001200      -0.00350000
Cu       2.50714000      12.51754000      15.36366000  T      -0.00118100       0.00010100      -0.00094600
Cu       5.00551000      12.48352000      15.35276000  T      -0.00031000       0.00029500       0.00089700
Cu       7.50573000      12.49621000      15.34486000  T       0.00182200       0.00020200       0.00093400
Cu      10.01200000      12.49629000      15.35183000  T       0.00217500       0.00017700      -0.00131800
Cu       0.05212000       2.49826000      15.34763000  T      -0.00402900      -0.00087100      -0.00252900
Cu       2.51762000       2.49328000      15.36560000  T      -0.00523400      -0.00012100      -0.00195200
Cu       5.00163000       2.41639000      15.45481000  T      -0.00472000       0.00017600      -0.00041100
Cu       7.55906000       2.50762000      15.47018000  T      -0.00338800      -0.00016800      -0.00135500
Cu      10.09826000       2.45545000      15.44789000  T      -0.00145500      -0.00007500      -0.00199700
Cu      12.47945000       5.00608000      15.35326000  T       0.00135300       0.00026300       0.00059500
Cu       2.41160000       5.00633000      15.48556000  T       0.00267600      -0.00024000      -0.00911300
Pd       5.01809000       5.00598000      15.47757000  T       0.00534800      -0.00029600      -0.01723300
Y        7.47142000       5.00578000      17.24533000  T      -0.00158900       0.00000400      -0.00085600
Cu       9.97400000       5.00666000      15.45030000  T       0.00226800       0.00007400      -0.00081400
Cu       0.05171000       7.51417000      15.34708000  T      -0.00417900       0.00152300      -0.00259100
Cu       2.51768000       7.51824000      15.36615000  T      -0.00554900      -0.00008800      -0.00277500
Cu       5.00255000       7.59590000      15.45503000  T      -0.00484800      -0.00023100      -0.00039100
Cu       7.55947000       7.50382000      15.47012000  T      -0.00343800       0.00021800      -0.00157500
Cu      10.09837000       7.55673000      15.44748000  T      -0.00170100       0.00034500      -0.00213800
Cu      12.51106000      10.00788000      15.36461000  T       0.00072700       0.00054200      -0.00290800
Cu       2.50803000      10.00972000      15.36352000  T      -0.00087000      -0.00031600      -0.00130200
Cu       5.00633000      10.04328000      15.35214000  T      -0.00008000      -0.00039800       0.00068100
Cu       7.50614000      10.02987000      15.34460000  T       0.00199500      -0.00001700       0.00083700
Cu      10.01235000      10.03044000      15.35157000  T       0.00248500       0.00017800      -0.00133800
O        6.15531000       3.39983000      16.64340000  T      -0.00252700       0.00084200       0.00121000
O        6.15558000       6.61145000      16.64325000  T      -0.00251500      -0.00082200       0.00109300
O        8.99301000       6.43117000      16.54540000  T      -0.00203800      -0.00025200      -0.00119800
O        8.99296000       3.58133000      16.54496000  T      -0.00181100       0.00037400      -0.00102000
C        2.56165000       5.02032000      17.43398000  T      -0.01651000      -0.00002300      -0.00555100
O        1.37664000       5.03979000      18.12808000  T      -0.02284100      -0.00032400      -0.01728800
O        3.62492000       5.01068000      18.04655000  T      -0.02218600       0.00063200       0.00939400
H        1.61849000       5.04258000      19.08764000  T      -0.03443300      -0.00012500      -0.01581900
108
Lattice="12.515153631 0.0 0.0 0.0 12.515153631 0.0 0.0 0.0 25.30973" Properties=species:S:1:pos:R:3:move_mask:L:1:forces:R:3 stress="0.008001639665418841 3.0895470173122134e-06 0.00021060724243467878 3.0895470173122134e-06 0.008082760559527946 -1.4417886080790327e-06 0.00021060724243467878 -1.4417886080790327e-06 0.002111596159923195" free_energy=-445.06586662 energy=-445.06606762 pbc="T T T"
Cu       1.25152000       1.25152000      10.00000000  F       0.00261400      -0.00224900      -0.06973500
Cu       3.75455000       1.25152000      10.00000000  F      -0.00052400       0.01594600      -0.06949800
Cu       6.25758000       1.25152000      10.00000000  F       0.00585400       0.01328000      -0.06868400
Cu       8.76061000       1.25152000      10.00000000  F      -0.00233200      -0.00021600      -0.04424600
Cu      11.26364000       1.25152000      10.00000000  F      -0.00714000      -0.00834500      -0.07442700
Cu       1.25152000       3.75455000      10.00000000  F      -0.01090300       0.00532900      -0.06379100
Cu       3.75455000       3.75455000      10.00000000  F       0.01727400      -0.01915700      -0.04626000
Cu       6.25758000       3.75455000      10.00000000  F      -0.02120700      -0.01750600      -0.07957100
Cu       8.76061000       3.75455000      10.00000000  F       0.00845100      -0.01577600      -0.07805100
Cu      11.26364000       3.75455000      10.00000000  F       0.00872200       0.01024500      -0.05653400
Cu       1.25152000       6.25758000      10.00000000  F      -0.01143400      -0.00402100      -0.06547400
Cu       3.75455000       6.25758000      10.00000000  F       0.01864500       0.01975800      -0.04682300
Cu       6.25758000       6.25758000      10.00000000  F      -0.02132100       0.01939300      -0.08248400
Cu       8.76061000       6.25758000      10.00000000  F       0.00718100       0.01634900      -0.07866200
Cu      11.26364000       6.25758000      10.00000000  F       0.00921400      -0.00886700      -0.05793300
Cu       1.25152000       8.76061000      10.00000000  F       0.00277400      -0.00111100      -0.06849800
Cu       3.75455000       8.76061000      10.00000000  F      -0.00138000      -0.01853100      -0.06850400
Cu       6.25758000       8.76061000      10.00000000  F       0.00608900      -0.01751100      -0.06662200
Cu       8.76061000       8.76061000      10.00000000  F      -0.00190000      -0.00225300      -0.04320300
Cu      11.26364000       8.76061000      10.00000000  F      -0.00709600       0.00469400      -0.07328400
Cu       1.25152000      11.26364000      10.00000000  F       0.00261200       0.00167600      -0.01585900
Cu       3.75455000      11.26364000      10.00000000  F      -0.01201600       0.00164500      -0.06246900
Cu       6.25758000      11.26364000      10.00000000  F       0.00878000       0.00198800      -0.06586100
Cu       8.76061000      11.26364000      10.00000000  F      -0.00504800       0.00155500      -0.08360000
Cu      11.26364000      11.26364000      10.00000000  F       0.00050000       0.00190600      -0.05179600
Cu       0.00000000       0.00000000      11.76991000  F      -0.00700400       0.05246600       0.08456500
Cu       2.50303000       0.00000000      11.76991000  F       0.03142400       0.04377200       0.06072400
Cu       5.00606000       0.00000000      11.76991000  F       0.04812900       0.08358600       0.06550800
Cu       7.50909000       0.00000000      11.76991000  F       0.01890400       0.08693900       0.06515000
Cu      10.01212000       0.00000000      11.76991000  F      -0.04666200       0.09234200       0.06969600
Cu       0.00000000       2.50303000      11.76991000  F      -0.06628300       0.05430700       0.06980300
Cu       2.50303000       2.50303000      11.76991000  F       0.07847600       0.02572000       0.05291800
Cu       5.00606000       2.50303000      11.76991000  F      -0.02903800      -0.01812100       0.05424100
Cu       7.50909000       2.50303000      11.76991000  F      -0.01177500      -0.02645500       0.06617900
Cu      10.01212000       2.50303000      11.76991000  F       0.06443600      -0.04186700       0.04775800
Cu       0.00000000       5.00606000      11.76991000  F      -0.08554900       0.00077100       0.04200900
Cu       2.50303000       5.00606000      11.76991000  F       0.09601600       0.00113100       0.10752800
Cu       5.00606000       5.00606000      11.76991000  F      -0.05801800       0.00190300       0.11145200
Cu       7.50909000       5.00606000      11.76991000  F      -0.03077300       0.00182700       0.07659900
Cu      10.01212000       5.00606000      11.76991000  F       0.05676200       0.00058600       0.05541000
Cu       0.00000000       7.50909000      11.76991000  F      -0.06597100      -0.05787100       0.07049600
Cu       2.50303000       7.50909000      11.76991000  F       0.07855000      -0.02870800       0.05399700
Cu       5.00606000       7.50909000      11.76991000  F      -0.02708800       0.01503500       0.05522400
Cu       7.50909000       7.50909000      11.76991000  F      -0.01248500       0.02238600       0.06721200
Cu      10.01212000       7.50909000      11.76991000  F       0.06583200       0.04012300       0.04771800
Cu       0.00000000      10.01212000      11.76991000  F      -0.00604600      -0.05046500       0.08260500
Cu       2.50303000      10.01212000      11.76991000  F       0.03283000      -0.04308300       0.06106000
Cu       5.00606000      10.01212000      11.76991000  F       0.04701500      -0.08158000       0.06549000
Cu       7.50909000      10.01212000      11.76991000  F       0.01956400      -0.08416000       0.06343800
Cu      10.01212000      10.01212000      11.76991000  F      -0.04766500      -0.09050700       0.06923200
Cu       1.26461000       1.25061000      13.57584000  T       0.00022800      -0.00026700      -0.00063300
Cu       3.78098000       1.26548000      13.60007000  T       0.00032400      -0.00063400      -0.00091500
Cu       6.28410000       1.27687000      13.60821000  T      -0.00097100      -0.00061500      -0.00099600
Cu       8.76074000       1.28200000      13.61299000  T      -0.00183300      -0.00034600      -0.00089800
Cu      11.25769000       1.26386000      13.59593000  T      -0.00118000      -0.00001200      -0.00075000
Cu       1.25721000       3.76503000      13.57684000  T      -0.00026100      -0.00031900      -0.00044600
Cu       3.75463000       3.75843000      13.61016000  T       0.00049600      -0.00045500      -0.00070000
Cu       6.27212000       3.76149000      13.56678000  T      -0.00056500      -0.00042900      -0.00074700
Cu       8.74912000       3.76526000      13.55751000  T      -0.00126600      -0.00020600      -0.00033900
Cu      11.24030000       3.76501000      13.60949000  T      -0.00085300       0.00016100       0.00013800
Cu       1.25722000       6.24655000      13.57671000  T      -0.00032200       0.00035100      -0.00047900
Cu       3.75533000       6.25391000      13.60981000  T       0.00048300       0.00044000      -0.00071600
Cu       6.27279000       6.25039000      13.56700000  T      -0.00052000       0.00046900      -0.00078800
Cu       8.74954000       6.24670000      13.55729000  T      -0.00125400       0.00023800      -0.00034600
Cu      11.24061000       6.24701000      13.60898000  T      -0.00086800      -0.00003800       0.00011200
Cu       1.26499000       8.76075000      13.57590000  T       0.00023800       0.00034500      -0.00065700
Cu       3.78106000       8.74659000      13.60034000  T       0.00036000       0.00062800      -0.00096100
Cu       6.28423000       8.73553000      13.60790000  T      -0.00094400       0.00062500      -0.00098900
Cu       8.76092000       8.73044000      13.61266000  T      -0.00179700       0.00035600      -0.00092900
Cu      11.25807000       8.74867000      13.59578000  T      -0.00115000       0.00014500      -0.00074100
Cu       1.24841000      11.26370000      13.59138000  T       0.00096400       0.00001700      -0.00104500
Cu       3.74492000      11.26399000      13.57076000  T       0.00111000       0.00000100      -0.00116600
Cu       6.25371000      11.26420000      13.56398000  T      -0.00035100       0.00002000      -0.00120100
Cu       8.76219000      11.26385000      13.56716000  T      -0.00144000       0.00001800      -0.00104600
Cu      11.27073000      11.26405000      13.57427000  T      -0.00060100       0.00005300      -0.00093000
Cu      12.51037000       0.00573000      15.36470000  T       0.00000700       0.00002700      -0.00074300
Cu       2.50715000      12.51754000      15.36358000  T       0.00078800      -0.00008200      -0.00120800
Cu       5.00552000      12.48353000      15.35272000  T       0.00021900      -0.00007900      -0.00179300
Cu       7.50575000      12.49622000      15.34482000  T      -0.00096600      -0.00004000      -0.00166500
Cu      10.01202000      12.49630000      15.35175000  T      -0.00110100       0.00014000      -0.00104700
Cu       0.05196000       2.49823000      15.34754000  T      -0.00100600      -0.00003000      -0.00066300
Cu       2.51746000       2.49328000      15.36550000  T      -0.00030000      -0.00000700      -0.00113100
Cu       5.00144000       2.41639000      15.45475000  T      -0.00122500      -0.00015000      -0.00146400
Cu       7.55886000       2.50761000      15.47009000  T      -0.00211100      -0.00011000      -0.00130800
Cu      10.09813000       2.45545000      15.44779000  T      -0.00204900       0.00010600      -0.00117200
Cu      12.47953000       5.00609000      15.35329000  T       0.00033000       0.00007800      -0.00007600
Cu       2.41177000       5.00632000      15.48505000  T       0.00186100      -0.00009000      -0.00531700
Pd       5.01815000       5.00598000      15.47726000  T      -0.00203200       0.00006800       0.00326000
Y        7.47131000       5.00578000      17.24524000  T      -0.00222100       0.00002400      -0.00173100
Cu       9.97405000       5.00666000      15.45027000  T      -0.00074300       0.00003900      -0.00044600
Cu       0.05154000       7.51423000      15.34698000  T      -0.00106900       0.00022800      -0.00067400
Cu       2.51750000       7.51824000      15.36602000  T      -0.00033000       0.00000200      -0.00115800
Cu       5.00236000       7.59590000      15.45496000  T      -0.00128700       0.00016000      -0.00150300
Cu       7.55927000       7.50382000      15.47002000  T      -0.00224100       0.00011100      -0.00138400
Cu      10.09822000       7.55674000      15.44737000  T      -0.00205400      -0.00002700      -0.00112600
Cu      12.51110000      10.00790000      15.36450000  T       0.00006200       0.00011800      -0.00068900
Cu       2.50805000      10.00971000      15.36343000  T       0.00085500       0.00004400      -0.00116400
Cu       5.00635000      10.04327000      15.35209000  T       0.00026200       0.00013500      -0.00183100
Cu       7.50617000      10.02987000      15.34456000  T      -0.00091500       0.00008400      -0.00167700
Cu      10.01238000      10.03045000      15.35148000  T      -0.00103000      -0.00000600      -0.00103600
O        6.15507000       3.39989000      16.64339000  T      -0.00355800       0.00066300      -0.00079000
O        6.15535000       6.61139000      16.64323000  T      -0.00350600      -0.00061400      -0.00088300
O        8.99282000       6.43116000      16.54524000  T      -0.00283800      -0.00015400      -0.00244900
O        8.99278000       3.58135000      16.54482000  T      -0.00272500       0.00029100      -0.00225000
C        2.56050000       5.02032000      17.43361000  T      -0.01603300       0.00005100      -0.00586900
O        1.37493000       5.03977000      18.12693000  T      -0.02406900      -0.00026800      -0.01578000
O        3.62322000       5.01072000      18.04710000  T      -0.02169400       0.00060000       0.00637400
H        1.61637000       5.04257000      19.08660000  T      -0.03529600      -0.00016100      -0.01557700
108
Lattice="12.515153631 0.0 0.0 0.0 12.515153631 0.0 0.0 0.0 25.30973" Properties=species:S:1:pos:R:3:move_mask:L:1:forces:R:3 stress="0.007996964775083553 3.0021658895498473e-06 0.00020630060113781932 3.0021658895498473e-06 0.008074222175043737 -1.448030117204916e-06 0.00020630060113781932 -1.448030117204916e-06 0.0020989196548885257" free_energy=-445.06714179 energy=-445.06733846 pbc="T T T"
Cu       1.25152000       1.25152000      10.00000000  F       0.00218300      -0.00238100      -0.06947400
Cu       3.75455000       1.25152000      10.00000000  F      -0.00077800       0.01587500      -0.06961800
Cu       6.25758000       1.25152000      10.00000000  F       0.00603700       0.01319100      -0.06883200
Cu       8.76061000       1.25152000      10.00000000  F      -0.00204200      -0.00037100      -0.04403400
Cu      11.26364000       1.25152000      10.00000000  F      -0.00717000      -0.00848500      -0.07400100
Cu       1.25152000       3.75455000      10.00000000  F      -0.01128100       0.00523700      -0.06371200
Cu       3.75455000       3.75455000      10.00000000  F       0.01704900      -0.01922000      -0.04643300
Cu       6.25758000       3.75455000      10.00000000  F      -0.02107900      -0.01755700      -0.07975900
Cu       8.76061000       3.75455000      10.00000000  F       0.00874000      -0.01585200      -0.07798000
Cu      11.26364000       3.75455000      10.00000000  F       0.00866700       0.01016400      -0.05627700
Cu       1.25152000       6.25758000      10.00000000  F      -0.01181600      -0.00393400      -0.06539100
Cu       3.75455000       6.25758000      10.00000000  F       0.01841700       0.01980900      -0.04698100
Cu       6.25758000       6.25758000      10.00000000  F      -0.02118900       0.01943500      -0.08267300
Cu       8.76061000       6.25758000      10.00000000  F       0.00747400       0.01641700      -0.07859000
Cu      11.26364000       6.25758000      10.00000000  F       0.00916000      -0.00879400      -0.05767200
Cu       1.25152000       8.76061000      10.00000000  F       0.00234500      -0.00099000      -0.06823800
Cu       3.75455000       8.76061000      10.00000000  F      -0.00163600      -0.01846600      -0.06863200
Cu       6.25758000       8.76061000      10.00000000  F       0.00626800      -0.01743100      -0.06678600
Cu       8.76061000       8.76061000      10.00000000  F      -0.00160700      -0.00210800      -0.04299900
Cu      11.26364000       8.76061000      10.00000000  F      -0.00712700       0.00482400      -0.07284800
Cu       1.25152000      11.26364000      10.00000000  F       0.00216100       0.00167100      -0.01557600
Cu       3.75455000      11.26364000      10.00000000  F      -0.01226800       0.00164200      -0.06249900
Cu       6.25758000      11.26364000      10.00000000  F       0.00901100       0.00198500      -0.06595200
Cu       8.76061000      11.26364000      10.00000000  F      -0.00475600       0.00155100      -0.08334900
Cu      11.26364000      11.26364000      10.00000000  F       0.00045800       0.00190200      -0.05122400
Cu       0.00000000       0.00000000      11.76991000  F      -0.00735400       0.05241600       0.08419100
Cu       2.50303000       0.00000000      11.76991000  F       0.03089900       0.04371600       0.06021200
Cu       5.00606000       0.00000000      11.76991000  F       0.04794600       0.08357800       0.06504200
Cu       7.50909000       0.00000000      11.76991000  F       0.01911200       0.08694900       0.06488600
Cu      10.01212000       0.00000000      11.76991000  F      -0.04658300       0.09221000       0.06948100
Cu       0.00000000       2.50303000      11.76991000  F      -0.06680800       0.05407600       0.06917400
Cu       2.50303000       2.50303000      11.76991000  F       0.07800800       0.02553000       0.05205300
Cu       5.00606000       2.50303000      11.76991000  F      -0.02923600      -0.01827600       0.05342500
Cu       7.50909000       2.50303000      11.76991000  F      -0.01165100      -0.02665000       0.06564200
Cu      10.01212000       2.50303000      11.76991000  F       0.06450000      -0.04193100       0.04747900
Cu       0.00000000       5.00606000      11.76991000  F      -0.08605600       0.00075900       0.04122000
Cu       2.50303000       5.00606000      11.76991000  F       0.09554600       0.00112100       0.10653900
Cu       5.00606000       5.00606000      11.76991000  F      -0.05818700       0.00189000       0.11041600
Cu       7.50909000       5.00606000      11.76991000  F      -0.03071400       0.00181600       0.07585200
Cu      10.01212000       5.00606000      11.76991000  F       0.05681700       0.00057900       0.05492300
Cu       0.00000000       7.50909000      11.76991000  F      -0.06650400      -0.05763100       0.06985900
Cu       2.50303000       7.50909000      11.76991000  F       0.07808200      -0.02853800       0.05313100
Cu       5.00606000       7.50909000      11.76991000  F      -0.02727500       0.01517400       0.05439800
Cu       7.50909000       7.50909000      11.76991000  F      -0.01235700       0.02257700       0.06666700
Cu      10.01212000       7.50909000      11.76991000  F       0.06589700       0.04019700       0.04743200
Cu       0.00000000      10.01212000      11.76991000  F      -0.00640000      -0.05039000       0.08222000
Cu       2.50303000      10.01212000      11.76991000  F       0.03231200      -0.04301300       0.06054300
Cu       5.00606000      10.01212000      11.76991000  F       0.04684400      -0.08156500       0.06502400
Cu       7.50909000      10.01212000      11.76991000  F       0.01977000      -0.08416800       0.06317800
Cu      10.01212000      10.01212000      11.76991000  F      -0.04758500      -0.09035800       0.06901700
Cu       1.26462000       1.25068000      13.57571000  T      -0.00185800      -0.00106800       0.00033600
Cu       3.78090000       1.26555000      13.59995000  T      -0.00079600      -0.00124100       0.00011400
Cu       6.28390000       1.27694000      13.60810000  T       0.00061700      -0.00105800       0.00037900
Cu       8.76056000       1.28205000      13.61288000  T       0.00047100      -0.00090200       0.00054700
Cu      11.25763000       1.26393000      13.59580000  T      -0.00111600      -0.00074500       0.00044300
Cu       1.25721000       3.76505000      13.57665000  T      -0.00241500      -0.00118400      -0.00042400
Cu       3.75459000       3.75845000      13.60996000  T      -0.00037200      -0.00130300      -0.00084800
Cu       6.27197000       3.76151000      13.56661000  T       0.00153900      -0.00101700       0.00018400
Cu       8.74896000       3.76531000      13.55740000  T       0.00123900      -0.00065300       0.00111700
Cu      11.24029000       3.76508000      13.60941000  T      -0.00070700      -0.00026200       0.00081600
Cu       1.25721000       6.24653000      13.57651000  T      -0.00251700       0.00113900      -0.00041600
Cu       3.75529000       6.25389000      13.60961000  T      -0.00041100       0.00115600      -0.00084900
Cu       6.27264000       6.25036000      13.56683000  T       0.00155700       0.00092500       0.00015200
Cu       8.74939000       6.24665000      13.55718000  T       0.00129900       0.00053400       0.00107100
Cu      11.24060000       6.24695000      13.60890000  T      -0.00073900       0.00040200       0.00082800
Cu       1.26501000       8.76069000      13.57576000  T      -0.00185000       0.00112800       0.00026400
Cu       3.78098000       8.74652000      13.60021000  T      -0.00077400       0.00117800       0.00001600
Cu       6.28403000       8.73546000      13.60779000  T       0.00071500       0.00102800       0.00034900
Cu       8.76074000       8.73038000      13.61255000  T       0.00052300       0.00090200       0.00048200
Cu      11.25802000       8.74862000      13.59565000  T      -0.00108600       0.00097700       0.00043400
Cu       1.24850000      11.26370000      13.59125000  T      -0.00078100       0.00001400       0.00021100
Cu       3.74493000      11.26399000      13.57065000  T       0.00024500       0.00000800       0.00036500
Cu       6.25360000      11.26420000      13.56387000  T       0.00169200       0.00002100       0.00056800
Cu       8.76210000      11.26385000      13.56705000  T       0.00139100       0.00001000       0.00080300
Cu      11.27076000      11.26406000      13.57415000  T      -0.00020700       0.00007100       0.00059000
Cu      12.51043000       0.00576000      15.36462000  T      -0.00062600      -0.00040400      -0.00291300
Cu       2.50720000      12.51758000      15.36350000  T      -0.00060600      -0.00045900      -0.00137500
Cu       5.00545000      12.48357000      15.35264000  T       0.00061700      -0.00048300      -0.00077900
Cu       7.50561000      12.49625000      15.34479000  T       0.00139600      -0.00047900      -0.00158900
Cu      10.01197000      12.49634000      15.35174000  T       0.00057100      -0.00034800      -0.00279900
Cu       0.05186000       2.49825000      15.34745000  T      -0.00276300      -0.00093000      -0.00185300
Cu       2.51734000       2.49334000      15.36535000  T      -0.00293700      -0.00073400      -0.00094400
Cu       5.00116000       2.41645000      15.45464000  T      -0.00140400      -0.00026400      -0.00016900
Cu       7.55851000       2.50764000      15.46999000  T      -0.00104700       0.00021200      -0.00084200
Cu      10.09794000       2.45547000      15.44770000  T      -0.00254500       0.00044800      -0.00144900
Cu      12.47965000       5.00610000      15.35328000  T       0.00033000       0.00013000       0.00064200
Cu       2.41199000       5.00631000      15.48445000  T       0.00112300      -0.00016900      -0.00645200
Pd       5.01805000       5.00598000      15.47693000  T       0.00462100      -0.00004300       0.00182700
Y        7.47084000       5.00579000      17.24511000  T       0.00348400       0.00003500      -0.00056800
Cu       9.97404000       5.00667000      15.45023000  T      -0.00001100       0.00003900      -0.00003200
Cu       0.05143000       7.51424000      15.34689000  T      -0.00281100       0.00122300      -0.00180500
Cu       2.51738000       7.51817000      15.36585000  T      -0.00304700       0.00057200      -0.00118500
Cu       5.00206000       7.59584000      15.45486000  T      -0.00148200       0.00021000      -0.00014900
Cu       7.55892000       7.50380000      15.46990000  T      -0.00098400      -0.00015200      -0.00097000
Cu      10.09804000       7.55673000      15.44729000  T      -0.00261700      -0.00031400      -0.00145200
Cu      12.51117000      10.00790000      15.36445000  T      -0.00043300       0.00069900      -0.00272600
Cu       2.50811000      10.00967000      15.36334000  T      -0.00044700       0.00035500      -0.00143400
Cu       5.00628000      10.04323000      15.35200000  T       0.00070500       0.00048600      -0.00084800
Cu       7.50604000      10.02984000      15.34453000  T       0.00154700       0.00063700      -0.00154900
Cu      10.01235000      10.03043000      15.35147000  T       0.00070300       0.00053700      -0.00279400
O        6.15471000       3.39994000      16.64347000  T      -0.00556600       0.00033200      -0.00158800
O        6.15500000       6.61135000      16.64330000  T      -0.00526800      -0.00011400      -0.00185300
O        8.99257000       6.43111000      16.54524000  T      -0.00294300       0.00092400      -0.00380800
O        8.99254000       3.58141000      16.54482000  T      -0.00278700      -0.00076900      -0.00355700
C        2.55850000       5.02032000      17.43301000  T      -0.00550100       0.00011300      -0.00142600
O        1.37207000       5.03974000      18.12464000  T      -0.03721900      -0.00012700      -0.04198600
O        3.62074000       5.01078000      18.04751000  T      -0.03593700       0.00064300       0.00498800
H        1.61077000       5.04255000      19.08447000  T      -0.02602200      -0.00005000       0.00343100
108
Lattice="12.515153631 0.0 0.0 0.0 12.515153631 0.0 0.0 0.0 25.30973" Properties=species:S:1:pos:R:3:move_mask:L:1:forces:R:3 stress="0.008094762981577018 2.970958343920431e-06 0.00020429707670841082 2.970958343920431e-06 0.00817387410974759 -1.4230640807013828e-06 0.00020429707670841082 -1.4230640807013828e-06 0.002208926253232218" free_energy=-445.06702644 energy=-445.06721896 pbc="T T T"
Cu       1.25152000       1.25152000      10.00000000  F       0.00292500      -0.00177200      -0.06904400
Cu       3.75455000       1.25152000      10.00000000  F       0.00013900       0.01645600      -0.06861400
Cu       6.25758000       1.25152000      10.00000000  F       0.00667800       0.01365200      -0.06767500
Cu       8.76061000       1.25152000      10.00000000  F      -0.00186100       0.00002700      -0.04320900
Cu      11.26364000       1.25152000      10.00000000  F      -0.00700400      -0.00799600      -0.07360400
Cu       1.25152000       3.75455000      10.00000000  F      -0.01049000       0.00559300      -0.06258000
Cu       3.75455000       3.75455000      10.00000000  F       0.01788500      -0.01890300      -0.04496100
Cu       6.25758000       3.75455000      10.00000000  F      -0.02052500      -0.01730400      -0.07829300
Cu       8.76061000       3.75455000      10.00000000  F       0.00887100      -0.01561100      -0.07690500
Cu      11.26364000       3.75455000      10.00000000  F       0.00899800       0.01046400      -0.05544400
Cu       1.25152000       6.25758000      10.00000000  F      -0.01102100      -0.00433200      -0.06426500
Cu       3.75455000       6.25758000      10.00000000  F       0.01925400       0.01946700      -0.04552600
Cu       6.25758000       6.25758000      10.00000000  F      -0.02063500       0.01915500      -0.08117700
Cu       8.76061000       6.25758000      10.00000000  F       0.00760300       0.01615600      -0.07750400
Cu      11.26364000       6.25758000      10.00000000  F       0.00948600      -0.00912600      -0.05684500
Cu       1.25152000       8.76061000      10.00000000  F       0.00309200      -0.00161800      -0.06780700
Cu       3.75455000       8.76061000      10.00000000  F      -0.00070800      -0.01907100      -0.06763900
Cu       6.25758000       8.76061000      10.00000000  F       0.00691500      -0.01791200      -0.06561000
Cu       8.76061000       8.76061000      10.00000000  F      -0.00143400      -0.00253000      -0.04216900
Cu      11.26364000       8.76061000      10.00000000  F      -0.00696900       0.00431400      -0.07246100
Cu       1.25152000      11.26364000      10.00000000  F       0.00285200       0.00166900      -0.01538300
Cu       3.75455000      11.26364000      10.00000000  F      -0.01130400       0.00163300      -0.06194200
Cu       6.25758000      11.26364000      10.00000000  F       0.00970000       0.00197400      -0.06500000
Cu       8.76061000      11.26364000      10.00000000  F      -0.00457300       0.00153900      -0.08268900
Cu      11.26364000      11.26364000      10.00000000  F       0.00055100       0.00189600      -0.05108600
Cu       0.00000000       0.00000000      11.76991000  F      -0.00665400       0.05278800       0.08584000
Cu       2.50303000       0.00000000      11.76991000  F       0.03208000       0.04411400       0.06183400
Cu       5.00606000       0.00000000      11.76991000  F       0.04881400       0.08394700       0.06637800
Cu       7.50909000       0.00000000      11.76991000  F       0.01931100       0.08712500       0.06604300
Cu      10.01212000       0.00000000      11.76991000  F      -0.04653300       0.09253200       0.07078700
Cu       0.00000000       2.50303000      11.76991000  F      -0.06574300       0.05486900       0.07064900
Cu       2.50303000       2.50303000      11.76991000  F       0.07916100       0.02636800       0.05354500
Cu       5.00606000       2.50303000      11.76991000  F      -0.02845100      -0.01759500       0.05465700
Cu       7.50909000       2.50303000      11.76991000  F      -0.01156200      -0.02614600       0.06651600
Cu      10.01212000       2.50303000      11.76991000  F       0.06472000      -0.04155700       0.04834400
Cu       0.00000000       5.00606000      11.76991000  F      -0.08487500       0.00074400       0.04254200
Cu       2.50303000       5.00606000      11.76991000  F       0.09682400       0.00110600       0.10781700
Cu       5.00606000       5.00606000      11.76991000  F      -0.05762800       0.00188800       0.11139900
Cu       7.50909000       5.00606000      11.76991000  F      -0.03076700       0.00181700       0.07651900
Cu      10.01212000       5.00606000      11.76991000  F       0.05712400       0.00056900       0.05562700
Cu       0.00000000       7.50909000      11.76991000  F      -0.06543000      -0.05846700       0.07134600
Cu       2.50303000       7.50909000      11.76991000  F       0.07924400      -0.02937700       0.05462500
Cu       5.00606000       7.50909000      11.76991000  F      -0.02649900       0.01448200       0.05564500
Cu       7.50909000       7.50909000      11.76991000  F      -0.01227900       0.02205000       0.06755400
Cu      10.01212000       7.50909000      11.76991000  F       0.06610600       0.03978200       0.04831200
Cu       0.00000000      10.01212000      11.76991000  F      -0.00569900      -0.05081400       0.08388700
Cu       2.50303000      10.01212000      11.76991000  F       0.03348700      -0.04345200       0.06218100
Cu       5.00606000      10.01212000      11.76991000  F       0.04770200      -0.08196600       0.06636300
Cu       7.50909000      10.01212000      11.76991000  F       0.01996500      -0.08437900       0.06434100
Cu      10.01212000      10.01212000      11.76991000  F      -0.04754000      -0.09073200       0.07033400
Cu       1.26470000       1.25069000      13.57577000  T      -0.00160400      -0.00032300       0.00023000
Cu       3.78100000       1.26557000      13.60001000  T      -0.00122100      -0.00080700      -0.00011200
Cu       6.28398000       1.27696000      13.60816000  T      -0.00043000      -0.00095200      -0.00009600
Cu       8.76063000       1.28207000      13.61293000  T      -0.00034700      -0.00091500      -0.00008900
Cu      11.25770000       1.26392000      13.59586000  T      -0.00130100      -0.00013500       0.00019800
Cu       1.25733000       3.76509000      13.57676000  T      -0.00253700      -0.00123900      -0.00133700
Cu       3.75465000       3.75850000      13.61010000  T      -0.00094400      -0.00180900      -0.00280600
Cu       6.27199000       3.76155000      13.56671000  T       0.00132900      -0.00153300      -0.00200800
Cu       8.74898000       3.76531000      13.55742000  T       0.00091500      -0.00045500       0.00005700
Cu      11.24031000       3.76505000      13.60942000  T       0.00005700       0.00051400       0.00088600
Cu       1.25734000       6.24649000      13.57663000  T      -0.00275000       0.00113700      -0.00133800
Cu       3.75535000       6.25385000      13.60976000  T      -0.00096200       0.00153100      -0.00282600
Cu       6.27266000       6.25033000      13.56694000  T       0.00135300       0.00135800      -0.00205100
Cu       8.74941000       6.24665000      13.55721000  T       0.00102000       0.00025000      -0.00003400
Cu      11.24062000       6.24696000      13.60891000  T      -0.00001700      -0.00021300       0.00090200
Cu       1.26508000       8.76067000      13.57583000  T      -0.00158500       0.00045800       0.00012000
Cu       3.78108000       8.74650000      13.60028000  T      -0.00113200       0.00068400      -0.00027200
Cu       6.28412000       8.73544000      13.60785000  T      -0.00024600       0.00089100      -0.00013100
Cu       8.76080000       8.73037000      13.61261000  T      -0.00026000       0.00087600      -0.00016700
Cu      11.25808000       8.74860000      13.59572000  T      -0.00126000       0.00052300       0.00017100
Cu       1.24849000      11.26370000      13.59131000  T       0.00033400       0.00001100       0.00029400
Cu       3.74492000      11.26399000      13.57070000  T       0.00125400       0.00000100       0.00051500
Cu       6.25359000      11.26420000      13.56392000  T       0.00194100       0.00003200       0.00054700
Cu       8.76208000      11.26384000      13.56710000  T       0.00150300       0.00000400       0.00081100
Cu      11.27075000      11.26405000      13.57421000  T       0.00046100       0.00013600       0.00050900
Cu      12.51042000       0.00576000      15.36478000  T       0.00056600      -0.00026300      -0.00478200
Cu       2.50721000      12.51758000      15.36360000  T       0.00028000      -0.00027000      -0.00278500
Cu       5.00548000      12.48357000      15.35271000  T       0.00059500      -0.00046900      -0.00184600
Cu       7.50563000      12.49626000      15.34486000  T       0.00098400      -0.00063900      -0.00237900
Cu      10.01197000      12.49633000      15.35185000  T       0.00096600      -0.00032200      -0.00388600
Cu       0.05204000       2.49828000      15.34758000  T      -0.00427700      -0.00140600      -0.00392500
Cu       2.51757000       2.49334000      15.36548000  T      -0.00522400      -0.00064200      -0.00332900
Cu       5.00143000       2.41646000      15.45472000  T      -0.00522100      -0.00100900      -0.00197100
Cu       7.55879000       2.50764000      15.47009000  T      -0.00507000      -0.00046200      -0.00299700
Cu      10.09813000       2.45546000      15.44783000  T      -0.00377200       0.00017300      -0.00312300
Cu      12.47956000       5.00609000      15.35329000  T       0.00234500       0.00031800      -0.00008700
Cu       2.41182000       5.00633000      15.48508000  T       0.00471700      -0.00034400      -0.01452600
Pd       5.01806000       5.00597000      15.47713000  T       0.00422700      -0.00015500      -0.01679400
Y        7.47104000       5.00578000      17.24516000  T      -0.00144500       0.00000700      -0.00100100
Cu       9.97401000       5.00666000      15.45026000  T       0.00154600       0.00010500      -0.00126000
Cu       0.05163000       7.51418000      15.34702000  T      -0.00446900       0.00218500      -0.00391100
Cu       2.51761000       7.51818000      15.36601000  T      -0.00551100       0.00032900      -0.00403500
Cu       5.00234000       7.59583000      15.45494000  T      -0.00539500       0.00086100      -0.00198500
Cu       7.55919000       7.50379000      15.47002000  T      -0.00483800       0.00063500      -0.00341200
Cu      10.09823000       7.55672000      15.44741000  T      -0.00389800       0.00014800      -0.00320600
Cu      12.51115000      10.00787000      15.36459000  T       0.00102300       0.00095100      -0.00426300
Cu       2.50811000      10.00968000      15.36345000  T       0.00067700      -0.00001400      -0.00299900
Cu       5.00630000      10.04323000      15.35208000  T       0.00081800       0.00042700      -0.00202500
Cu       7.50604000      10.02983000      15.34460000  T       0.00131300       0.00091600      -0.00233600
Cu      10.01233000      10.03042000      15.35159000  T       0.00131500       0.00072000      -0.00391400
O        6.15495000       3.39991000      16.64335000  T      -0.00514600       0.00073800       0.00058100
O        6.15522000       6.61136000      16.64320000  T      -0.00502600      -0.00063900       0.00033500
O        8.99266000       6.43109000      16.54532000  T      -0.00266200       0.00047000      -0.00151200
O        8.99262000       3.58142000      16.54490000  T      -0.00243800      -0.00036300      -0.00130100
C        2.56012000       5.02031000      17.43340000  T      -0.00996200       0.00012000      -0.00247900
O        1.37417000       5.03974000      18.12606000  T      -0.03676100      -0.00013400      -0.01511400
O        3.62289000       5.01075000      18.04692000  T      -0.03709800       0.00065800       0.00743100
H        1.61398000       5.04256000      19.08596000  T      -0.03003500      -0.00016500      -0.00878600
108
Lattice="12.515153631 0.0 0.0 0.0 12.515153631 0.0 0.0 0.0 25.30973" Properties=species:S:1:pos:R:3:move_mask:L:1:forces:R:3 stress="0.007992015258346728 3.0770639990604465e-06 0.0002058262464442522 3.0770639990604465e-06 0.00807010902052978 -1.2420603160507684e-06 0.0002058262464442522 -1.2420603160507684e-06 0.002089719670436974" free_energy=-445.06790652 energy=-445.06809839 pbc="T T T"
Cu       1.25152000       1.25152000      10.00000000  F       0.00236700      -0.00222600      -0.06976300
Cu       3.75455000       1.25152000      10.00000000  F      -0.00079800       0.01598000      -0.06958200
Cu       6.25758000       1.25152000      10.00000000  F       0.00558900       0.01329500      -0.06880300
Cu       8.76061000       1.25152000      10.00000000  F      -0.00257600      -0.00022600      -0.04428300
Cu      11.26364000       1.25152000      10.00000000  F      -0.00735000      -0.00831200      -0.07448400
Cu       1.25152000       3.75455000      10.00000000  F      -0.01115800       0.00529700      -0.06384600
Cu       3.75455000       3.75455000      10.00000000  F       0.01701800      -0.01917900      -0.04631000
Cu       6.25758000       3.75455000      10.00000000  F      -0.02149500      -0.01751800      -0.07965300
Cu       8.76061000       3.75455000      10.00000000  F       0.00825000      -0.01576000      -0.07812400
Cu      11.26364000       3.75455000      10.00000000  F       0.00847200       0.01024700      -0.05657300
Cu       1.25152000       6.25758000      10.00000000  F      -0.01168600      -0.00401900      -0.06554500
Cu       3.75455000       6.25758000      10.00000000  F       0.01838500       0.01975100      -0.04691600
Cu       6.25758000       6.25758000      10.00000000  F      -0.02161200       0.01936900      -0.08259100
Cu       8.76061000       6.25758000      10.00000000  F       0.00698600       0.01631100      -0.07874500
Cu      11.26364000       6.25758000      10.00000000  F       0.00896600      -0.00889100      -0.05797500
Cu       1.25152000       8.76061000      10.00000000  F       0.00251600      -0.00113200      -0.06853300
Cu       3.75455000       8.76061000      10.00000000  F      -0.00165700      -0.01856200      -0.06861600
Cu       6.25758000       8.76061000      10.00000000  F       0.00582900      -0.01751800      -0.06676400
Cu       8.76061000       8.76061000      10.00000000  F      -0.00213400      -0.00224100      -0.04325400
Cu      11.26364000       8.76061000      10.00000000  F      -0.00731100       0.00466300      -0.07333900
Cu       1.25152000      11.26364000      10.00000000  F       0.00234100       0.00168400      -0.01591600
Cu       3.75455000      11.26364000      10.00000000  F      -0.01227900       0.00165500      -0.06253000
Cu       6.25758000      11.26364000      10.00000000  F       0.00857500       0.00199900      -0.06597600
Cu       8.76061000      11.26364000      10.00000000  F      -0.00532300       0.00155900      -0.08368200
Cu      11.26364000      11.26364000      10.00000000  F       0.00025700       0.00190900      -0.05178900
Cu       0.00000000       0.00000000      11.76991000  F      -0.00735700       0.05257500       0.08382900
Cu       2.50303000       0.00000000      11.76991000  F       0.03114100       0.04375000       0.05986200
Cu       5.00606000       0.00000000      11.76991000  F       0.04779700       0.08354300       0.06468400
Cu       7.50909000       0.00000000      11.76991000  F       0.01849200       0.08701600       0.06452400
Cu      10.01212000       0.00000000      11.76991000  F      -0.04711400       0.09235900       0.06910100
Cu       0.00000000       2.50303000      11.76991000  F      -0.06707900       0.05424800       0.06885200
Cu       2.50303000       2.50303000      11.76991000  F       0.07799500       0.02553500       0.05166500
Cu       5.00606000       2.50303000      11.76991000  F      -0.02943800      -0.01834700       0.05301600
Cu       7.50909000       2.50303000      11.76991000  F      -0.01210600      -0.02659300       0.06532300
Cu      10.01212000       2.50303000      11.76991000  F       0.06403200      -0.04156000       0.04735000
Cu       0.00000000       5.00606000      11.76991000  F      -0.08633700       0.00076600       0.04100000
Cu       2.50303000       5.00606000      11.76991000  F       0.09542600       0.00112600       0.10638300
Cu       5.00606000       5.00606000      11.76991000  F      -0.05827400       0.00188500       0.11009800
Cu       7.50909000       5.00606000      11.76991000  F      -0.03107600       0.00180700       0.07572100
Cu      10.01212000       5.00606000      11.76991000  F       0.05642400       0.00058200       0.05485200
Cu       0.00000000       7.50909000      11.76991000  F      -0.06677500      -0.05778800       0.06952900
Cu       2.50303000       7.50909000      11.76991000  F       0.07805800      -0.02855300       0.05275000
Cu       5.00606000       7.50909000      11.76991000  F      -0.02746800       0.01523900       0.05398500
Cu       7.50909000       7.50909000      11.76991000  F      -0.01281200       0.02251500       0.06633600
Cu      10.01212000       7.50909000      11.76991000  F       0.06544400       0.03984200       0.04729400
Cu       0.00000000      10.01212000      11.76991000  F      -0.00640200      -0.05052600       0.08184300
Cu       2.50303000      10.01212000      11.76991000  F       0.03255400      -0.04304700       0.06017800
Cu       5.00606000      10.01212000      11.76991000  F       0.04670100      -0.08153300       0.06466100
Cu       7.50909000      10.01212000      11.76991000  F       0.01915500      -0.08422700       0.06281200
Cu      10.01212000      10.01212000      11.76991000  F      -0.04811200      -0.09048800       0.06862700
Cu       1.26452000       1.25063000      13.57568000  T      -0.00054500      -0.00007800      -0.00045900
Cu       3.78083000       1.26548000      13.59992000  T      -0.00050200      -0.00023500      -0.00050400
Cu       6.28387000       1.27688000      13.60810000  T      -0.00049300      -0.00013800      -0.00031400
Cu       8.76053000       1.28201000      13.61286000  T      -0.00056400       0.00004700      -0.00020000
Cu      11.25754000       1.26391000      13.59577000  T      -0.00064700       0.00017600      -0.00034100
Cu       1.25705000       3.76497000      13.57656000  T      -0.00092300      -0.00024600      -0.00082200
Cu       3.75455000       3.75836000      13.60983000  T      -0.00040400      -0.00043200      -0.00113100
Cu       6.27203000       3.76144000      13.56655000  T       0.00013700      -0.00039500      -0.00082000
Cu       8.74900000       3.76528000      13.55742000  T      -0.00006900       0.00000500       0.00000300
Cu      11.24025000       3.76510000      13.60945000  T      -0.00036100       0.00027100       0.00009300
Cu       1.25704000       6.24660000      13.57642000  T      -0.00097500       0.00023700      -0.00080100
Cu       3.75525000       6.25397000      13.60948000  T      -0.00041700       0.00035900      -0.00116100
Cu       6.27270000       6.25043000      13.56677000  T       0.00013800       0.00035600      -0.00082800
Cu       8.74943000       6.24667000      13.55720000  T      -0.00005000      -0.00004400      -0.00002400
Cu      11.24056000       6.24694000      13.60894000  T      -0.00037700      -0.00019300       0.00009900
Cu       1.26490000       8.76074000      13.57573000  T      -0.00054800       0.00010400      -0.00046600
Cu       3.78092000       8.74658000      13.60017000  T      -0.00047300       0.00021200      -0.00054600
Cu       6.28402000       8.73551000      13.60778000  T      -0.00044100       0.00013600      -0.00030500
Cu       8.76071000       8.73043000      13.61253000  T      -0.00052000      -0.00002700      -0.00022100
Cu      11.25793000       8.74866000      13.59563000  T      -0.00061200      -0.00005700      -0.00032200
Cu       1.24850000      11.26370000      13.59121000  T       0.00011400       0.00001700      -0.00046000
Cu       3.74497000      11.26399000      13.57063000  T       0.00013100       0.00000500      -0.00040900
Cu       6.25369000      11.26421000      13.56387000  T       0.00008800       0.00001500      -0.00027900
Cu       8.76216000      11.26385000      13.56705000  T      -0.00003500       0.00001400      -0.00020400
Cu      11.27076000      11.26406000      13.57412000  T      -0.00003900       0.00004700      -0.00032700
Cu      12.51042000       0.00574000      15.36442000  T      -0.00008000      -0.00001800      -0.00087400
Cu       2.50719000      12.51756000      15.36337000  T      -0.00009800      -0.00008700      -0.00057400
Cu       5.00548000      12.48355000      15.35256000  T      -0.00003000      -0.00008500      -0.00043600
Cu       7.50567000      12.49623000      15.34469000  T       0.00004000      -0.00000100      -0.00041900
Cu      10.01200000      12.49632000      15.35157000  T       0.00000600       0.00009500      -0.00063800
Cu       0.05161000       2.49818000      15.34730000  T      -0.00149300      -0.00022800      -0.00076700
Cu       2.51709000       2.49330000      15.36521000  T      -0.00153000      -0.00018700      -0.00079700
Cu       5.00093000       2.41642000      15.45455000  T      -0.00158100      -0.00019300      -0.00051800
Cu       7.55827000       2.50764000      15.46987000  T      -0.00158100       0.00030100      -0.00037000
Cu      10.09773000       2.45547000      15.44754000  T      -0.00137500       0.00021200      -0.00073600
Cu      12.47972000       5.00612000      15.35333000  T       0.00002900       0.00007000       0.00007700
Cu       2.41221000       5.00629000      15.48373000  T       0.00093000      -0.00012200      -0.00401700
Pd       5.01813000       5.00597000      15.47666000  T       0.00041400       0.00007200       0.00109100
Y        7.47084000       5.00579000      17.24494000  T      -0.00282800       0.00010300      -0.00144400
Cu       9.97408000       5.00668000      15.45018000  T      -0.00015500       0.00003600      -0.00003600
Cu       0.05118000       7.51434000      15.34674000  T      -0.00154900       0.00044400      -0.00075900
Cu       2.51711000       7.51819000      15.36569000  T      -0.00160100       0.00010100      -0.00091700
Cu       5.00182000       7.59587000      15.45477000  T      -0.00170200       0.00024600      -0.00054000
Cu       7.55868000       7.50381000      15.46976000  T      -0.00169600      -0.00006500      -0.00066600
Cu      10.09781000       7.55675000      15.44712000  T      -0.00139900      -0.00014500      -0.00075000
Cu      12.51118000      10.00795000      15.36426000  T       0.00002700       0.00017800      -0.00076700
Cu       2.50812000      10.00968000      15.36321000  T      -0.00000600       0.00000500      -0.00061300
Cu       5.00633000      10.04325000      15.35191000  T       0.00003600       0.00009700      -0.00053000
Cu       7.50611000      10.02988000      15.34443000  T       0.00011800       0.00006500      -0.00042400
Cu      10.01239000      10.03046000      15.35129000  T       0.00009000       0.00000300      -0.00064200
O        6.15416000       3.40010000      16.64332000  T      -0.00171500       0.00069200       0.00027800
O        6.15448000       6.61122000      16.64312000  T      -0.00172500      -0.00062000       0.00018700
O        8.99216000       6.43117000      16.54479000  T      -0.00175400      -0.00035900      -0.00108600
O        8.99214000       3.58136000      16.54441000  T      -0.00175800       0.00045500      -0.00107800
C        2.55653000       5.02036000      17.43239000  T      -0.01365700       0.00016600      -0.00419100
O        1.36892000       5.03974000      18.12245000  T      -0.02175400      -0.00009900      -0.01595100
O        3.61750000       5.01085000      18.04874000  T      -0.01878900       0.00050200       0.00403000
H        1.60777000       5.04254000      19.08276000  T      -0.03649200      -0.00005100      -0.01505900
108
Lattice="12.515153631 0.0 0.0 0.0 12.515153631 0.0 0.0 0.0 25.30973" Properties=species:S:1:pos:R:3:move_mask:L:1:forces:R:3 stress="0.007939848725072597 3.0146489078016137e-06 0.00020446559745480967 3.0146489078016137e-06 0.008016900155231627 -1.1609206974142861e-06 0.00020446559745480967 -1.1609206974142861e-06 0.002021631047382713" free_energy=-445.0678762 energy=-445.06806655 pbc="T T T"
Cu       1.25152000       1.25152000      10.00000000  F       0.00260100      -0.00244100      -0.06943800
Cu       3.75455000       1.25152000      10.00000000  F      -0.00081800       0.01575700      -0.06924000
Cu       6.25758000       1.25152000      10.00000000  F       0.00553900       0.01310400      -0.06860400
Cu       8.76061000       1.25152000      10.00000000  F      -0.00238200      -0.00038600      -0.04417300
Cu      11.26364000       1.25152000      10.00000000  F      -0.00699500      -0.00847200      -0.07429800
Cu       1.25152000       3.75455000      10.00000000  F      -0.01097000       0.00514200      -0.06363800
Cu       3.75455000       3.75455000      10.00000000  F       0.01703300      -0.01933100      -0.04613900
Cu       6.25758000       3.75455000      10.00000000  F      -0.02149500      -0.01763300      -0.07954800
Cu       8.76061000       3.75455000      10.00000000  F       0.00844900      -0.01583800      -0.07806500
Cu      11.26364000       3.75455000      10.00000000  F       0.00877300       0.01014400      -0.05644800
Cu       1.25152000       6.25758000      10.00000000  F      -0.01150900      -0.00385600      -0.06531700
Cu       3.75455000       6.25758000      10.00000000  F       0.01840100       0.01990100      -0.04671100
Cu       6.25758000       6.25758000      10.00000000  F      -0.02160100       0.01949700      -0.08247500
Cu       8.76061000       6.25758000      10.00000000  F       0.00718800       0.01640100      -0.07865900
Cu      11.26364000       6.25758000      10.00000000  F       0.00926200      -0.00877600      -0.05782500
Cu       1.25152000       8.76061000      10.00000000  F       0.00274600      -0.00093900      -0.06820700
Cu       3.75455000       8.76061000      10.00000000  F      -0.00167600      -0.01835600      -0.06827400
Cu       6.25758000       8.76061000      10.00000000  F       0.00578200      -0.01735400      -0.06656400
Cu       8.76061000       8.76061000      10.00000000  F      -0.00193600      -0.00210600      -0.04310700
Cu      11.26364000       8.76061000      10.00000000  F      -0.00695900       0.00479600      -0.07311900
Cu       1.25152000      11.26364000      10.00000000  F       0.00259800       0.00166500      -0.01551600
Cu       3.75455000      11.26364000      10.00000000  F      -0.01231600       0.00164000      -0.06210400
Cu       6.25758000      11.26364000      10.00000000  F       0.00851000       0.00197800      -0.06572900
Cu       8.76061000      11.26364000      10.00000000  F      -0.00514000       0.00153800      -0.08354700
Cu      11.26364000      11.26364000      10.00000000  F       0.00060000       0.00188700      -0.05153600
Cu       0.00000000       0.00000000      11.76991000  F      -0.00702600       0.05248400       0.08353000
Cu       2.50303000       0.00000000      11.76991000  F       0.03119900       0.04359300       0.05946300
Cu       5.00606000       0.00000000      11.76991000  F       0.04761500       0.08338600       0.06435600
Cu       7.50909000       0.00000000      11.76991000  F       0.01846300       0.08693400       0.06433400
Cu      10.01212000       0.00000000      11.76991000  F      -0.04683000       0.09231900       0.06891400
Cu       0.00000000       2.50303000      11.76991000  F      -0.06697400       0.05400200       0.06859400
Cu       2.50303000       2.50303000      11.76991000  F       0.07798500       0.02517300       0.05129200
Cu       5.00606000       2.50303000      11.76991000  F      -0.02956200      -0.01864500       0.05273500
Cu       7.50909000       2.50303000      11.76991000  F      -0.01205300      -0.02676900       0.06523400
Cu      10.01212000       2.50303000      11.76991000  F       0.06427900      -0.04160200       0.04739300
Cu       0.00000000       5.00606000      11.76991000  F      -0.08628000       0.00075800       0.04082300
Cu       2.50303000       5.00606000      11.76991000  F       0.09536900       0.00111800       0.10614500
Cu       5.00606000       5.00606000      11.76991000  F      -0.05828200       0.00187500       0.10987700
Cu       7.50909000       5.00606000      11.76991000  F      -0.03097000       0.00179500       0.07574000
Cu      10.01212000       5.00606000      11.76991000  F       0.05667100       0.00057000       0.05495300
Cu       0.00000000       7.50909000      11.76991000  F      -0.06667600      -0.05755000       0.06927100
Cu       2.50303000       7.50909000      11.76991000  F       0.07804800      -0.02821800       0.05237700
Cu       5.00606000       7.50909000      11.76991000  F      -0.02758500       0.01551500       0.05370100
Cu       7.50909000       7.50909000      11.76991000  F      -0.01275600       0.02267600       0.06624600
Cu      10.01212000       7.50909000      11.76991000  F       0.06569400       0.03987900       0.04733500
Cu       0.00000000      10.01212000      11.76991000  F      -0.00606700      -0.05042600       0.08153900
Cu       2.50303000      10.01212000      11.76991000  F       0.03261700      -0.04288600       0.05977500
Cu       5.00606000      10.01212000      11.76991000  F       0.04652200      -0.08138300       0.06433600
Cu       7.50909000      10.01212000      11.76991000  F       0.01912600      -0.08415000       0.06262400
Cu      10.01212000      10.01212000      11.76991000  F      -0.04782800      -0.09043900       0.06843700
Cu       1.26446000       1.25062000      13.57564000  T      -0.00047900      -0.00020900      -0.00050600
Cu       3.78077000       1.26546000      13.59988000  T      -0.00052600      -0.00038300      -0.00044400
Cu       6.28382000       1.27687000      13.60807000  T      -0.00050700      -0.00016300      -0.00006300
Cu       8.76047000       1.28200000      13.61283000  T      -0.00048200       0.00009300       0.00008600
Cu      11.25748000       1.26391000      13.59573000  T      -0.00055600       0.00019600      -0.00031600
Cu       1.25696000       3.76495000      13.57648000  T      -0.00105400      -0.00045900      -0.00095600
Cu       3.75451000       3.75832000      13.60975000  T      -0.00018400      -0.00060200      -0.00107200
Cu       6.27202000       3.76142000      13.56649000  T       0.00032300      -0.00040400      -0.00037200
Cu       8.74898000       3.76528000      13.55742000  T       0.00020900       0.00004200       0.00069700
Cu      11.24022000       3.76512000      13.60945000  T      -0.00026400       0.00034600       0.00052400
Cu       1.25694000       6.24663000      13.57635000  T      -0.00112900       0.00043300      -0.00094400
Cu       3.75521000       6.25400000      13.60939000  T      -0.00020600       0.00049000      -0.00110600
Cu       6.27269000       6.25045000      13.56671000  T       0.00033000       0.00035300      -0.00038800
Cu       8.74942000       6.24667000      13.55719000  T       0.00022500      -0.00009100       0.00065900
Cu      11.24053000       6.24693000      13.60894000  T      -0.00029100      -0.00023000       0.00052600
Cu       1.26484000       8.76076000      13.57568000  T      -0.00048000       0.00025000      -0.00053400
Cu       3.78086000       8.74660000      13.60012000  T      -0.00046200       0.00033300      -0.00051600
Cu       6.28396000       8.73553000      13.60776000  T      -0.00043400       0.00015700      -0.00005700
Cu       8.76066000       8.73044000      13.61250000  T      -0.00041200      -0.00007900       0.00005200
Cu      11.25787000       8.74866000      13.59559000  T      -0.00050900      -0.00003500      -0.00028200
Cu       1.24849000      11.26370000      13.59116000  T       0.00047400       0.00001500      -0.00052800
Cu       3.74497000      11.26399000      13.57060000  T       0.00033900      -0.00000100      -0.00040100
Cu       6.25369000      11.26421000      13.56385000  T       0.00033400       0.00001000      -0.00016900
Cu       8.76216000      11.26385000      13.56703000  T       0.00035300       0.00001100      -0.00012500
Cu      11.27076000      11.26407000      13.57408000  T       0.00041300       0.00005700      -0.00036700
Cu      12.51041000       0.00573000      15.36433000  T       0.00020100       0.00000200      -0.00068500
Cu       2.50717000      12.51755000      15.36332000  T       0.00013700      -0.00009800      -0.00033600
Cu       5.00547000      12.48355000      15.35252000  T       0.00021700      -0.00003300      -0.00009200
Cu       7.50566000      12.49623000      15.34465000  T       0.00036600       0.00014200       0.00002400
Cu      10.01200000      12.49633000      15.35151000  T       0.00037800       0.00023800      -0.00027900
Cu       0.05148000       2.49816000      15.34722000  T      -0.00202700      -0.00028200      -0.00051600
Cu       2.51694000       2.49329000      15.36513000  T      -0.00201100      -0.00013000      -0.00070000
Cu       5.00077000       2.41641000      15.45451000  T      -0.00189100       0.00004100      -0.00009700
Cu       7.55810000       2.50765000      15.46982000  T      -0.00203900       0.00059500       0.00001700
Cu      10.09761000       2.45547000      15.44747000  T      -0.00191000       0.00048700      -0.00044300
Cu      12.47974000       5.00612000      15.35333000  T       0.00054900       0.00011000       0.00085800
Cu       2.41231000       5.00628000      15.48333000  T       0.00147700      -0.00016000      -0.00508700
Pd       5.01813000       5.00597000      15.47654000  T       0.00174900       0.00005700      -0.00222200
Y        7.47071000       5.00579000      17.24484000  T      -0.00186400       0.00008300      -0.00055000
Cu       9.97408000       5.00668000      15.45016000  T      -0.00012700       0.00004700       0.00076600
Cu       0.05104000       7.51439000      15.34667000  T      -0.00210900       0.00056100      -0.00048300
Cu       2.51696000       7.51820000      15.36560000  T      -0.00209800      -0.00000400      -0.00082500
Cu       5.00165000       7.59589000      15.45472000  T      -0.00202100      -0.00001400      -0.00010900
Cu       7.55851000       7.50382000      15.46969000  T      -0.00213300      -0.00044300      -0.00023000
Cu      10.09769000       7.55675000      15.44705000  T      -0.00197200      -0.00043200      -0.00040500
Cu      12.51118000      10.00796000      15.36418000  T       0.00036100       0.00023200      -0.00053100
Cu       2.50811000      10.00968000      15.36315000  T       0.00028000      -0.00003600      -0.00038500
Cu       5.00632000      10.04325000      15.35187000  T       0.00032100       0.00003100      -0.00017900
Cu       7.50611000      10.02989000      15.34439000  T       0.00048600      -0.00005700       0.00001600
Cu      10.01240000      10.03047000      15.35123000  T       0.00050800      -0.00011100      -0.00029300
O        6.15393000       3.40017000      16.64332000  T      -0.00312400       0.00098300      -0.00052700
O        6.15426000       6.61116000      16.64310000  T      -0.00300900      -0.00074200      -0.00073100
O        8.99198000       6.43117000      16.54466000  T      -0.00243000      -0.00020600      -0.00236200
O        8.99197000       3.58137000      16.54428000  T      -0.00239400       0.00039800      -0.00228200
C        2.55523000       5.02038000      17.43201000  T      -0.01654700       0.00027000      -0.00401100
O        1.36698000       5.03975000      18.12108000  T      -0.02390400      -0.00018600      -0.03015700
O        3.61558000       5.01090000      18.04929000  T      -0.02139600       0.00059000       0.00637100
H        1.60504000       5.04254000      19.08139000  T      -0.03543000      -0.00003100      -0.00768100
108
Lattice="12.515153631 0.0 0.0 0.0 12.515153631 0.0 0.0 0.0 25.30973" Properties=species:S:1:pos:R:3:move_mask:L:1:forces:R:3 stress="0.007996565318499496 2.8274036340251163e-06 0.00019551527336829304 2.8274036340251163e-06 0.008072437103433734 -8.488452411201233e-07 0.00019551527336829304 -8.488452411201233e-07 0.002081043972751996" free_energy=-445.07143613 energy=-445.07161292 pbc="T T T"
Cu       1.25152000       1.25152000      10.00000000  F       0.00251600      -0.00234800      -0.06949800
Cu       3.75455000       1.25152000      10.00000000  F      -0.00061900       0.01593100      -0.06944400
Cu       6.25758000       1.25152000      10.00000000  F       0.00573900       0.01326800      -0.06863200
Cu       8.76061000       1.25152000      10.00000000  F      -0.00243600      -0.00027200      -0.04390400
Cu      11.26364000       1.25152000      10.00000000  F      -0.00715600      -0.00834400      -0.07423200
Cu       1.25152000       3.75455000      10.00000000  F      -0.01102000       0.00515900      -0.06370500
Cu       3.75455000       3.75455000      10.00000000  F       0.01727900      -0.01927900      -0.04622900
Cu       6.25758000       3.75455000      10.00000000  F      -0.02134100      -0.01756300      -0.07948000
Cu       8.76061000       3.75455000      10.00000000  F       0.00843500      -0.01574600      -0.07784300
Cu      11.26364000       3.75455000      10.00000000  F       0.00853900       0.01016300      -0.05633000
Cu       1.25152000       6.25758000      10.00000000  F      -0.01153900      -0.00395200      -0.06540400
Cu       3.75455000       6.25758000      10.00000000  F       0.01865200       0.01977600      -0.04679900
Cu       6.25758000       6.25758000      10.00000000  F      -0.02146800       0.01933700      -0.08241700
Cu       8.76061000       6.25758000      10.00000000  F       0.00716000       0.01621300      -0.07848500
Cu      11.26364000       6.25758000      10.00000000  F       0.00903900      -0.00891400      -0.05773400
Cu       1.25152000       8.76061000      10.00000000  F       0.00268200      -0.00104400      -0.06835700
Cu       3.75455000       8.76061000      10.00000000  F      -0.00148100      -0.01854600      -0.06848200
Cu       6.25758000       8.76061000      10.00000000  F       0.00596800      -0.01752500      -0.06661600
Cu       8.76061000       8.76061000      10.00000000  F      -0.00200300      -0.00222000      -0.04297700
Cu      11.26364000       8.76061000      10.00000000  F      -0.00711100       0.00467300      -0.07315900
Cu       1.25152000      11.26364000      10.00000000  F       0.00248700       0.00168300      -0.01577400
Cu       3.75455000      11.26364000      10.00000000  F      -0.01215500       0.00165400      -0.06234200
Cu       6.25758000      11.26364000      10.00000000  F       0.00879900       0.00200200      -0.06582000
Cu       8.76061000      11.26364000      10.00000000  F      -0.00523100       0.00156000      -0.08345400
Cu      11.26364000      11.26364000      10.00000000  F       0.00047700       0.00192800      -0.05148300
Cu       0.00000000       0.00000000      11.76991000  F      -0.00752200       0.05258500       0.08316300
Cu       2.50303000       0.00000000      11.76991000  F       0.03103700       0.04362300       0.05923300
Cu       5.00606000       0.00000000      11.76991000  F       0.04770800       0.08337600       0.06417700
Cu       7.50909000       0.00000000      11.76991000  F       0.01835100       0.08713600       0.06413000
Cu      10.01212000       0.00000000      11.76991000  F      -0.04732000       0.09228700       0.06859500
Cu       0.00000000       2.50303000      11.76991000  F      -0.06789700       0.05391100       0.06797800
Cu       2.50303000       2.50303000      11.76991000  F       0.07769800       0.02509600       0.05082300
Cu       5.00606000       2.50303000      11.76991000  F      -0.02949800      -0.01872600       0.05220300
Cu       7.50909000       2.50303000      11.76991000  F      -0.01210700      -0.02681100       0.06477300
Cu      10.01212000       2.50303000      11.76991000  F       0.06380800      -0.04118200       0.04717200
Cu       0.00000000       5.00606000      11.76991000  F      -0.08717800       0.00076200       0.04020200
Cu       2.50303000       5.00606000      11.76991000  F       0.09499300       0.00111000       0.10586600
Cu       5.00606000       5.00606000      11.76991000  F      -0.05801500       0.00184500       0.10922400
Cu       7.50909000       5.00606000      11.76991000  F      -0.03109800       0.00178200       0.07531600
Cu      10.01212000       5.00606000      11.76991000  F       0.05621900       0.00057300       0.05448500
Cu       0.00000000       7.50909000      11.76991000  F      -0.06762200      -0.05745000       0.06864100
Cu       2.50303000       7.50909000      11.76991000  F       0.07773400      -0.02818600       0.05189300
Cu       5.00606000       7.50909000      11.76991000  F      -0.02749300       0.01555600       0.05312400
Cu       7.50909000       7.50909000      11.76991000  F      -0.01279400       0.02269500       0.06576100
Cu      10.01212000       7.50909000      11.76991000  F       0.06526400       0.03946800       0.04709200
Cu       0.00000000      10.01212000      11.76991000  F      -0.00657500      -0.05052200       0.08115700
Cu       2.50303000      10.01212000      11.76991000  F       0.03245000      -0.04292500       0.05952700
Cu       5.00606000      10.01212000      11.76991000  F       0.04663200      -0.08137700       0.06413600
Cu       7.50909000      10.01212000      11.76991000  F       0.01902900      -0.08436300       0.06240800
Cu      10.01212000      10.01212000      11.76991000  F      -0.04829300      -0.09040900       0.06810900
Cu       1.26424000       1.25060000      13.57550000  T      -0.00053200      -0.00037800      -0.00046100
Cu       3.78055000       1.26542000      13.59975000  T      -0.00044000      -0.00062400      -0.00060000
Cu       6.28359000       1.27685000      13.60799000  T      -0.00036900      -0.00037300      -0.00036200
Cu       8.76023000       1.28201000      13.61274000  T      -0.00055400      -0.00021100      -0.00034800
Cu      11.25723000       1.26395000      13.59560000  T      -0.00066100       0.00002600      -0.00043900
Cu       1.25664000       3.76487000      13.57621000  T      -0.00141100      -0.00083600      -0.00157600
Cu       3.75438000       3.75824000      13.60949000  T       0.00009100      -0.00070000      -0.00158900
Cu       6.27191000       3.76137000      13.56633000  T       0.00050200      -0.00058100      -0.00130700
Cu       8.74885000       3.76529000      13.55737000  T       0.00008800      -0.00008400      -0.00043500
Cu      11.24006000       3.76520000      13.60944000  T      -0.00007700       0.00041800       0.00029700
Cu       1.25661000       6.24672000      13.57608000  T      -0.00151100       0.00077700      -0.00157800
Cu       3.75507000       6.25407000      13.60912000  T       0.00005800       0.00054200      -0.00161300
Cu       6.27258000       6.25051000      13.56654000  T       0.00050300       0.00049800      -0.00131800
Cu       8.74928000       6.24666000      13.55714000  T       0.00018000      -0.00005700      -0.00046300
Cu      11.24036000       6.24689000      13.60893000  T      -0.00010900      -0.00033600       0.00032100
Cu       1.26462000       8.76078000      13.57554000  T      -0.00054100       0.00035800      -0.00044400
Cu       3.78065000       8.74663000      13.59998000  T      -0.00039000       0.00053100      -0.00063100
Cu       6.28374000       8.73555000      13.60767000  T      -0.00029900       0.00036200      -0.00038400
Cu       8.76043000       8.73045000      13.61239000  T      -0.00049900       0.00023500      -0.00045900
Cu      11.25764000       8.74866000      13.59545000  T      -0.00054600       0.00018100      -0.00040500
Cu       1.24844000      11.26370000      13.59102000  T       0.00045900       0.00001000      -0.00038700
Cu       3.74492000      11.26399000      13.57050000  T       0.00059300      -0.00000700      -0.00025100
Cu       6.25364000      11.26421000      13.56377000  T       0.00061400       0.00001500      -0.00023500
Cu       8.76209000      11.26385000      13.56694000  T       0.00048500       0.00001000      -0.00022800
Cu      11.27069000      11.26408000      13.57395000  T       0.00039800       0.00005000      -0.00035300
Cu      12.51032000       0.00574000      15.36409000  T       0.00011200      -0.00009200      -0.00088200
Cu       2.50708000      12.51755000      15.36314000  T       0.00009400      -0.00011000      -0.00037900
Cu       5.00538000      12.48356000      15.35238000  T       0.00025200      -0.00019400      -0.00015500
Cu       7.50557000      12.49625000      15.34451000  T       0.00032500      -0.00005300      -0.00017500
Cu      10.01192000      12.49634000      15.35130000  T       0.00032800      -0.00003600      -0.00062000
Cu       0.05102000       2.49810000      15.34699000  T      -0.00254800      -0.00096000      -0.00111200
Cu       2.51647000       2.49330000      15.36486000  T      -0.00260500      -0.00036300      -0.00114100
Cu       5.00020000       2.41639000      15.45428000  T      -0.00342500      -0.00094000      -0.00085900
Cu       7.55746000       2.50770000      15.46960000  T      -0.00340000      -0.00028700      -0.00104700
Cu      10.09715000       2.45549000      15.44720000  T      -0.00163600      -0.00023900      -0.00110300
Cu      12.47976000       5.00615000      15.35339000  T       0.00010500       0.00012000       0.00107100
Cu       2.41262000       5.00625000      15.48159000  T       0.00398900      -0.00010700      -0.01238900
Pd       5.01805000       5.00598000      15.47629000  T      -0.00064900       0.00010200      -0.00605100
Y        7.47001000       5.00582000      17.24426000  T       0.00132100       0.00015900       0.00207600
Cu       9.97399000       5.00669000      15.45006000  T       0.00053900       0.00007100      -0.00043000
Cu       0.05057000       7.51450000      15.34644000  T      -0.00267300       0.00136900      -0.00112700
Cu       2.51648000       7.51817000      15.36530000  T      -0.00269000       0.00018200      -0.00133400
Cu       5.00106000       7.59591000      15.45448000  T      -0.00362800       0.00101800      -0.00089800
Cu       7.55789000       7.50382000      15.46942000  T      -0.00336000       0.00052000      -0.00137800
Cu      10.09722000       7.55677000      15.44677000  T      -0.00166500       0.00036700      -0.00115000
Cu      12.51112000      10.00801000      15.36396000  T       0.00032900       0.00037700      -0.00068300
Cu       2.50804000      10.00966000      15.36296000  T       0.00026100      -0.00008500      -0.00041300
Cu       5.00624000      10.04325000      15.35170000  T       0.00037700       0.00019800      -0.00025900
Cu       7.50604000      10.02989000      15.34425000  T       0.00045800       0.00020500      -0.00020800
Cu      10.01234000      10.03048000      15.35102000  T       0.00047100       0.00018700      -0.00062300
O        6.15265000       3.40059000      16.64312000  T      -0.00187400       0.00066300       0.00402800
O        6.15303000       6.61084000      16.64285000  T      -0.00173700      -0.00060700       0.00382000
O        8.99095000       6.43119000      16.54383000  T      -0.00129800      -0.00002600       0.00068000
O        8.99096000       3.58142000      16.54347000  T      -0.00152100       0.00009800       0.00064600
C        2.54874000       5.02050000      17.42982000  T      -0.01227500       0.00023900      -0.00717800
O        1.35658000       5.03970000      18.11219000  T      -0.02601500      -0.00002800       0.00014400
O        3.60608000       5.01121000      18.05187000  T      -0.01991400       0.00115400       0.01301600
H        1.58812000       5.04252000      19.07440000  T      -0.03380300      -0.00018200      -0.01922900
108
Lattice="12.515153631 0.0 0.0 0.0 12.515153631 0.0 0.0 0.0 25.30973" Properties=species:S:1:pos:R:3:move_mask:L:1:forces:R:3 stress="0.007985380534145915 2.8149206157733494e-06 0.00019721920535965918 2.8149206157733494e-06 0.008058187738099343 -8.738112776236562e-07 0.00019721920535965918 -8.738112776236562e-07 0.0020677870073686202" free_energy=-445.06974201 energy=-445.06991816 pbc="T T T"
Cu       1.25152000       1.25152000      10.00000000  F       0.00230700      -0.00224100      -0.06963500
Cu       3.75455000       1.25152000      10.00000000  F      -0.00084100       0.01602400      -0.06960400
Cu       6.25758000       1.25152000      10.00000000  F       0.00568800       0.01326900      -0.06885200
Cu       8.76061000       1.25152000      10.00000000  F      -0.00240100      -0.00030800      -0.04413600
Cu      11.26364000       1.25152000      10.00000000  F      -0.00720800      -0.00831400      -0.07433900
Cu       1.25152000       3.75455000      10.00000000  F      -0.01118900       0.00524400      -0.06371300
Cu       3.75455000       3.75455000      10.00000000  F       0.01700900      -0.01919500      -0.04630500
Cu       6.25758000       3.75455000      10.00000000  F      -0.02148000      -0.01752600      -0.07967700
Cu       8.76061000       3.75455000      10.00000000  F       0.00848400      -0.01574000      -0.07804700
Cu      11.26364000       3.75455000      10.00000000  F       0.00857100       0.01023100      -0.05638600
Cu       1.25152000       6.25758000      10.00000000  F      -0.01172000      -0.00398200      -0.06539300
Cu       3.75455000       6.25758000      10.00000000  F       0.01837600       0.01975200      -0.04687100
Cu       6.25758000       6.25758000      10.00000000  F      -0.02159500       0.01936400      -0.08260100
Cu       8.76061000       6.25758000      10.00000000  F       0.00722000       0.01627100      -0.07866500
Cu      11.26364000       6.25758000      10.00000000  F       0.00906500      -0.00889700      -0.05778400
Cu       1.25152000       8.76061000      10.00000000  F       0.00246300      -0.00115300      -0.06840300
Cu       3.75455000       8.76061000      10.00000000  F      -0.00169800      -0.01863900      -0.06862700
Cu       6.25758000       8.76061000      10.00000000  F       0.00591800      -0.01752800      -0.06681000
Cu       8.76061000       8.76061000      10.00000000  F      -0.00196100      -0.00219000      -0.04311000
Cu      11.26364000       8.76061000      10.00000000  F      -0.00716700       0.00463300      -0.07320200
Cu       1.25152000      11.26364000      10.00000000  F       0.00225400       0.00166400      -0.01588500
Cu       3.75455000      11.26364000      10.00000000  F      -0.01231900       0.00163100      -0.06252100
Cu       6.25758000      11.26364000      10.00000000  F       0.00878500       0.00197600      -0.06601800
Cu       8.76061000      11.26364000      10.00000000  F      -0.00520300       0.00154000      -0.08359500
Cu      11.26364000      11.26364000      10.00000000  F       0.00036500       0.00188900      -0.05154700
Cu       0.00000000       0.00000000      11.76991000  F      -0.00766300       0.05263800       0.08305900
Cu       2.50303000       0.00000000      11.76991000  F       0.03079600       0.04368000       0.05920600
Cu       5.00606000       0.00000000      11.76991000  F       0.04762300       0.08340400       0.06413400
Cu       7.50909000       0.00000000      11.76991000  F       0.01846800       0.08711600       0.06399500
Cu      10.01212000       0.00000000      11.76991000  F      -0.04723500       0.09230100       0.06843400
Cu       0.00000000       2.50303000      11.76991000  F      -0.06800400       0.05397000       0.06782700
Cu       2.50303000       2.50303000      11.76991000  F       0.07744800       0.02518200       0.05071500
Cu       5.00606000       2.50303000      11.76991000  F      -0.02968500      -0.01870100       0.05212700
Cu       7.50909000       2.50303000      11.76991000  F      -0.01203900      -0.02684900       0.06469100
Cu      10.01212000       2.50303000      11.76991000  F       0.06395600      -0.04120500       0.04706300
Cu       0.00000000       5.00606000      11.76991000  F      -0.08723500       0.00076200       0.03999900
Cu       2.50303000       5.00606000      11.76991000  F       0.09471300       0.00111000       0.10570000
Cu       5.00606000       5.00606000      11.76991000  F      -0.05824900       0.00184800       0.10915400
Cu       7.50909000       5.00606000      11.76991000  F      -0.03102800       0.00177600       0.07526000
Cu      10.01212000       5.00606000      11.76991000  F       0.05641900       0.00056700       0.05439700
Cu       0.00000000       7.50909000      11.76991000  F      -0.06772100      -0.05749900       0.06848700
Cu       2.50303000       7.50909000      11.76991000  F       0.07748100      -0.02826700       0.05178000
Cu       5.00606000       7.50909000      11.76991000  F      -0.02768300       0.01553400       0.05305400
Cu       7.50909000       7.50909000      11.76991000  F      -0.01272600       0.02273600       0.06567500
Cu      10.01212000       7.50909000      11.76991000  F       0.06541300       0.03950400       0.04698000
Cu       0.00000000      10.01212000      11.76991000  F      -0.00670500      -0.05055000       0.08104700
Cu       2.50303000      10.01212000      11.76991000  F       0.03221000      -0.04296200       0.05949800
Cu       5.00606000      10.01212000      11.76991000  F       0.04654500      -0.08139000       0.06409300
Cu       7.50909000      10.01212000      11.76991000  F       0.01914300      -0.08431300       0.06226600
Cu      10.01212000      10.01212000      11.76991000  F      -0.04821100      -0.09039500       0.06793900
Cu       1.26424000       1.25059000      13.57550000  T      -0.00026500      -0.00001300      -0.00036100
Cu       3.78056000       1.26541000      13.59975000  T      -0.00039500      -0.00014200      -0.00044300
Cu       6.28361000       1.27685000      13.60800000  T      -0.00055300      -0.00000500      -0.00026700
Cu       8.76025000       1.28200000      13.61274000  T      -0.00054800       0.00015400      -0.00014500
Cu      11.25724000       1.26394000      13.59559000  T      -0.00041600       0.00020700      -0.00027800
Cu       1.25664000       3.76485000      13.57618000  T      -0.00069600      -0.00019200      -0.00078000
Cu       3.75441000       3.75823000      13.60947000  T      -0.00040400      -0.00039400      -0.00110200
Cu       6.27193000       3.76136000      13.56632000  T      -0.00006100      -0.00034900      -0.00089500
Cu       8.74887000       3.76529000      13.55737000  T      -0.00016800       0.00002200      -0.00016800
Cu      11.24009000       3.76520000      13.60944000  T      -0.00022900       0.00028600       0.00013900
Cu       1.25661000       6.24674000      13.57605000  T      -0.00074100       0.00020000      -0.00078400
Cu       3.75509000       6.25408000      13.60911000  T      -0.00042400       0.00036300      -0.00113100
Cu       6.27261000       6.25051000      13.56653000  T      -0.00005200       0.00035400      -0.00091100
Cu       8.74931000       6.24666000      13.55714000  T      -0.00014700      -0.00003300      -0.00018300
Cu      11.24038000       6.24688000      13.60893000  T      -0.00023800      -0.00022800       0.00014200
Cu       1.26463000       8.76079000      13.57554000  T      -0.00025600       0.00003100      -0.00035700
Cu       3.78066000       8.74663000      13.59998000  T      -0.00039600       0.00012500      -0.00046300
Cu       6.28377000       8.73555000      13.60768000  T      -0.00053000       0.00001900      -0.00027800
Cu       8.76045000       8.73045000      13.61239000  T      -0.00051800      -0.00011900      -0.00017900
Cu      11.25765000       8.74867000      13.59545000  T      -0.00036600      -0.00008400      -0.00024500
Cu       1.24847000      11.26370000      13.59102000  T       0.00020300       0.00001100      -0.00035000
Cu       3.74496000      11.26399000      13.57051000  T       0.00002600       0.00000300      -0.00030900
Cu       6.25368000      11.26421000      13.56377000  T      -0.00016500       0.00001600      -0.00021700
Cu       8.76213000      11.26385000      13.56694000  T      -0.00017500       0.00001700      -0.00019100
Cu      11.27072000      11.26408000      13.57394000  T       0.00004600       0.00003100      -0.00026900
Cu      12.51034000       0.00573000      15.36407000  T      -0.00004800       0.00006800      -0.00053100
Cu       2.50710000      12.51755000      15.36314000  T      -0.00008000       0.00003000      -0.00056100
Cu       5.00541000      12.48355000      15.35239000  T      -0.00017400      -0.00001200      -0.00052000
Cu       7.50561000      12.49625000      15.34452000  T      -0.00019800       0.00012700      -0.00034700
Cu      10.01195000      12.49634000      15.35130000  T      -0.00010900       0.00017400      -0.00034600
Cu       0.05099000       2.49809000      15.34698000  T      -0.00114100      -0.00020300      -0.00082400
Cu       2.51644000       2.49329000      15.36485000  T      -0.00106100      -0.00006400      -0.00101800
Cu       5.00017000       2.41638000      15.45428000  T      -0.00135500       0.00000500      -0.00044700
Cu       7.55742000       2.50770000      15.46960000  T      -0.00161300       0.00031200      -0.00043700
Cu      10.09715000       2.45548000      15.44719000  T      -0.00121100       0.00026300      -0.00059100
Cu      12.47980000       5.00615000      15.35342000  T      -0.00018900       0.00006000      -0.00019600
Cu       2.41270000       5.00625000      15.48149000  T       0.00133300      -0.00004900      -0.00483300
Pd       5.01806000       5.00598000      15.47613000  T       0.00057300      -0.00013000       0.00530400
Y        7.47006000       5.00583000      17.24440000  T      -0.00153900       0.00009600       0.00034900
Cu       9.97403000       5.00669000      15.45006000  T      -0.00031200       0.00003600      -0.00016200
Cu       0.05054000       7.51453000      15.34643000  T      -0.00118200       0.00036500      -0.00083800
Cu       2.51645000       7.51818000      15.36528000  T      -0.00112100       0.00003000      -0.00100000
Cu       5.00102000       7.59592000      15.45448000  T      -0.00143000       0.00004400      -0.00043800
Cu       7.55784000       7.50382000      15.46941000  T      -0.00158000      -0.00019200      -0.00057800
Cu      10.09722000       7.55678000      15.44676000  T      -0.00121500      -0.00016800      -0.00064000
Cu      12.51114000      10.00802000      15.36395000  T       0.00001700       0.00003500      -0.00049100
Cu       2.50806000      10.00966000      15.36296000  T      -0.00002600      -0.00007500      -0.00056600
Cu       5.00627000      10.04325000      15.35171000  T      -0.00012500       0.00003300      -0.00052500
Cu       7.50608000      10.02990000      15.34425000  T      -0.00015500      -0.00005600      -0.00035800
Cu      10.01237000      10.03049000      15.35102000  T      -0.00006200      -0.00011200      -0.00037300
O        6.15273000       3.40057000      16.64323000  T      -0.00218900       0.00017800       0.00089200
O        6.15312000       6.61085000      16.64296000  T      -0.00204000      -0.00000900       0.00070400
O        8.99102000       6.43118000      16.54396000  T      -0.00110600       0.00005600      -0.00087600
O        8.99102000       3.58142000      16.54360000  T      -0.00119900       0.00004600      -0.00091100
C        2.54915000       5.02049000      17.43003000  T      -0.00962800       0.00027400      -0.00083500
O        1.35734000       5.03970000      18.11336000  T      -0.02206600      -0.00015000      -0.01534500
O        3.60674000       5.01120000      18.05185000  T      -0.02379700       0.00107100       0.00354200
H        1.59008000       5.04252000      19.07509000  T      -0.03426000      -0.00013300      -0.01103600
108
Lattice="12.515153631 0.0 0.0 0.0 12.515153631 0.0 0.0 0.0 25.30973" Properties=species:S:1:pos:R:3:move_mask:L:1:forces:R:3 stress="0.007999267891951005 2.683848924129801e-06 0.00019253807351524675 2.683848924129801e-06 0.00807123249217244 -7.926716589871739e-07 0.00019253807351524675 -7.926716589871739e-07 0.0020785161615560137" free_energy=-445.07018542 energy=-445.07034891 pbc="T T T"
Cu       1.25152000       1.25152000      10.00000000  F       0.00248700      -0.00228900      -0.06945700
Cu       3.75455000       1.25152000      10.00000000  F      -0.00057400       0.01602900      -0.06953700
Cu       6.25758000       1.25152000      10.00000000  F       0.00599000       0.01331100      -0.06870500
Cu       8.76061000       1.25152000      10.00000000  F      -0.00210100      -0.00029400      -0.04380100
Cu      11.26364000       1.25152000      10.00000000  F      -0.00693900      -0.00829400      -0.07401700
Cu       1.25152000       3.75455000      10.00000000  F      -0.01100100       0.00516900      -0.06364400
Cu       3.75455000       3.75455000      10.00000000  F       0.01734000      -0.01924000      -0.04625100
Cu       6.25758000       3.75455000      10.00000000  F      -0.02116100      -0.01753000      -0.07947200
Cu       8.76061000       3.75455000      10.00000000  F       0.00880200      -0.01570800      -0.07770200
Cu      11.26364000       3.75455000      10.00000000  F       0.00873600       0.01020000      -0.05613500
Cu       1.25152000       6.25758000      10.00000000  F      -0.01153100      -0.00395700      -0.06533500
Cu       3.75455000       6.25758000      10.00000000  F       0.01871000       0.01974900      -0.04682900
Cu       6.25758000       6.25758000      10.00000000  F      -0.02128000       0.01931700      -0.08241100
Cu       8.76061000       6.25758000      10.00000000  F       0.00753900       0.01618800      -0.07834200
Cu      11.26364000       6.25758000      10.00000000  F       0.00922800      -0.00892100      -0.05755100
Cu       1.25152000       8.76061000      10.00000000  F       0.00264500      -0.00112400      -0.06825500
Cu       3.75455000       8.76061000      10.00000000  F      -0.00143100      -0.01866900      -0.06858000
Cu       6.25758000       8.76061000      10.00000000  F       0.00621700      -0.01759200      -0.06668300
Cu       8.76061000       8.76061000      10.00000000  F      -0.00166100      -0.00222500      -0.04280800
Cu      11.26364000       8.76061000      10.00000000  F      -0.00689900       0.00459100      -0.07291400
Cu       1.25152000      11.26364000      10.00000000  F       0.00244100       0.00166300      -0.01569300
Cu       3.75455000      11.26364000      10.00000000  F      -0.01209200       0.00163100      -0.06238800
Cu       6.25758000      11.26364000      10.00000000  F       0.00913800       0.00197600      -0.06590500
Cu       8.76061000      11.26364000      10.00000000  F      -0.00493200       0.00153900      -0.08338800
Cu      11.26364000      11.26364000      10.00000000  F       0.00065800       0.00189200      -0.05120300
Cu       0.00000000       0.00000000      11.76991000  F      -0.00770700       0.05260800       0.08279200
Cu       2.50303000       0.00000000      11.76991000  F       0.03086500       0.04351000       0.05895800
Cu       5.00606000       0.00000000      11.76991000  F       0.04793400       0.08326400       0.06405800
Cu       7.50909000       0.00000000      11.76991000  F       0.01880300       0.08727200       0.06408200
Cu      10.01212000       0.00000000      11.76991000  F      -0.04712100       0.09229800       0.06837900
Cu       0.00000000       2.50303000      11.76991000  F      -0.06863900       0.05363500       0.06723000
Cu       2.50303000       2.50303000      11.76991000  F       0.07740100       0.02474000       0.05006600
Cu       5.00606000       2.50303000      11.76991000  F      -0.02933900      -0.01903400       0.05167000
Cu       7.50909000       2.50303000      11.76991000  F      -0.01157100      -0.02700700       0.06455400
Cu      10.01212000       2.50303000      11.76991000  F       0.06400500      -0.04095500       0.04721200
Cu       0.00000000       5.00606000      11.76991000  F      -0.08794200       0.00072900       0.03929500
Cu       2.50303000       5.00606000      11.76991000  F       0.09454900       0.00107100       0.10514800
Cu       5.00606000       5.00606000      11.76991000  F      -0.05759700       0.00180100       0.10855900
Cu       7.50909000       5.00606000      11.76991000  F      -0.03049700       0.00173200       0.07511400
Cu      10.01212000       5.00606000      11.76991000  F       0.05644500       0.00052900       0.05436100
Cu       0.00000000       7.50909000      11.76991000  F      -0.06836700      -0.05717300       0.06788100
Cu       2.50303000       7.50909000      11.76991000  F       0.07741600      -0.02788300       0.05112800
Cu       5.00606000       7.50909000      11.76991000  F      -0.02731300       0.01581500       0.05256200
Cu       7.50909000       7.50909000      11.76991000  F      -0.01225200       0.02284800       0.06551300
Cu      10.01212000       7.50909000      11.76991000  F       0.06549700       0.03924500       0.04710500
Cu       0.00000000      10.01212000      11.76991000  F      -0.00673800      -0.05048700       0.08076300
Cu       2.50303000      10.01212000      11.76991000  F       0.03228500      -0.04279100       0.05924800
Cu       5.00606000      10.01212000      11.76991000  F       0.04686600      -0.08125000       0.06402200
Cu       7.50909000      10.01212000      11.76991000  F       0.01948100      -0.08444100       0.06233500
Cu      10.01212000      10.01212000      11.76991000  F      -0.04808300      -0.09035000       0.06786500
Cu       1.26408000       1.25054000      13.57538000  T      -0.00067800      -0.00042200      -0.00027200
Cu       3.78041000       1.26533000      13.59964000  T      -0.00023900      -0.00039400      -0.00010000
Cu       6.28346000       1.27680000      13.60792000  T      -0.00035600      -0.00002900       0.00034900
Cu       8.76009000       1.28198000      13.61266000  T      -0.00051900       0.00015000       0.00032300
Cu      11.25707000       1.26395000      13.59547000  T      -0.00086300       0.00008500      -0.00012400
Cu       1.25634000       3.76473000      13.57588000  T      -0.00127200      -0.00056100      -0.00104900
Cu       3.75434000       3.75810000      13.60915000  T       0.00027500      -0.00056600      -0.00080300
Cu       6.27194000       3.76128000      13.56611000  T       0.00048400      -0.00033500      -0.00008600
Cu       8.74883000       3.76528000      13.55732000  T       0.00005900       0.00000200       0.00069500
Cu      11.24000000       3.76528000      13.60944000  T      -0.00048000       0.00030800       0.00065100
Cu       1.25629000       6.24686000      13.57575000  T      -0.00140300       0.00053100      -0.00110100
Cu       3.75502000       6.25419000      13.60878000  T       0.00022200       0.00045400      -0.00089300
Cu       6.27262000       6.25059000      13.56632000  T       0.00049600       0.00033100      -0.00014000
Cu       8.74928000       6.24666000      13.55708000  T       0.00007500      -0.00008300       0.00063500
Cu      11.24030000       6.24683000      13.60894000  T      -0.00050700      -0.00025700       0.00064000
Cu       1.26447000       8.76085000      13.57542000  T      -0.00059400       0.00045300      -0.00026600
Cu       3.78052000       8.74671000      13.59985000  T      -0.00018100       0.00029800      -0.00010000
Cu       6.28363000       8.73560000      13.60760000  T      -0.00030600       0.00005500       0.00032000
Cu       8.76031000       8.73048000      13.61229000  T      -0.00037400      -0.00011500       0.00026400
Cu      11.25749000       8.74869000      13.59532000  T      -0.00079000       0.00005500      -0.00008000
Cu       1.24849000      11.26371000      13.59091000  T       0.00037300       0.00001200      -0.00020300
Cu       3.74499000      11.26399000      13.57044000  T       0.00051800      -0.00000600       0.00005800
Cu       6.25372000      11.26422000      13.56371000  T       0.00070500       0.00004200       0.00026100
Cu       8.76216000      11.26386000      13.56686000  T       0.00049700       0.00004900       0.00022100
Cu      11.27073000      11.26409000      13.57383000  T       0.00026800       0.00005800      -0.00005200
Cu      12.51031000       0.00571000      15.36389000  T       0.00003600      -0.00015600      -0.00077600
Cu       2.50706000      12.51753000      15.36304000  T       0.00026500      -0.00013900      -0.00029000
Cu       5.00539000      12.48353000      15.35232000  T       0.00050100       0.00012100      -0.00010300
Cu       7.50562000      12.49625000      15.34445000  T       0.00051800       0.00026100      -0.00019700
Cu      10.01196000      12.49634000      15.35116000  T       0.00028100       0.00017100      -0.00059300
Cu       0.05053000       2.49798000      15.34678000  T      -0.00258100      -0.00089100      -0.00112700
Cu       2.51594000       2.49325000      15.36461000  T      -0.00185600      -0.00031300      -0.00130300
Cu       4.99965000       2.41638000      15.45423000  T      -0.00133700       0.00062700       0.00065300
Cu       7.55681000       2.50776000      15.46949000  T      -0.00226000       0.00121000       0.00028900
Cu      10.09671000       2.45550000      15.44704000  T      -0.00272200       0.00061500      -0.00044800
Cu      12.47990000       5.00618000      15.35356000  T       0.00011900       0.00007800       0.00086100
Cu       2.41313000       5.00623000      15.48001000  T       0.00328900      -0.00017000      -0.00584200
Pd       5.01806000       5.00599000      15.47580000  T       0.00171100       0.00006000      -0.00350300
Y        7.46965000       5.00585000      17.24448000  T       0.00064300       0.00002800      -0.00090900
Cu       9.97400000       5.00671000      15.45008000  T      -0.00091300       0.00003300       0.00084800
Cu       0.05006000       7.51471000      15.34623000  T      -0.00265100       0.00121600      -0.00113200
Cu       2.51593000       7.51819000      15.36502000  T      -0.00182700       0.00017800      -0.00137800
Cu       5.00048000       7.59593000      15.45443000  T      -0.00149000      -0.00058400       0.00063400
Cu       7.55726000       7.50380000      15.46924000  T      -0.00191900      -0.00118600       0.00021300
Cu      10.09677000       7.55679000      15.44660000  T      -0.00274600      -0.00045500      -0.00054600
Cu      12.51115000      10.00809000      15.36380000  T       0.00022100       0.00041700      -0.00059500
Cu       2.50806000      10.00964000      15.36285000  T       0.00037900      -0.00002100      -0.00029200
Cu       5.00628000      10.04327000      15.35163000  T       0.00061300      -0.00008000      -0.00016600
Cu       7.50611000      10.02993000      15.34418000  T       0.00063700      -0.00010100      -0.00024500
Cu      10.01241000      10.03052000      15.35088000  T       0.00040900      -0.00004100      -0.00059000
O        6.15206000       3.40061000      16.64364000  T      -0.00405900       0.00075300       0.00071600
O        6.15247000       6.61087000      16.64332000  T      -0.00378200      -0.00041700       0.00034500
O        8.99065000       6.43120000      16.54388000  T      -0.00246800       0.00027200      -0.00212400
O        8.99062000       3.58144000      16.54350000  T      -0.00258900      -0.00021000      -0.00223400
C        2.54453000       5.02061000      17.42905000  T      -0.00841000       0.00061500      -0.00583400
O        1.35033000       5.03964000      18.10829000  T      -0.03059500      -0.00028500      -0.01329900
O        3.60015000       5.01157000      18.05390000  T      -0.02580800       0.00130300       0.01183300
H        1.57891000       5.04247000      19.07110000  T      -0.03173000      -0.00015900      -0.01490200
108
Lattice="12.515153631 0.0 0.0 0.0 12.515153631 0.0 0.0 0.0 25.30973" Properties=species:S:1:pos:R:3:move_mask:L:1:forces:R:3 stress="0.007987714858558995 2.7025734515074508e-06 0.0001910588358524124 2.7025734515074508e-06 0.008057351375876475 -6.615999673436253e-07 0.0001910588358524124 -6.615999673436253e-07 0.0020611023510947986" free_energy=-445.06983169 energy=-445.0699957 pbc="T T T"
Cu       1.25152000       1.25152000      10.00000000  F       0.00298800      -0.00236100      -0.06911500
Cu       3.75455000       1.25152000      10.00000000  F      -0.00014500       0.01593900      -0.06906300
Cu       6.25758000       1.25152000      10.00000000  F       0.00625800       0.01317200      -0.06828100
Cu       8.76061000       1.25152000      10.00000000  F      -0.00191400      -0.00044700      -0.04354200
Cu      11.26364000       1.25152000      10.00000000  F      -0.00662000      -0.00841700      -0.07384800
Cu       1.25152000       3.75455000      10.00000000  F      -0.01048800       0.00513700      -0.06330100
Cu       3.75455000       3.75455000      10.00000000  F       0.01773200      -0.01928500      -0.04581500
Cu       6.25758000       3.75455000      10.00000000  F      -0.02094000      -0.01760900      -0.07913800
Cu       8.76061000       3.75455000      10.00000000  F       0.00899900      -0.01579500      -0.07754900
Cu      11.26364000       3.75455000      10.00000000  F       0.00911100       0.01015000      -0.05594800
Cu       1.25152000       6.25758000      10.00000000  F      -0.01102200      -0.00392000      -0.06497000
Cu       3.75455000       6.25758000      10.00000000  F       0.01909700       0.01979000      -0.04638100
Cu       6.25758000       6.25758000      10.00000000  F      -0.02105700       0.01939000      -0.08206300
Cu       8.76061000       6.25758000      10.00000000  F       0.00774000       0.01627700      -0.07816500
Cu      11.26364000       6.25758000      10.00000000  F       0.00960700      -0.00886700      -0.05732800
Cu       1.25152000       8.76061000      10.00000000  F       0.00313900      -0.00109200      -0.06787000
Cu       3.75455000       8.76061000      10.00000000  F      -0.00100800      -0.01861500      -0.06808400
Cu       6.25758000       8.76061000      10.00000000  F       0.00648700      -0.01748900      -0.06624100
Cu       8.76061000       8.76061000      10.00000000  F      -0.00146700      -0.00211100      -0.04251900
Cu      11.26364000       8.76061000      10.00000000  F      -0.00657800       0.00467400      -0.07268900
Cu       1.25152000      11.26364000      10.00000000  F       0.00291700       0.00162700      -0.01536100
Cu       3.75455000      11.26364000      10.00000000  F      -0.01162600       0.00159800      -0.06188700
Cu       6.25758000      11.26364000      10.00000000  F       0.00942800       0.00194600      -0.06538600
Cu       8.76061000      11.26364000      10.00000000  F      -0.00474200       0.00150300      -0.08303000
Cu      11.26364000      11.26364000      10.00000000  F       0.00092800       0.00185400      -0.05093800
Cu       0.00000000       0.00000000      11.76991000  F      -0.00722900       0.05254800       0.08275200
Cu       2.50303000       0.00000000      11.76991000  F       0.03140400       0.04345100       0.05894100
Cu       5.00606000       0.00000000      11.76991000  F       0.04826400       0.08314700       0.06396300
Cu       7.50909000       0.00000000      11.76991000  F       0.01895800       0.08708600       0.06387200
Cu      10.01212000       0.00000000      11.76991000  F      -0.04688200       0.09216700       0.06823100
Cu       0.00000000       2.50303000      11.76991000  F      -0.06810200       0.05353800       0.06725700
Cu       2.50303000       2.50303000      11.76991000  F       0.07787500       0.02465100       0.05013400
Cu       5.00606000       2.50303000      11.76991000  F      -0.02910800      -0.01922400       0.05157200
Cu       7.50909000       2.50303000      11.76991000  F      -0.01142800      -0.02726100       0.06433400
Cu      10.01212000       2.50303000      11.76991000  F       0.06433900      -0.04114900       0.04704800
Cu       0.00000000       5.00606000      11.76991000  F      -0.08734300       0.00072100       0.03936900
Cu       2.50303000       5.00606000      11.76991000  F       0.09496500       0.00106500       0.10530100
Cu       5.00606000       5.00606000      11.76991000  F      -0.05741400       0.00179600       0.10852000
Cu       7.50909000       5.00606000      11.76991000  F      -0.03036300       0.00172900       0.07494900
Cu      10.01212000       5.00606000      11.76991000  F       0.05684400       0.00052500       0.05425800
Cu       0.00000000       7.50909000      11.76991000  F      -0.06783300      -0.05709500       0.06794300
Cu       2.50303000       7.50909000      11.76991000  F       0.07788600      -0.02781700       0.05123300
Cu       5.00606000       7.50909000      11.76991000  F      -0.02708000       0.01598500       0.05250200
Cu       7.50909000       7.50909000      11.76991000  F      -0.01210900       0.02307800       0.06534100
Cu      10.01212000       7.50909000      11.76991000  F       0.06583500       0.03941500       0.04698300
Cu       0.00000000      10.01212000      11.76991000  F      -0.00625800      -0.05046800       0.08074200
Cu       2.50303000      10.01212000      11.76991000  F       0.03282300      -0.04277400       0.05924900
Cu       5.00606000      10.01212000      11.76991000  F       0.04719200      -0.08117400       0.06395200
Cu       7.50909000      10.01212000      11.76991000  F       0.01964100      -0.08429900       0.06215800
Cu      10.01212000      10.01212000      11.76991000  F      -0.04784200      -0.09025900       0.06773800
Cu       1.26407000       1.25053000      13.57538000  T      -0.00061300      -0.00048300      -0.00060000
Cu       3.78040000       1.26532000      13.59964000  T      -0.00055300      -0.00049000      -0.00032000
Cu       6.28346000       1.27680000      13.60794000  T      -0.00078500      -0.00021800      -0.00003100
Cu       8.76009000       1.28199000      13.61268000  T      -0.00079400      -0.00003200      -0.00016300
Cu      11.25706000       1.26396000      13.59547000  T      -0.00079000       0.00003200      -0.00059600
Cu       1.25632000       3.76472000      13.57588000  T      -0.00134400      -0.00077300      -0.00148500
Cu       3.75433000       3.75809000      13.60915000  T      -0.00010700      -0.00089400      -0.00159900
Cu       6.27195000       3.76127000      13.56612000  T       0.00034100      -0.00062600      -0.00093600
Cu       8.74884000       3.76528000      13.55734000  T       0.00005200      -0.00007100       0.00014000
Cu      11.24000000       3.76527000      13.60946000  T      -0.00009400       0.00045000       0.00051900
Cu       1.25626000       6.24686000      13.57575000  T      -0.00157300       0.00069000      -0.00149400
Cu       3.75501000       6.25419000      13.60877000  T      -0.00017500       0.00067700      -0.00167500
Cu       6.27262000       6.25059000      13.56633000  T       0.00035000       0.00057600      -0.00095000
Cu       8.74929000       6.24665000      13.55710000  T       0.00008600      -0.00007400       0.00010400
Cu      11.24030000       6.24683000      13.60896000  T      -0.00012900      -0.00040300       0.00054400
Cu       1.26446000       8.76087000      13.57542000  T      -0.00052600       0.00053300      -0.00054400
Cu       3.78051000       8.74671000      13.59986000  T      -0.00047700       0.00037400      -0.00028800
Cu       6.28363000       8.73561000      13.60761000  T      -0.00069900       0.00026000       0.00000200
Cu       8.76031000       8.73048000      13.61231000  T      -0.00061300       0.00009800      -0.00020400
Cu      11.25749000       8.74870000      13.59533000  T      -0.00067400       0.00018900      -0.00050100
Cu       1.24849000      11.26371000      13.59092000  T       0.00076400       0.00003700      -0.00048500
Cu       3.74499000      11.26399000      13.57045000  T       0.00068300       0.00001300      -0.00013100
Cu       6.25373000      11.26422000      13.56372000  T       0.00071700       0.00007900      -0.00008200
Cu       8.76218000      11.26387000      13.56687000  T       0.00070200       0.00008500      -0.00027900
Cu      11.27074000      11.26410000      13.57383000  T       0.00069800       0.00009700      -0.00054700
Cu      12.51031000       0.00571000      15.36388000  T       0.00041000      -0.00020700      -0.00079800
Cu       2.50706000      12.51753000      15.36303000  T       0.00024700      -0.00011600      -0.00022900
Cu       5.00540000      12.48354000      15.35232000  T       0.00036600       0.00008100       0.00003400
Cu       7.50564000      12.49626000      15.34445000  T       0.00066100       0.00015800       0.00006700
Cu      10.01198000      12.49635000      15.35115000  T       0.00075900       0.00005200      -0.00044000
Cu       0.05049000       2.49796000      15.34677000  T      -0.00305600      -0.00101400      -0.00107500
Cu       2.51590000       2.49325000      15.36459000  T      -0.00319100      -0.00028100      -0.00162400
Cu       4.99963000       2.41639000      15.45425000  T      -0.00299600       0.00036800       0.00066200
Cu       7.55678000       2.50778000      15.46951000  T      -0.00368900       0.00077600       0.00006500
Cu      10.09668000       2.45551000      15.44703000  T      -0.00273000       0.00005300      -0.00058000
Cu      12.47990000       5.00617000      15.35357000  T       0.00134900       0.00009700       0.00141500
Cu       2.41315000       5.00623000      15.47999000  T       0.00326800      -0.00022500      -0.00767400
Pd       5.01809000       5.00599000      15.47567000  T       0.00298400       0.00068500      -0.00639400
Y        7.46967000       5.00583000      17.24445000  T      -0.00067800       0.00020700       0.00014600
Cu       9.97400000       5.00670000      15.45010000  T       0.00017800       0.00004000       0.00100500
Cu       0.05002000       7.51473000      15.34622000  T      -0.00317400       0.00147500      -0.00111600
Cu       2.51589000       7.51819000      15.36500000  T      -0.00319900       0.00001700      -0.00174300
Cu       5.00046000       7.59592000      15.45445000  T      -0.00308500      -0.00043300       0.00074300
Cu       7.55725000       7.50378000      15.46925000  T      -0.00328600      -0.00078700      -0.00001100
Cu      10.09674000       7.55678000      15.44660000  T      -0.00287400       0.00004600      -0.00061400
Cu      12.51116000      10.00810000      15.36380000  T       0.00068200       0.00067000      -0.00054700
Cu       2.50806000      10.00965000      15.36285000  T       0.00044100      -0.00006100      -0.00025200
Cu       5.00629000      10.04328000      15.35163000  T       0.00054600       0.00003400      -0.00006800
Cu       7.50613000      10.02993000      15.34419000  T       0.00085300       0.00012700      -0.00001300
Cu      10.01243000      10.03052000      15.35088000  T       0.00095400       0.00020600      -0.00045200
O        6.15206000       3.40060000      16.64361000  T      -0.00354100       0.00066800       0.00168500
O        6.15247000       6.61086000      16.64330000  T      -0.00332800      -0.00054500       0.00127900
O        8.99065000       6.43118000      16.54387000  T      -0.00205700      -0.00016000      -0.00002500
O        8.99062000       3.58143000      16.54349000  T      -0.00222100       0.00011900      -0.00002900
C        2.54442000       5.02062000      17.42897000  T      -0.00845800       0.00046700       0.00013400
O        1.35026000       5.03964000      18.10854000  T      -0.03751000      -0.00028100      -0.03249400
O        3.60008000       5.01156000      18.05386000  T      -0.03490000       0.00138100       0.00740000
H        1.57895000       5.04247000      19.07087000  T      -0.02803300      -0.00017300       0.00331600
108
Lattice="12.515153631 0.0 0.0 0.0 12.515153631 0.0 0.0 0.0 25.30973" Properties=species:S:1:pos:R:3:move_mask:L:1:forces:R:3 stress="0.007981086375867308 2.6963319423815675e-06 0.00018692071530195182 2.6963319423815675e-06 0.008045286538736143 -4.868377118188941e-07 0.00018692071530195182 -4.868377118188941e-07 0.002052776177920871" free_energy=-445.07104257 energy=-445.07120017 pbc="T T T"
Cu       1.25152000       1.25152000      10.00000000  F       0.00230700      -0.00229400      -0.06957400
Cu       3.75455000       1.25152000      10.00000000  F      -0.00069800       0.01596900      -0.06955400
Cu       6.25758000       1.25152000      10.00000000  F       0.00576400       0.01316500      -0.06868800
Cu       8.76061000       1.25152000      10.00000000  F      -0.00252100      -0.00042000      -0.04382900
Cu      11.26364000       1.25152000      10.00000000  F      -0.00731900      -0.00831000      -0.07421900
Cu       1.25152000       3.75455000      10.00000000  F      -0.01121200       0.00517800      -0.06378100
Cu       3.75455000       3.75455000      10.00000000  F       0.01714500      -0.01926900      -0.04635000
Cu       6.25758000       3.75455000      10.00000000  F      -0.02144200      -0.01759700      -0.07960700
Cu       8.76061000       3.75455000      10.00000000  F       0.00848300      -0.01575200      -0.07788900
Cu      11.26364000       3.75455000      10.00000000  F       0.00841200       0.01022400      -0.05627600
Cu       1.25152000       6.25758000      10.00000000  F      -0.01174400      -0.00393300      -0.06545300
Cu       3.75455000       6.25758000      10.00000000  F       0.01851700       0.01981300      -0.04691300
Cu       6.25758000       6.25758000      10.00000000  F      -0.02156200       0.01942100      -0.08253000
Cu       8.76061000       6.25758000      10.00000000  F       0.00722100       0.01626600      -0.07851000
Cu      11.26364000       6.25758000      10.00000000  F       0.00890700      -0.00890800      -0.05767300
Cu       1.25152000       8.76061000      10.00000000  F       0.00246300      -0.00110800      -0.06834500
Cu       3.75455000       8.76061000      10.00000000  F      -0.00155500      -0.01859800      -0.06856900
Cu       6.25758000       8.76061000      10.00000000  F       0.00599000      -0.01743400      -0.06664600
Cu       8.76061000       8.76061000      10.00000000  F      -0.00208000      -0.00208500      -0.04280800
Cu      11.26364000       8.76061000      10.00000000  F      -0.00727800       0.00461800      -0.07308900
Cu       1.25152000      11.26364000      10.00000000  F       0.00226000       0.00165800      -0.01586800
Cu       3.75455000      11.26364000      10.00000000  F      -0.01214100       0.00162500      -0.06233300
Cu       6.25758000      11.26364000      10.00000000  F       0.00895900       0.00197100      -0.06572000
Cu       8.76061000      11.26364000      10.00000000  F      -0.00542300       0.00153200      -0.08332300
Cu      11.26364000      11.26364000      10.00000000  F       0.00022000       0.00188500      -0.05131100
Cu       0.00000000       0.00000000      11.76991000  F      -0.00808400       0.05260300       0.08296200
Cu       2.50303000       0.00000000      11.76991000  F       0.03072200       0.04344200       0.05918900
Cu       5.00606000       0.00000000      11.76991000  F       0.04767700       0.08308000       0.06409000
Cu       7.50909000       0.00000000      11.76991000  F       0.01825300       0.08711700       0.06393500
Cu      10.01212000       0.00000000      11.76991000  F      -0.04776600       0.09215400       0.06835100
Cu       0.00000000       2.50303000      11.76991000  F      -0.06911800       0.05354100       0.06727000
Cu       2.50303000       2.50303000      11.76991000  F       0.07708800       0.02460900       0.05024400
Cu       5.00606000       2.50303000      11.76991000  F      -0.02969700      -0.01930600       0.05161900
Cu       7.50909000       2.50303000      11.76991000  F      -0.01207000      -0.02732400       0.06434300
Cu      10.01212000       2.50303000      11.76991000  F       0.06356100      -0.04099200       0.04711600
Cu       0.00000000       5.00606000      11.76991000  F      -0.08834000       0.00075100       0.03931900
Cu       2.50303000       5.00606000      11.76991000  F       0.09410900       0.00110000       0.10541800
Cu       5.00606000       5.00606000      11.76991000  F      -0.05796600       0.00182800       0.10848000
Cu       7.50909000       5.00606000      11.76991000  F      -0.03101500       0.00176600       0.07493000
Cu      10.01212000       5.00606000      11.76991000  F       0.05609300       0.00056000       0.05415000
Cu       0.00000000       7.50909000      11.76991000  F      -0.06885800      -0.05703200       0.06790900
Cu       2.50303000       7.50909000      11.76991000  F       0.07710200      -0.02772900       0.05130100
Cu       5.00606000       7.50909000      11.76991000  F      -0.02766400       0.01612300       0.05249800
Cu       7.50909000       7.50909000      11.76991000  F      -0.01274800       0.02319300       0.06529700
Cu      10.01212000       7.50909000      11.76991000  F       0.06506500       0.03931300       0.04699700
Cu       0.00000000      10.01212000      11.76991000  F      -0.00711100      -0.05049500       0.08092100
Cu       2.50303000      10.01212000      11.76991000  F       0.03214400      -0.04273400       0.05946100
Cu       5.00606000      10.01212000      11.76991000  F       0.04660100      -0.08108500       0.06405100
Cu       7.50909000      10.01212000      11.76991000  F       0.01894500      -0.08430100       0.06218100
Cu      10.01212000      10.01212000      11.76991000  F      -0.04872600      -0.09021200       0.06781500
Cu       1.26399000       1.25053000      13.57538000  T      -0.00020400      -0.00054500      -0.00038300
Cu       3.78035000       1.26532000      13.59964000  T      -0.00035700      -0.00068200      -0.00022400
Cu       6.28338000       1.27680000      13.60794000  T      -0.00042900      -0.00041200       0.00001900
Cu       8.75998000       1.28200000      13.61267000  T      -0.00034500      -0.00017500       0.00002000
Cu      11.25694000       1.26397000      13.59546000  T      -0.00029200      -0.00012500      -0.00029500
Cu       1.25621000       3.76471000      13.57584000  T      -0.00098800      -0.00085100      -0.00128200
Cu       3.75430000       3.75808000      13.60912000  T       0.00000300      -0.00093900      -0.00138600
Cu       6.27190000       3.76127000      13.56611000  T       0.00053800      -0.00071700      -0.00071600
Cu       8.74876000       3.76529000      13.55734000  T       0.00025500      -0.00014300       0.00024800
Cu      11.23990000       3.76531000      13.60947000  T       0.00017900       0.00023200       0.00048400
Cu       1.25615000       6.24689000      13.57570000  T      -0.00115300       0.00075500      -0.00128500
Cu       3.75497000       6.25421000      13.60874000  T      -0.00005100       0.00079600      -0.00148900
Cu       6.27258000       6.25061000      13.56631000  T       0.00053500       0.00066100      -0.00077100
Cu       8.74921000       6.24665000      13.55710000  T       0.00031900      -0.00000400       0.00018800
Cu      11.24019000       6.24682000      13.60897000  T       0.00019500      -0.00021500       0.00052000
Cu       1.26438000       8.76086000      13.57541000  T      -0.00017200       0.00063900      -0.00033500
Cu       3.78046000       8.74671000      13.59985000  T      -0.00031300       0.00062400      -0.00022200
Cu       6.28355000       8.73560000      13.60761000  T      -0.00038100       0.00044400       0.00007200
Cu       8.76021000       8.73047000      13.61230000  T      -0.00022100       0.00028500      -0.00001900
Cu      11.25737000       8.74869000      13.59532000  T      -0.00017700       0.00030600      -0.00026300
Cu       1.24844000      11.26370000      13.59091000  T       0.00076400       0.00006800      -0.00027400
Cu       3.74497000      11.26398000      13.57045000  T       0.00052400       0.00005500      -0.00001800
Cu       6.25369000      11.26421000      13.56371000  T       0.00050100       0.00009800       0.00007300
Cu       8.76210000      11.26386000      13.56686000  T       0.00067800       0.00010200      -0.00002600
Cu      11.27066000      11.26409000      13.57383000  T       0.00082100       0.00013700      -0.00028600
Cu      12.51025000       0.00571000      15.36384000  T       0.00041600      -0.00019700      -0.00064100
Cu       2.50702000      12.51752000      15.36300000  T       0.00033500      -0.00017400      -0.00033600
Cu       5.00537000      12.48354000      15.35228000  T       0.00033900      -0.00006600      -0.00007200
Cu       7.50557000      12.49626000      15.34441000  T       0.00045600       0.00006800       0.00002500
Cu      10.01190000      12.49634000      15.35111000  T       0.00057400       0.00001600      -0.00032900
Cu       0.05035000       2.49795000      15.34671000  T      -0.00211400      -0.00092200      -0.00081300
Cu       2.51579000       2.49325000      15.36452000  T      -0.00221200      -0.00035000      -0.00111900
Cu       4.99949000       2.41638000      15.45418000  T      -0.00244700      -0.00028400       0.00012000
Cu       7.55662000       2.50779000      15.46944000  T      -0.00271500       0.00028300      -0.00005100
Cu      10.09653000       2.45551000      15.44697000  T      -0.00189000       0.00010100      -0.00027700
Cu      12.47985000       5.00618000      15.35358000  T       0.00095800       0.00007700       0.00168700
Cu       2.41320000       5.00623000      15.47945000  T       0.00273100      -0.00006200      -0.00942500
Pd       5.01805000       5.00599000      15.47555000  T       0.00167500      -0.00049000      -0.00390400
Y        7.46936000       5.00585000      17.24412000  T       0.00039600       0.00008100       0.00071300
Cu       9.97391000       5.00671000      15.45006000  T       0.00033300       0.00000700       0.00056300
Cu       0.04987000       7.51475000      15.34616000  T      -0.00217000       0.00128400      -0.00081200
Cu       2.51577000       7.51818000      15.36493000  T      -0.00221700       0.00017600      -0.00116700
Cu       5.00032000       7.59593000      15.45438000  T      -0.00245900       0.00036000       0.00029600
Cu       7.55709000       7.50378000      15.46918000  T      -0.00237100      -0.00017900      -0.00022500
Cu      10.09659000       7.55678000      15.44652000  T      -0.00187300       0.00007600      -0.00033900
Cu      12.51110000      10.00810000      15.36376000  T       0.00061500       0.00054000      -0.00046000
Cu       2.50802000      10.00964000      15.36281000  T       0.00046300       0.00006500      -0.00035300
Cu       5.00626000      10.04327000      15.35158000  T       0.00045300       0.00018200      -0.00011400
Cu       7.50607000      10.02992000      15.34414000  T       0.00059200       0.00018700      -0.00001100
Cu      10.01235000      10.03051000      15.35083000  T       0.00071100       0.00021200      -0.00031500
O        6.15164000       3.40075000      16.64343000  T      -0.00256300       0.00054200       0.00230800
O        6.15208000       6.61076000      16.64306000  T      -0.00239000      -0.00046300       0.00211800
O        8.99031000       6.43117000      16.54361000  T      -0.00154000       0.00021700       0.00019100
O        8.99026000       3.58149000      16.54323000  T      -0.00164100      -0.00026600       0.00009500
C        2.54189000       5.02074000      17.42799000  T      -0.00705200       0.00018500      -0.00016500
O        1.34591000       5.03960000      18.10441000  T      -0.02811000      -0.00017800      -0.01977300
O        3.59664000       5.01172000      18.05425000  T      -0.03120600       0.00127800       0.01133300
H        1.57014000       5.04243000      19.06807000  T      -0.02417400      -0.00028700      -0.01208600
108
Lattice="12.515153631 0.0 0.0 0.0 12.515153631 0.0 0.0 0.0 25.30973" Properties=species:S:1:pos:R:3:move_mask:L:1:forces:R:3 stress="0.0079909229942497 2.6401583602486184e-06 0.00017750227803099396 2.6401583602486184e-06 0.008054249345840911 -1.7476225552473123e-07 0.00017750227803099396 -1.7476225552473123e-07 0.0020532505326144378" free_energy=-445.07178271 energy=-445.0719328 pbc="T T T"
Cu       1.25152000       1.25152000      10.00000000  F       0.00288300      -0.00159800      -0.06982000
Cu       3.75455000       1.25152000      10.00000000  F      -0.00054000       0.01672100      -0.06934000
Cu       6.25758000       1.25152000      10.00000000  F       0.00501400       0.01382100      -0.06863200
Cu       8.76061000       1.25152000      10.00000000  F      -0.00335700       0.00012500      -0.04420100
Cu      11.26364000       1.25152000      10.00000000  F      -0.00733100      -0.00766300      -0.07489000
Cu       1.25152000       3.75455000      10.00000000  F      -0.01059400       0.00557700      -0.06356300
Cu       3.75455000       3.75455000      10.00000000  F       0.01730500      -0.01885000      -0.04564000
Cu       6.25758000       3.75455000      10.00000000  F      -0.02229700      -0.01719700      -0.07907600
Cu       8.76061000       3.75455000      10.00000000  F       0.00767800      -0.01533500      -0.07793900
Cu      11.26364000       3.75455000      10.00000000  F       0.00842000       0.01062700      -0.05651600
Cu       1.25152000       6.25758000      10.00000000  F      -0.01112900      -0.00426700      -0.06523200
Cu       3.75455000       6.25758000      10.00000000  F       0.01867600       0.01946000      -0.04621000
Cu       6.25758000       6.25758000      10.00000000  F      -0.02242000       0.01908500      -0.08199700
Cu       8.76061000       6.25758000      10.00000000  F       0.00641800       0.01591700      -0.07854900
Cu      11.26364000       6.25758000      10.00000000  F       0.00891500      -0.00924400      -0.05790400
Cu       1.25152000       8.76061000      10.00000000  F       0.00303300      -0.00174800      -0.06859100
Cu       3.75455000       8.76061000      10.00000000  F      -0.00139800      -0.01930100      -0.06835900
Cu       6.25758000       8.76061000      10.00000000  F       0.00524200      -0.01803800      -0.06658400
Cu       8.76061000       8.76061000      10.00000000  F      -0.00291200      -0.00257600      -0.04317200
Cu      11.26364000       8.76061000      10.00000000  F      -0.00728900       0.00402100      -0.07375300
Cu       1.25152000      11.26364000      10.00000000  F       0.00276500       0.00167900      -0.01642800
Cu       3.75455000      11.26364000      10.00000000  F      -0.01198900       0.00164800      -0.06243900
Cu       6.25758000      11.26364000      10.00000000  F       0.00835800       0.00199500      -0.06590400
Cu       8.76061000      11.26364000      10.00000000  F      -0.00628100       0.00155000      -0.08398500
Cu      11.26364000      11.26364000      10.00000000  F       0.00012100       0.00190400      -0.05207900
Cu       0.00000000       0.00000000      11.76991000  F      -0.00787600       0.05301300       0.08254900
Cu       2.50303000       0.00000000      11.76991000  F       0.03099200       0.04377000       0.05892300
Cu       5.00606000       0.00000000      11.76991000  F       0.04709200       0.08338900       0.06385000
Cu       7.50909000       0.00000000      11.76991000  F       0.01712500       0.08755600       0.06361600
Cu      10.01212000       0.00000000      11.76991000  F      -0.04841800       0.09246700       0.06790200
Cu       0.00000000       2.50303000      11.76991000  F      -0.06927300       0.05395400       0.06681500
Cu       2.50303000       2.50303000      11.76991000  F       0.07730000       0.02504800       0.04996700
Cu       5.00606000       2.50303000      11.76991000  F      -0.03025500      -0.01881700       0.05134200
Cu       7.50909000       2.50303000      11.76991000  F      -0.01319600      -0.02687100       0.06403800
Cu      10.01212000       2.50303000      11.76991000  F       0.06293600      -0.04013800       0.04704700
Cu       0.00000000       5.00606000      11.76991000  F      -0.08847600       0.00077800       0.03898500
Cu       2.50303000       5.00606000      11.76991000  F       0.09428100       0.00113600       0.10551300
Cu       5.00606000       5.00606000      11.76991000  F      -0.05835600       0.00185000       0.10827800
Cu       7.50909000       5.00606000      11.76991000  F      -0.03229900       0.00179100       0.07476300
Cu      10.01212000       5.00606000      11.76991000  F       0.05554800       0.00058500       0.05395300
Cu       0.00000000       7.50909000      11.76991000  F      -0.06902600      -0.05735100       0.06741300
Cu       2.50303000       7.50909000      11.76991000  F       0.07729600      -0.02811200       0.05101200
Cu       5.00606000       7.50909000      11.76991000  F      -0.02820600       0.01570700       0.05218000
Cu       7.50909000       7.50909000      11.76991000  F      -0.01387200       0.02279900       0.06496600
Cu      10.01212000       7.50909000      11.76991000  F       0.06446800       0.03853100       0.04688900
Cu       0.00000000      10.01212000      11.76991000  F      -0.00689100      -0.05083200       0.08048900
Cu       2.50303000      10.01212000      11.76991000  F       0.03241200      -0.04301200       0.05917600
Cu       5.00606000      10.01212000      11.76991000  F       0.04601100      -0.08135100       0.06381600
Cu       7.50909000      10.01212000      11.76991000  F       0.01782500      -0.08467400       0.06184700
Cu      10.01212000      10.01212000      11.76991000  F      -0.04937100      -0.09044300       0.06734200
Cu       1.26384000       1.25048000      13.57531000  T       0.00099300       0.00100300       0.00022700
Cu       3.78020000       1.26526000      13.59957000  T       0.00014600       0.00077800      -0.00001100
Cu       6.28321000       1.27678000      13.60790000  T      -0.00125700       0.00065200      -0.00017300
Cu       8.75979000       1.28199000      13.61264000  T      -0.00119600       0.00059400      -0.00033500
Cu      11.25674000       1.26397000      13.59540000  T       0.00000900       0.00090600      -0.00002700
Cu       1.25593000       3.76460000      13.57561000  T       0.00056000       0.00040100      -0.00041500
Cu       3.75422000       3.75799000      13.60890000  T       0.00017900       0.00026300      -0.00072000
Cu       6.27184000       3.76121000      13.56598000  T      -0.00110300       0.00037300      -0.00087000
Cu       8.74864000       3.76529000      13.55732000  T      -0.00101400       0.00048800      -0.00074800
Cu      11.23976000       3.76536000      13.60951000  T       0.00051300       0.00084400       0.00022000
Cu       1.25586000       6.24701000      13.57546000  T       0.00050000      -0.00036300      -0.00041200
Cu       3.75490000       6.25431000      13.60851000  T       0.00015900      -0.00026200      -0.00074700
Cu       6.27252000       6.25067000      13.56618000  T      -0.00109400      -0.00033500      -0.00088900
Cu       8.74909000       6.24665000      13.55707000  T      -0.00099900      -0.00049800      -0.00077200
Cu      11.24005000       6.24678000      13.60900000  T       0.00049900      -0.00078900       0.00021900
Cu       1.26423000       8.76091000      13.57534000  T       0.00100100      -0.00095800       0.00024300
Cu       3.78032000       8.74676000      13.59978000  T       0.00013500      -0.00076600      -0.00002000
Cu       6.28339000       8.73562000      13.60757000  T      -0.00123500      -0.00060400      -0.00017000
Cu       8.76002000       8.73048000      13.61225000  T      -0.00115400      -0.00053000      -0.00036700
Cu      11.25718000       8.74870000      13.59525000  T       0.00005500      -0.00081300      -0.00003000
Cu       1.24839000      11.26370000      13.59087000  T       0.00121300       0.00002700       0.00024900
Cu       3.74492000      11.26398000      13.57042000  T       0.00076800       0.00002400       0.00034000
Cu       6.25363000      11.26421000      13.56367000  T      -0.00076700       0.00004100       0.00010200
Cu       8.76202000      11.26386000      13.56681000  T      -0.00094900       0.00004400       0.00007100
Cu      11.27059000      11.26410000      13.57377000  T       0.00037900       0.00004300       0.00013200
Cu      12.51015000       0.00569000      15.36374000  T       0.00086800       0.00046500       0.00034200
Cu       2.50695000      12.51751000      15.36294000  T       0.00078400       0.00054200      -0.00045800
Cu       5.00530000      12.48353000      15.35224000  T      -0.00030900       0.00031700      -0.00075400
Cu       7.50549000      12.49627000      15.34437000  T      -0.00115800       0.00025900      -0.00020300
Cu      10.01181000      12.49635000      15.35103000  T      -0.00026200       0.00030700       0.00041100
Cu       0.04997000       2.49785000      15.34657000  T       0.00014200       0.00027900      -0.00092800
Cu       2.51543000       2.49323000      15.36435000  T      -0.00024400       0.00095400      -0.00167600
Cu       4.99903000       2.41632000      15.45405000  T      -0.00139000       0.00084600      -0.00065400
Cu       7.55611000       2.50780000      15.46932000  T      -0.00239500       0.00050100      -0.00069100
Cu      10.09617000       2.45553000      15.44686000  T      -0.00026500      -0.00000900      -0.00064500
Cu      12.47981000       5.00620000      15.35374000  T       0.00128900       0.00005300      -0.00058400
Cu       2.41358000       5.00624000      15.47742000  T       0.00389200      -0.00004500      -0.00592900
Pd       5.01803000       5.00599000      15.47523000  T      -0.00122400       0.00009900      -0.00617200
Y        7.46894000       5.00589000      17.24377000  T      -0.00160400       0.00017200       0.00142800
Cu       9.97379000       5.00673000      15.45002000  T       0.00044800       0.00003900      -0.00076000
Cu       0.04949000       7.51490000      15.34601000  T       0.00013100      -0.00011100      -0.00093800
Cu       2.51542000       7.51819000      15.36475000  T      -0.00024900      -0.00094200      -0.00171300
Cu       4.99985000       7.59600000      15.45426000  T      -0.00142100      -0.00078900      -0.00062000
Cu       7.55663000       7.50380000      15.46902000  T      -0.00249400      -0.00023100      -0.00090800
Cu      10.09623000       7.55680000      15.44640000  T      -0.00026100       0.00009900      -0.00066900
Cu      12.51102000      10.00814000      15.36368000  T       0.00094400      -0.00034600       0.00040400
Cu       2.50797000      10.00963000      15.36275000  T       0.00081100      -0.00057500      -0.00046800
Cu       5.00620000      10.04327000      15.35152000  T      -0.00027800      -0.00025000      -0.00078700
Cu       7.50600000      10.02993000      15.34409000  T      -0.00111800      -0.00015500      -0.00023000
Cu      10.01227000      10.03052000      15.35075000  T      -0.00021300      -0.00021600       0.00041300
O        6.15064000       3.40110000      16.64340000  T      -0.00315600       0.00107000       0.00172000
O        6.15115000       6.61049000      16.64295000  T      -0.00316400      -0.00119100       0.00180500
O        8.98958000       6.43122000      16.54317000  T      -0.00121100      -0.00047000       0.00172000
O        8.98949000       3.58150000      16.54277000  T      -0.00128700       0.00025400       0.00168900
C        2.53630000       5.02092000      17.42591000  T      -0.01355300      -0.00025400      -0.00743000
O        1.33595000       5.03949000      18.09519000  T      -0.02517400      -0.00051200       0.00004600
O        3.58781000       5.01211000      18.05684000  T      -0.02094100       0.00054200       0.01604200
H        1.55195000       5.04231000      19.06087000  T      -0.01734200      -0.00034700      -0.01977400
