108
Lattice="12.515153631 0.0 0.0 0.0 12.515153631 0.0 0.0 0.0 25.30973" Properties=species:S:1:pos:R:3:move_mask:L:1:forces:R:3 stress="0.008373490054611589 3.145096448532574e-05 4.2148911127089646e-05 3.145096448532574e-05 0.008124878263109406 0.00011254689255792693 4.2148911127089646e-05 0.00011254689255792693 0.00308701920611623" free_energy=-445.2459481 energy=-445.24532294 pbc="T T T"
Cu       1.25152000       1.25152000      10.00000000  F       0.00440900       0.00579900      -0.06296900
Cu       3.75455000       1.25152000      10.00000000  F       0.00237900       0.01746500      -0.06902700
Cu       6.25758000       1.25152000      10.00000000  F       0.00199400       0.01701900      -0.06353200
Cu       8.76061000       1.25152000      10.00000000  F       0.00209200      -0.00110900      -0.04728700
Cu      11.26364000       1.25152000      10.00000000  F      -0.01305800      -0.00473600      -0.07180000
Cu       1.25152000       3.75455000      10.00000000  F      -0.00277100       0.00169200      -0.06535200
Cu       3.75455000       3.75455000      10.00000000  F       0.01080000      -0.02072800      -0.04722000
Cu       6.25758000       3.75455000      10.00000000  F      -0.01650200      -0.02475700      -0.07611000
Cu       8.76061000       3.75455000      10.00000000  F       0.00674900      -0.01578800      -0.06993400
Cu      11.26364000       3.75455000      10.00000000  F       0.00500700       0.00013600      -0.05748900
Cu       1.25152000       6.25758000      10.00000000  F      -0.00506100      -0.00743200      -0.05592100
Cu       3.75455000       6.25758000      10.00000000  F       0.01292900       0.01552700      -0.03821500
Cu       6.25758000       6.25758000      10.00000000  F      -0.01657900       0.02158200      -0.07557800
Cu       8.76061000       6.25758000      10.00000000  F       0.00722000       0.01804800      -0.08112100
Cu      11.26364000       6.25758000      10.00000000  F       0.00285100      -0.00546900      -0.05079500
Cu       1.25152000       8.76061000      10.00000000  F       0.00590900       0.00958200      -0.06047900
Cu       3.75455000       8.76061000      10.00000000  F      -0.00865200      -0.01027800      -0.05933000
Cu       6.25758000       8.76061000      10.00000000  F       0.01078600      -0.01515700      -0.06283900
Cu       8.76061000       8.76061000      10.00000000  F      -0.00507500      -0.00645900      -0.04334600
Cu      11.26364000       8.76061000      10.00000000  F      -0.00459300       0.00525300      -0.07155300
Cu       1.25152000      11.26364000      10.00000000  F       0.00781500      -0.01051600      -0.02100800
Cu       3.75455000      11.26364000      10.00000000  F      -0.01478300      -0.00230400      -0.06596500
Cu       6.25758000      11.26364000      10.00000000  F       0.01035100       0.00242200      -0.06346500
Cu       8.76061000      11.26364000      10.00000000  F      -0.00318100       0.00537700      -0.07634000
Cu      11.26364000      11.26364000      10.00000000  F      -0.00294900       0.00398300      -0.04788200
Cu       0.00000000       0.00000000      11.76991000  F      -0.02419600       0.06703900       0.13564300
Cu       2.50303000       0.00000000      11.76991000  F       0.02943700       0.05605100       0.11191500
Cu       5.00606000       0.00000000      11.76991000  F       0.07254800       0.09129100       0.10073600
Cu       7.50909000       0.00000000      11.76991000  F       0.01631200       0.09050700       0.12318100
Cu      10.01212000       0.00000000      11.76991000  F      -0.05032600       0.09313500       0.12784700
Cu       0.00000000       2.50303000      11.76991000  F      -0.07716800       0.04206900       0.11415800
Cu       2.50303000       2.50303000      11.76991000  F       0.08275500       0.02055500       0.08765700
Cu       5.00606000       2.50303000      11.76991000  F      -0.02413800      -0.00767100       0.11107300
Cu       7.50909000       2.50303000      11.76991000  F      -0.01569200      -0.02822200       0.14009100
Cu      10.01212000       2.50303000      11.76991000  F       0.04034100      -0.05035500       0.10846400
Cu       0.00000000       5.00606000      11.76991000  F      -0.07142600       0.02217900       0.09261700
Cu       2.50303000       5.00606000      11.76991000  F       0.09454100       0.04224600       0.15391800
Cu       5.00606000       5.00606000      11.76991000  F      -0.07975700       0.02075700       0.19170200
Cu       7.50909000       5.00606000      11.76991000  F      -0.05431500      -0.00649000       0.14639000
Cu      10.01212000       5.00606000      11.76991000  F       0.03648500      -0.00505300       0.10210900
Cu       0.00000000       7.50909000      11.76991000  F      -0.06245400      -0.03256300       0.12449200
Cu       2.50303000       7.50909000      11.76991000  F       0.08277000      -0.03664700       0.10570100
Cu       5.00606000       7.50909000      11.76991000  F      -0.04896700       0.02373700       0.11712100
Cu       7.50909000       7.50909000      11.76991000  F      -0.01867100       0.02019900       0.11743200
Cu      10.01212000       7.50909000      11.76991000  F       0.04625100       0.04418900       0.08859500
Cu       0.00000000      10.01212000      11.76991000  F       0.00810800      -0.04953600       0.14073800
Cu       2.50303000      10.01212000      11.76991000  F       0.03236900      -0.01882300       0.08706200
Cu       5.00606000      10.01212000      11.76991000  F       0.02495200      -0.09216500       0.12888100
Cu       7.50909000      10.01212000      11.76991000  F       0.03284900      -0.07389700       0.11488000
Cu      10.01212000      10.01212000      11.76991000  F      -0.06234300      -0.06963100       0.12029800
Cu       1.26093000       1.25427000      13.58415000  T      -0.00344700      -0.01561600      -0.00343100
Cu       3.78678000       1.26902000      13.60926000  T      -0.00683800      -0.00870900      -0.01732200
Cu       6.28326000       1.27865000      13.62678000  T      -0.00336000      -0.00990900      -0.00484000
Cu       8.75722000       1.28132000      13.62887000  T       0.00575400      -0.00844800      -0.00850200
Cu      11.25541000       1.26386000      13.61361000  T       0.01189200      -0.01015400      -0.01941600
Cu       1.25306000       3.76855000      13.58045000  T       0.00777700       0.00047900       0.01246500
Cu       3.75037000       3.76523000      13.62223000  T      -0.02086200      -0.00252300      -0.01034100
Cu       6.26497000       3.76018000      13.58553000  T       0.00190100       0.00323500      -0.04754700
Cu       8.74233000       3.76358000      13.57066000  T      -0.00072400       0.00391300      -0.04322100
Cu      11.23415000       3.76183000      13.61639000  T       0.00041300       0.00345000       0.00464900
Cu       1.25857000       6.26477000      13.59319000  T       0.00651900       0.00156900       0.00411700
Cu       3.74306000       6.27019000      13.63936000  T      -0.01439900       0.00998400      -0.00305500
Cu       6.26643000       6.24691000      13.57976000  T       0.00757100      -0.00040500      -0.04750000
Cu       8.74415000       6.24670000      13.56661000  T      -0.00417000      -0.00345500      -0.04248200
Cu      11.23346000       6.24592000      13.61192000  T      -0.00523800      -0.00743400       0.00715100
Cu       1.27477000       8.76690000      13.59373000  T      -0.00435700       0.01084300      -0.00320600
Cu       3.76954000       8.74718000      13.62152000  T      -0.00391000       0.00409700      -0.00295200
Cu       6.28225000       8.73898000      13.61321000  T       0.00340900       0.00640700       0.00190600
Cu       8.75648000       8.73188000      13.62429000  T      -0.00995000       0.01608100      -0.00569500
Cu      11.24938000       8.75950000      13.60037000  T       0.01064600       0.01067400      -0.01175900
Cu       1.24666000      11.27461000      13.59870000  T      -0.01529700      -0.00092900      -0.01260200
Cu       3.75046000      11.27246000      13.57614000  T      -0.01512500      -0.00327000      -0.00309600
Cu       6.25802000      11.26757000      13.57676000  T      -0.00440400      -0.00112200      -0.00676500
Cu       8.76296000      11.26469000      13.58377000  T       0.00546500      -0.00274000      -0.00962100
Cu      11.26700000      11.27024000      13.58801000  T       0.02749600       0.00431500      -0.00814800
Cu       0.00157000       0.00818000      15.40134000  T      -0.00819400       0.01334300      -0.09545300
Cu       2.50796000       0.02286000      15.39667000  T       0.00832000       0.00920000      -0.09382600
Cu       5.00179000      12.48331000      15.37836000  T       0.01425000       0.00075800      -0.05103500
Cu       7.50793000      12.49361000      15.37436000  T      -0.00630600       0.00467100      -0.05477600
Cu      10.01770000      12.49687000      15.38379000  T      -0.01253500       0.00584800      -0.06243500
Cu       0.05013000       2.50362000      15.36974000  T       0.00778400       0.01001900      -0.05365500
Cu       2.51699000       2.47666000      15.37616000  T      -0.00460500       0.00611900      -0.04781000
Cu       4.99305000       2.42251000      15.49014000  T      -0.04975800      -0.06898500      -0.09025100
Cu       7.54178000       2.50956000      15.50105000  T       0.02412400      -0.07649700      -0.13576600
Cu      10.09115000       2.45852000      15.46542000  T       0.05557000      -0.05243300      -0.08174000
Cu      12.47283000       5.00829000      15.36461000  T       0.00722000       0.00370800      -0.07629100
Cu       2.40472000       4.94808000      15.48895000  T      -0.03256000      -0.03183100      -0.05974400
Pd       4.99062000       5.00405000      15.51062000  T       0.00479800      -0.00233100      -0.08052100
Y        7.48004000       4.99864000      17.25115000  T      -0.01880800       0.01446800       0.07801500
Cu       9.96786000       5.00614000      15.46638000  T       0.10336000      -0.00192900      -0.13984000
Cu      12.51473000       7.53200000      15.32865000  T      -0.00412200      -0.00962000      -0.05675200
Cu       2.50826000       7.62049000      15.45875000  T       0.00502000       0.00520200      -0.06623300
Cu       5.03681000       7.58955000      15.45240000  T      -0.04616400       0.07371200      -0.09573300
Cu       7.55315000       7.49724000      15.49742000  T       0.03045300       0.07608200      -0.12080900
Cu      10.07283000       7.55870000      15.46197000  T       0.05003400       0.05729600      -0.08460500
Cu      12.51472000      10.01885000      15.38847000  T      -0.00881300      -0.00941800      -0.08948700
Cu       2.50713000      10.08099000      15.38222000  T       0.01137700      -0.00436600      -0.07682400
Cu       5.00490000      10.04192000      15.36795000  T       0.01295100      -0.01325500      -0.04836200
Cu       7.50629000      10.02760000      15.37098000  T      -0.00464800      -0.01894000      -0.06222400
Cu      10.01660000      10.03423000      15.37974000  T      -0.01302800      -0.01728900      -0.06156900
O        6.14380000       3.39934000      16.68386000  T      -0.10016300       0.03252400       0.12472900
O        6.14688000       6.59305000      16.66871000  T      -0.10882000      -0.04126800       0.13204000
O        8.98194000       6.41551000      16.54802000  T       0.03252200       0.08797000       0.11029200
O        8.97567000       3.58429000      16.54189000  T       0.05597200      -0.09862600       0.09860200
C        2.35139000       5.72383000      17.25726000  T       0.01284800      -0.16327500       0.60696400
O        2.31916000       4.98442000      18.40867000  T       0.00865200       0.15906300      -0.77086200
O        2.39128000       6.97967000      17.40033000  T      -0.00565900      -0.25697000       0.04485800
H        2.33601000       5.63510000      19.14457000  T      -0.00618700       0.14466300       0.25417600
108
Lattice="12.515153631 0.0 0.0 0.0 12.515153631 0.0 0.0 0.0 25.30973" Properties=species:S:1:pos:R:3:move_mask:L:1:forces:R:3 stress="0.00841611956194137 2.9141606108748932e-05 4.0625982900374127e-05 2.9141606108748932e-05 0.0081262513951171 0.00019989057126553722 4.0625982900374127e-05 0.00019989057126553722 0.0030681386410104333" free_energy=-445.25691843 energy=-445.25629121 pbc="T T T"
Cu       1.25152000       1.25152000      10.00000000  F       0.00425900       0.00629700      -0.06374300
Cu       3.75455000       1.25152000      10.00000000  F       0.00213300       0.01833600      -0.06904500
Cu       6.25758000       1.25152000      10.00000000  F       0.00181700       0.01761500      -0.06384200
Cu       8.76061000       1.25152000      10.00000000  F       0.00235100      -0.00063500      -0.04757400
Cu      11.26364000       1.25152000      10.00000000  F      -0.01269500      -0.00428400      -0.07322500
Cu       1.25152000       3.75455000      10.00000000  F      -0.00269700       0.00169800      -0.06540000
Cu       3.75455000       3.75455000      10.00000000  F       0.01071500      -0.02043400      -0.04707600
Cu       6.25758000       3.75455000      10.00000000  F      -0.01674000      -0.02443900      -0.07610000
Cu       8.76061000       3.75455000      10.00000000  F       0.00676600      -0.01552100      -0.07021900
Cu      11.26364000       3.75455000      10.00000000  F       0.00529100       0.00010800      -0.05772500
Cu       1.25152000       6.25758000      10.00000000  F      -0.00488200      -0.00766900      -0.05578600
Cu       3.75455000       6.25758000      10.00000000  F       0.01283600       0.01523600      -0.03799100
Cu       6.25758000       6.25758000      10.00000000  F      -0.01675400       0.02131100      -0.07554400
Cu       8.76061000       6.25758000      10.00000000  F       0.00715700       0.01783100      -0.08134100
Cu      11.26364000       6.25758000      10.00000000  F       0.00305300      -0.00557000      -0.05097300
Cu       1.25152000       8.76061000      10.00000000  F       0.00585800       0.00906600      -0.06034000
Cu       3.75455000       8.76061000      10.00000000  F      -0.00864800      -0.01111200      -0.05920400
Cu       6.25758000       8.76061000      10.00000000  F       0.01059800      -0.01572700      -0.06298900
Cu       8.76061000       8.76061000      10.00000000  F      -0.00486500      -0.00700000      -0.04364500
Cu      11.26364000       8.76061000      10.00000000  F      -0.00450000       0.00484000      -0.07258500
Cu       1.25152000      11.26364000      10.00000000  F       0.00744200      -0.01026600      -0.02097900
Cu       3.75455000      11.26364000      10.00000000  F      -0.01496600      -0.00235200      -0.06381200
Cu       6.25758000      11.26364000      10.00000000  F       0.01034200       0.00234600      -0.06284900
Cu       8.76061000      11.26364000      10.00000000  F      -0.00289800       0.00536000      -0.07585800
Cu      11.26364000      11.26364000      10.00000000  F      -0.00272600       0.00405500      -0.04808700
Cu       0.00000000       0.00000000      11.76991000  F      -0.02386000       0.06768400       0.13406200
Cu       2.50303000       0.00000000      11.76991000  F       0.02929200       0.05647800       0.11132400
Cu       5.00606000       0.00000000      11.76991000  F       0.07219900       0.09156500       0.10064200
Cu       7.50909000       0.00000000      11.76991000  F       0.01624400       0.09061900       0.12280400
Cu      10.01212000       0.00000000      11.76991000  F      -0.05000200       0.09331900       0.12704000
Cu       0.00000000       2.50303000      11.76991000  F      -0.07673400       0.04258800       0.11354400
Cu       2.50303000       2.50303000      11.76991000  F       0.08231100       0.02103800       0.08734900
Cu       5.00606000       2.50303000      11.76991000  F      -0.02457200      -0.00745800       0.11021300
Cu       7.50909000       2.50303000      11.76991000  F      -0.01603000      -0.02832700       0.13877600
Cu      10.01212000       2.50303000      11.76991000  F       0.04109900      -0.05013100       0.10745200
Cu       0.00000000       5.00606000      11.76991000  F      -0.07086600       0.02219300       0.09278400
Cu       2.50303000       5.00606000      11.76991000  F       0.09445800       0.04229500       0.15371000
Cu       5.00606000       5.00606000      11.76991000  F      -0.08086000       0.02093500       0.19068200
Cu       7.50909000       5.00606000      11.76991000  F      -0.05462000      -0.00647900       0.14392500
Cu      10.01212000       5.00606000      11.76991000  F       0.03724000      -0.00504200       0.10068600
Cu       0.00000000       7.50909000      11.76991000  F      -0.06208400      -0.03323000       0.12429700
Cu       2.50303000       7.50909000      11.76991000  F       0.08268200      -0.03693800       0.10516600
Cu       5.00606000       7.50909000      11.76991000  F      -0.04955600       0.02353700       0.11665100
Cu       7.50909000       7.50909000      11.76991000  F      -0.01892100       0.02046500       0.11598700
Cu      10.01212000       7.50909000      11.76991000  F       0.04674500       0.04417800       0.08795100
Cu       0.00000000      10.01212000      11.76991000  F       0.00829900      -0.05009900       0.13954600
Cu       2.50303000      10.01212000      11.76991000  F       0.03232800      -0.01948500       0.08689600
Cu       5.00606000      10.01212000      11.76991000  F       0.02476300      -0.09269800       0.12889100
Cu       7.50909000      10.01212000      11.76991000  F       0.03251400      -0.07420100       0.11442800
Cu      10.01212000      10.01212000      11.76991000  F      -0.06194300      -0.06999500       0.11976000
Cu       1.26090000       1.25412000      13.58412000  T      -0.00269400      -0.01329500      -0.00642200
Cu       3.78671000       1.26894000      13.60909000  T      -0.00695600      -0.00795900      -0.01993400
Cu       6.28323000       1.27856000      13.62673000  T      -0.00353000      -0.00898700      -0.00785200
Cu       8.75727000       1.28123000      13.62879000  T       0.00579600      -0.00800800      -0.01196000
Cu      11.25553000       1.26376000      13.61343000  T       0.01175000      -0.00898100      -0.02242200
Cu       1.25314000       3.76856000      13.58057000  T       0.00704300       0.00024000       0.00746500
Cu       3.75017000       3.76520000      13.62213000  T      -0.01870800      -0.00205800      -0.01255300
Cu       6.26498000       3.76021000      13.58507000  T       0.00098000       0.00266300      -0.04467300
Cu       8.74233000       3.76362000      13.57025000  T      -0.00058400       0.00377400      -0.04042200
Cu      11.23415000       3.76186000      13.61644000  T       0.00111400       0.00224000       0.00023900
Cu       1.25863000       6.26479000      13.59323000  T       0.00748000       0.00106800       0.00284900
Cu       3.74292000       6.27029000      13.63933000  T      -0.01416600       0.00852800      -0.00395800
Cu       6.26650000       6.24691000      13.57930000  T       0.00632100       0.00003000      -0.04433300
Cu       8.74411000       6.24667000      13.56620000  T      -0.00374800      -0.00306400      -0.03967200
Cu      11.23341000       6.24585000      13.61199000  T      -0.00463300      -0.00614900       0.00255600
Cu       1.27473000       8.76700000      13.59370000  T      -0.00358000       0.00929800      -0.00570400
Cu       3.76950000       8.74722000      13.62149000  T      -0.00411000       0.00443100      -0.00696100
Cu       6.28229000       8.73904000      13.61323000  T       0.00269200       0.00555600      -0.00184900
Cu       8.75638000       8.73203000      13.62424000  T      -0.00849500       0.01467300      -0.00976300
Cu      11.24949000       8.75961000      13.60025000  T       0.01009900       0.00970600      -0.01533000
Cu       1.24652000      11.27460000      13.59858000  T      -0.01346200      -0.00113500      -0.01489200
Cu       3.75032000      11.27243000      13.57611000  T      -0.01354000      -0.00321400      -0.00543700
Cu       6.25798000      11.26756000      13.57669000  T      -0.00471500      -0.00123200      -0.00868300
Cu       8.76302000      11.26467000      13.58368000  T       0.00522800      -0.00241800      -0.01126600
Cu      11.26727000      11.27028000      13.58793000  T       0.02480100       0.00387300      -0.01030700
Cu       0.00149000       0.00831000      15.40041000  T      -0.00765100       0.01315300      -0.09090100
Cu       2.50804000       0.02295000      15.39576000  T       0.00816200       0.00911400      -0.09018600
Cu       5.00193000      12.48331000      15.37787000  T       0.01333200      -0.00125000      -0.04906100
Cu       7.50787000      12.49366000      15.37383000  T      -0.00625300       0.00255500      -0.05242500
Cu      10.01758000      12.49692000      15.38319000  T      -0.01205700       0.00367000      -0.06017800
Cu       0.05021000       2.50372000      15.36922000  T       0.00871900       0.01011900      -0.05152700
Cu       2.51695000       2.47671000      15.37569000  T      -0.00570600       0.00676000      -0.04599800
Cu       4.99257000       2.42185000      15.48927000  T      -0.03833000      -0.05629600      -0.07897000
Cu       7.54201000       2.50882000      15.49974000  T       0.01925400      -0.06236500      -0.11966400
Cu      10.09168000       2.45802000      15.46463000  T       0.04702400      -0.04335200      -0.07264600
Cu      12.47290000       5.00832000      15.36387000  T       0.00957000       0.00370700      -0.07365700
Cu       2.40441000       4.94778000      15.48837000  T      -0.03080900      -0.01483500      -0.02781800
Pd       4.99067000       5.00403000      15.50984000  T       0.00906600      -0.00190100      -0.07187300
Y        7.47986000       4.99878000      17.25190000  T      -0.00913600       0.01189600       0.06556200
Cu       9.96886000       5.00613000      15.46503000  T       0.08673100      -0.00116000      -0.12225500
Cu      12.51469000       7.53191000      15.32810000  T      -0.00084600      -0.01035700      -0.05373300
Cu       2.50830000       7.62054000      15.45811000  T       0.00230600      -0.00496000      -0.05208900
Cu       5.03636000       7.59026000      15.45148000  T      -0.03502300       0.05870900      -0.08194200
Cu       7.55344000       7.49797000      15.49626000  T       0.02474800       0.06200400      -0.10533400
Cu      10.07332000       7.55925000      15.46115000  T       0.04075000       0.04642700      -0.07473300
Cu      12.51463000      10.01876000      15.38760000  T      -0.00801500      -0.00933600      -0.08542300
Cu       2.50724000      10.08095000      15.38148000  T       0.01077600      -0.00442300      -0.07344200
Cu       5.00503000      10.04179000      15.36748000  T       0.01218500      -0.01052000      -0.04640900
Cu       7.50625000      10.02742000      15.37038000  T      -0.00481300      -0.01619500      -0.05911600
Cu      10.01647000      10.03406000      15.37914000  T      -0.01237200      -0.01449000      -0.05927900
O        6.14283000       3.39965000      16.68506000  T      -0.10020800       0.02603200       0.10926600
O        6.14583000       6.59265000      16.66999000  T      -0.10997500      -0.03327200       0.11549000
O        8.98226000       6.41635000      16.54908000  T       0.03444800       0.08435100       0.09620400
O        8.97621000       3.58333000      16.54284000  T       0.05448200      -0.09339200       0.08654000
C        2.35151000       5.72226000      17.26312000  T       0.01714300      -0.12648400       0.20964200
O        2.31924000       4.98595000      18.40124000  T       0.00569600       0.17413300      -0.23168900
O        2.39122000       6.97719000      17.40076000  T      -0.00060000      -0.11779300       0.06907000
H        2.33595000       5.63649000      19.14702000  T      -0.01134900      -0.05173500       0.04122200
108
Lattice="12.515153631 0.0 0.0 0.0 12.515153631 0.0 0.0 0.0 25.30973" Properties=species:S:1:pos:R:3:move_mask:L:1:forces:R:3 stress="0.00846540875950847 2.7593711845529887e-05 3.8753530162609146e-05 2.7593711845529887e-05 0.008132823704226655 0.00024092849376821965 3.8753530162609146e-05 0.00024092849376821965 0.0030590322791957695" free_energy=-445.2622377 energy=-445.26161821 pbc="T T T"
Cu       1.25152000       1.25152000      10.00000000  F       0.00422000       0.00605700      -0.06382000
Cu       3.75455000       1.25152000      10.00000000  F       0.00234100       0.01812900      -0.06925700
Cu       6.25758000       1.25152000      10.00000000  F       0.00193600       0.01741400      -0.06379200
Cu       8.76061000       1.25152000      10.00000000  F       0.00223800      -0.00086600      -0.04734600
Cu      11.26364000       1.25152000      10.00000000  F      -0.01275100      -0.00453700      -0.07317300
Cu       1.25152000       3.75455000      10.00000000  F      -0.00268500       0.00148800      -0.06597000
Cu       3.75455000       3.75455000      10.00000000  F       0.01092600      -0.02059700      -0.04763100
Cu       6.25758000       3.75455000      10.00000000  F      -0.01663700      -0.02462300      -0.07644600
Cu       8.76061000       3.75455000      10.00000000  F       0.00668800      -0.01573700      -0.07042300
Cu      11.26364000       3.75455000      10.00000000  F       0.00518600      -0.00008600      -0.05790400
Cu       1.25152000       6.25758000      10.00000000  F      -0.00484700      -0.00747700      -0.05638700
Cu       3.75455000       6.25758000      10.00000000  F       0.01301400       0.01537400      -0.03856300
Cu       6.25758000       6.25758000      10.00000000  F      -0.01665000       0.02144500      -0.07595200
Cu       8.76061000       6.25758000      10.00000000  F       0.00706900       0.01799000      -0.08159200
Cu      11.26364000       6.25758000      10.00000000  F       0.00296500      -0.00544500      -0.05120400
Cu       1.25152000       8.76061000      10.00000000  F       0.00586300       0.00931600      -0.06053000
Cu       3.75455000       8.76061000      10.00000000  F      -0.00842700      -0.01085600      -0.05947200
Cu       6.25758000       8.76061000      10.00000000  F       0.01067900      -0.01547600      -0.06300000
Cu       8.76061000       8.76061000      10.00000000  F      -0.00496400      -0.00675800      -0.04355000
Cu      11.26364000       8.76061000      10.00000000  F      -0.00459400       0.00514400      -0.07256900
Cu       1.25152000      11.26364000      10.00000000  F       0.00734900      -0.01020500      -0.02108400
Cu       3.75455000      11.26364000      10.00000000  F      -0.01471000      -0.00232600      -0.06383600
Cu       6.25758000      11.26364000      10.00000000  F       0.01039100       0.00238600      -0.06265300
Cu       8.76061000      11.26364000      10.00000000  F      -0.00291800       0.00542400      -0.07554800
Cu      11.26364000      11.26364000      10.00000000  F      -0.00278600       0.00411000      -0.04786600
Cu       0.00000000       0.00000000      11.76991000  F      -0.02381100       0.06758000       0.13204800
Cu       2.50303000       0.00000000      11.76991000  F       0.02934600       0.05607700       0.11016300
Cu       5.00606000       0.00000000      11.76991000  F       0.07242600       0.09114700       0.09984200
Cu       7.50909000       0.00000000      11.76991000  F       0.01633000       0.09018500       0.12191100
Cu      10.01212000       0.00000000      11.76991000  F      -0.05022600       0.09282100       0.12600600
Cu       0.00000000       2.50303000      11.76991000  F      -0.07658500       0.04249700       0.11315700
Cu       2.50303000       2.50303000      11.76991000  F       0.08192800       0.02055800       0.08676900
Cu       5.00606000       2.50303000      11.76991000  F      -0.02457500      -0.00837400       0.10907000
Cu       7.50909000       2.50303000      11.76991000  F      -0.01604900      -0.02968300       0.13709500
Cu      10.01212000       2.50303000      11.76991000  F       0.04138200      -0.05081100       0.10637400
Cu       0.00000000       5.00606000      11.76991000  F      -0.07077200       0.02216000       0.09278700
Cu       2.50303000       5.00606000      11.76991000  F       0.09421500       0.04235600       0.15324800
Cu       5.00606000       5.00606000      11.76991000  F      -0.08162400       0.02101500       0.18943400
Cu       7.50909000       5.00606000      11.76991000  F      -0.05458100      -0.00660700       0.14087600
Cu      10.01212000       5.00606000      11.76991000  F       0.03792300      -0.00511000       0.09902700
Cu       0.00000000       7.50909000      11.76991000  F      -0.06212400      -0.03315300       0.12410300
Cu       2.50303000       7.50909000      11.76991000  F       0.08258300      -0.03628300       0.10458200
Cu       5.00606000       7.50909000      11.76991000  F      -0.04970700       0.02449500       0.11589700
Cu       7.50909000       7.50909000      11.76991000  F      -0.01889000       0.02189700       0.11409200
Cu      10.01212000       7.50909000      11.76991000  F       0.04695600       0.04505400       0.08720200
Cu       0.00000000      10.01212000      11.76991000  F       0.00823000      -0.04993000       0.13778400
Cu       2.50303000      10.01212000      11.76991000  F       0.03241900      -0.01926900       0.08604200
Cu       5.00606000      10.01212000      11.76991000  F       0.02506800      -0.09240700       0.12825800
Cu       7.50909000      10.01212000      11.76991000  F       0.03233300      -0.07365800       0.11335500
Cu      10.01212000      10.01212000      11.76991000  F      -0.06199200      -0.06950400       0.11891100
Cu       1.26086000       1.25394000      13.58403000  T      -0.00218000      -0.01134100      -0.00972300
Cu       3.78662000       1.26883000      13.60881000  T      -0.00652800      -0.00789900      -0.02274700
Cu       6.28318000       1.27843000      13.62662000  T      -0.00321700      -0.00863300      -0.01144700
Cu       8.75735000       1.28112000      13.62862000  T       0.00578200      -0.00814300      -0.01585100
Cu      11.25569000       1.26364000      13.61311000  T       0.01085400      -0.00822900      -0.02515200
Cu       1.25324000       3.76856000      13.58067000  T       0.00624000      -0.00034700       0.00250100
Cu       3.74990000       3.76517000      13.62196000  T      -0.01600500      -0.00182700      -0.01445700
Cu       6.26500000       3.76025000      13.58445000  T       0.00058800       0.00124000      -0.04057200
Cu       8.74232000       3.76367000      13.56968000  T      -0.00039600       0.00287600      -0.03640700
Cu      11.23417000       3.76190000      13.61644000  T       0.00136100       0.00012500      -0.00486900
Cu       1.25874000       6.26480000      13.59327000  T       0.00774800       0.00128800       0.00034900
Cu       3.74272000       6.27041000      13.63927000  T      -0.01293200       0.00736400      -0.00548000
Cu       6.26659000       6.24691000      13.57868000  T       0.00544200       0.00102500      -0.03993800
Cu       8.74406000       6.24662000      13.56564000  T      -0.00319300      -0.00209300      -0.03564900
Cu      11.23335000       6.24576000      13.61202000  T      -0.00421400      -0.00396100      -0.00280400
Cu       1.27468000       8.76713000      13.59362000  T      -0.00276400       0.00817200      -0.00853200
Cu       3.76944000       8.74728000      13.62139000  T      -0.00412100       0.00548100      -0.01159600
Cu       6.28232000       8.73912000      13.61320000  T       0.00214400       0.00533700      -0.00634000
Cu       8.75626000       8.73224000      13.62410000  T      -0.00655200       0.01365200      -0.01437200
Cu      11.24963000       8.75974000      13.60004000  T       0.00889700       0.00920500      -0.01892000
Cu       1.24633000      11.27458000      13.59837000  T      -0.01122600      -0.00136400      -0.01728800
Cu       3.75013000      11.27239000      13.57604000  T      -0.01117500      -0.00298000      -0.00837400
Cu       6.25791000      11.26754000      13.57657000  T      -0.00435100      -0.00115100      -0.01120900
Cu       8.76309000      11.26463000      13.58352000  T       0.00477400      -0.00189000      -0.01315300
Cu      11.26762000      11.27034000      13.58779000  T       0.02051700       0.00345500      -0.01263400
Cu       0.00139000       0.00849000      15.39914000  T      -0.00725300       0.01229400      -0.08521200
Cu       2.50815000       0.02308000      15.39450000  T       0.00769700       0.00819200      -0.08542400
Cu       5.00211000      12.48330000      15.37718000  T       0.01239200      -0.00367000      -0.04692800
Cu       7.50778000      12.49369000      15.37310000  T      -0.00576300      -0.00028200      -0.05010100
Cu      10.01741000      12.49698000      15.38235000  T      -0.01143100       0.00080900      -0.05783000
Cu       0.05033000       2.50386000      15.36850000  T       0.00913900       0.00939700      -0.04857700
Cu       2.51687000       2.47681000      15.37505000  T      -0.00661800       0.00609400      -0.04315500
Cu       4.99204000       2.42106000      15.48817000  T      -0.02465200      -0.04158000      -0.06487000
Cu       7.54228000       2.50794000      15.49806000  T       0.01319200      -0.04507500      -0.09945800
Cu      10.09234000       2.45741000      15.46361000  T       0.03689700      -0.03356100      -0.06175700
Cu      12.47303000       5.00838000      15.36284000  T       0.01101100       0.00349800      -0.06850800
Cu       2.40397000       4.94757000      15.48798000  T      -0.02716800      -0.00719300      -0.01074900
Pd       4.99080000       5.00400000      15.50883000  T       0.01344200      -0.00204400      -0.06162500
Y        7.47973000       4.99895000      17.25282000  T      -0.00139300       0.00849800       0.04796200
Cu       9.97007000       5.00611000      15.46331000  T       0.06597600      -0.00044100      -0.10030100
Cu      12.51468000       7.53177000      15.32735000  T       0.00234900      -0.01008600      -0.04936500
Cu       2.50834000       7.62047000      15.45738000  T      -0.00072300      -0.01275900      -0.03413100
Cu       5.03587000       7.59109000      15.45033000  T      -0.02191100       0.04214000      -0.06523600
Cu       7.55379000       7.49884000      15.49478000  T       0.01737400       0.04538900      -0.08648500
Cu      10.07389000       7.55990000      15.46010000  T       0.02996300       0.03443600      -0.06311100
Cu      12.51452000      10.01863000      15.38641000  T      -0.00746600      -0.00848100      -0.08039500
Cu       2.50739000      10.08088000      15.38045000  T       0.00983100      -0.00413800      -0.06898700
Cu       5.00520000      10.04164000      15.36683000  T       0.01146000      -0.00691300      -0.04414600
Cu       7.50618000      10.02719000      15.36955000  T      -0.00454100      -0.01227300      -0.05584100
Cu      10.01630000      10.03386000      15.37831000  T      -0.01158800      -0.01064200      -0.05690200
O        6.14143000       3.40001000      16.68659000  T      -0.09425300       0.01857800       0.08792800
O        6.14428000       6.59219000      16.67161000  T      -0.10467400      -0.02475400       0.09356400
O        8.98274000       6.41754000      16.55043000  T       0.03340000       0.07777800       0.07748700
O        8.97698000       3.58203000      16.54406000  T       0.04944000      -0.08515600       0.07037500
C        2.35175000       5.72049000      17.26606000  T       0.02005700      -0.03770100       0.00967600
O        2.31932000       4.98839000      18.39799000  T       0.00070700       0.03880800      -0.01769200
O        2.39121000       6.97554000      17.40173000  T       0.00213600      -0.06091600       0.04854700
H        2.33579000       5.63577000      19.14760000  T      -0.01162000      -0.05995100       0.01744700
108
Lattice="12.515153631 0.0 0.0 0.0 12.515153631 0.0 0.0 0.0 25.30973" Properties=species:S:1:pos:R:3:move_mask:L:1:forces:R:3 stress="0.00845082235268128 2.6982043951193322e-05 3.307375685805539e-05 2.6982043951193322e-05 0.008093283743914185 0.0002468267198921793 3.307375685805539e-05 0.0002468267198921793 0.0030050494667660053" free_energy=-445.26603087 energy=-445.26542417 pbc="T T T"
Cu       1.25152000       1.25152000      10.00000000  F       0.00409900       0.00615500      -0.06384900
Cu       3.75455000       1.25152000      10.00000000  F       0.00223700       0.01806600      -0.06954900
Cu       6.25758000       1.25152000      10.00000000  F       0.00203400       0.01740000      -0.06431700
Cu       8.76061000       1.25152000      10.00000000  F       0.00250800      -0.00078900      -0.04772700
Cu      11.26364000       1.25152000      10.00000000  F      -0.01255300      -0.00436400      -0.07337100
Cu       1.25152000       3.75455000      10.00000000  F      -0.00295700       0.00143400      -0.06595400
Cu       3.75455000       3.75455000      10.00000000  F       0.01079500      -0.02063800      -0.04797300
Cu       6.25758000       3.75455000      10.00000000  F      -0.01646600      -0.02466500      -0.07694900
Cu       8.76061000       3.75455000      10.00000000  F       0.00707700      -0.01572900      -0.07076800
Cu      11.26364000       3.75455000      10.00000000  F       0.00536700      -0.00001900      -0.05779600
Cu       1.25152000       6.25758000      10.00000000  F      -0.00510500      -0.00740200      -0.05639200
Cu       3.75455000       6.25758000      10.00000000  F       0.01282100       0.01539400      -0.03891900
Cu       6.25758000       6.25758000      10.00000000  F      -0.01648300       0.02139200      -0.07650600
Cu       8.76061000       6.25758000      10.00000000  F       0.00746400       0.01788800      -0.08202000
Cu      11.26364000       6.25758000      10.00000000  F       0.00318900      -0.00555300      -0.05113100
Cu       1.25152000       8.76061000      10.00000000  F       0.00577700       0.00917300      -0.06058300
Cu       3.75455000       8.76061000      10.00000000  F      -0.00859900      -0.01079700      -0.05979600
Cu       6.25758000       8.76061000      10.00000000  F       0.01076400      -0.01541300      -0.06362400
Cu       8.76061000       8.76061000      10.00000000  F      -0.00469100      -0.00682200      -0.04405900
Cu      11.26364000       8.76061000      10.00000000  F      -0.00435800       0.00496200      -0.07276900
Cu       1.25152000      11.26364000      10.00000000  F       0.00729700      -0.01017200      -0.02121600
Cu       3.75455000      11.26364000      10.00000000  F      -0.01478600      -0.00229300      -0.06396000
Cu       6.25758000      11.26364000      10.00000000  F       0.01035200       0.00243300      -0.06325800
Cu       8.76061000      11.26364000      10.00000000  F      -0.00265000       0.00550200      -0.07611600
Cu      11.26364000      11.26364000      10.00000000  F      -0.00262800       0.00415600      -0.04805200
Cu       0.00000000       0.00000000      11.76991000  F      -0.02354300       0.06783600       0.12947300
Cu       2.50303000       0.00000000      11.76991000  F       0.02887600       0.05590700       0.10817900
Cu       5.00606000       0.00000000      11.76991000  F       0.07217700       0.09085700       0.09826500
Cu       7.50909000       0.00000000      11.76991000  F       0.01669800       0.09000000       0.12062700
Cu      10.01212000       0.00000000      11.76991000  F      -0.04968500       0.09270500       0.12471400
Cu       0.00000000       2.50303000      11.76991000  F      -0.07625200       0.04319700       0.11226300
Cu       2.50303000       2.50303000      11.76991000  F       0.08076600       0.02056000       0.08535300
Cu       5.00606000       2.50303000      11.76991000  F      -0.02505200      -0.00884100       0.10717400
Cu       7.50909000       2.50303000      11.76991000  F      -0.01564300      -0.03063000       0.13467900
Cu      10.01212000       2.50303000      11.76991000  F       0.04252000      -0.05085600       0.10480700
Cu       0.00000000       5.00606000      11.76991000  F      -0.07060500       0.02214100       0.09237300
Cu       2.50303000       5.00606000      11.76991000  F       0.09325200       0.04245700       0.15210600
Cu       5.00606000       5.00606000      11.76991000  F      -0.08305700       0.02112100       0.18741500
Cu       7.50909000       5.00606000      11.76991000  F      -0.05408100      -0.00678500       0.13679300
Cu      10.01212000       5.00606000      11.76991000  F       0.03962900      -0.00521000       0.09664800
Cu       0.00000000       7.50909000      11.76991000  F      -0.06200600      -0.03385700       0.12344700
Cu       2.50303000       7.50909000      11.76991000  F       0.08173800      -0.03618100       0.10323400
Cu       5.00606000       7.50909000      11.76991000  F      -0.05033000       0.02504400       0.11442400
Cu       7.50909000       7.50909000      11.76991000  F      -0.01845100       0.02285000       0.11145000
Cu      10.01212000       7.50909000      11.76991000  F       0.04801200       0.04528800       0.08605200
Cu       0.00000000      10.01212000      11.76991000  F       0.00838200      -0.05015300       0.13546100
Cu       2.50303000      10.01212000      11.76991000  F       0.03202500      -0.01931500       0.08434200
Cu       5.00606000      10.01212000      11.76991000  F       0.02481800      -0.09232800       0.12691100
Cu       7.50909000      10.01212000      11.76991000  F       0.03249100      -0.07327100       0.11183700
Cu      10.01212000      10.01212000      11.76991000  F      -0.06134200      -0.06936800       0.11781800
Cu       1.26082000       1.25372000      13.58385000  T      -0.00201900      -0.00850200      -0.01360700
Cu       3.78649000       1.26868000      13.60838000  T      -0.00624200      -0.00700000      -0.02534100
Cu       6.28312000       1.27827000      13.62641000  T      -0.00283600      -0.00758300      -0.01524400
Cu       8.75747000       1.28096000      13.62832000  T       0.00632000      -0.00758900      -0.01983200
Cu      11.25591000       1.26348000      13.61263000  T       0.00991900      -0.00655500      -0.02768900
Cu       1.25336000       3.76856000      13.58072000  T       0.00527900      -0.00051600      -0.00273800
Cu       3.74959000       3.76514000      13.62168000  T      -0.01365800      -0.00121600      -0.01562600
Cu       6.26501000       3.76027000      13.58366000  T       0.00007800       0.00020000      -0.03573700
Cu       8.74231000       3.76373000      13.56897000  T       0.00060400       0.00222700      -0.03176500
Cu      11.23419000       3.76190000      13.61635000  T       0.00200000      -0.00179900      -0.01055200
Cu       1.25889000       6.26483000      13.59328000  T       0.00723700       0.00131600      -0.00351300
Cu       3.74247000       6.27055000      13.63917000  T      -0.01141600       0.00592800      -0.00736700
Cu       6.26669000       6.24693000      13.57790000  T       0.00439600       0.00161300      -0.03468600
Cu       8.74399000       6.24658000      13.56495000  T      -0.00184400      -0.00125700      -0.03102900
Cu      11.23327000       6.24568000      13.61197000  T      -0.00333600      -0.00184300      -0.00892200
Cu       1.27462000       8.76729000      13.59346000  T      -0.00205400       0.00596300      -0.01164500
Cu       3.76936000       8.74738000      13.62118000  T      -0.00454800       0.00530800      -0.01582900
Cu       6.28237000       8.73922000      13.61308000  T       0.00156100       0.00435900      -0.01118100
Cu       8.75613000       8.73250000      13.62383000  T      -0.00365500       0.01164400      -0.01904100
Cu      11.24980000       8.75992000      13.59968000  T       0.00753000       0.00765700      -0.02246100
Cu       1.24611000      11.27456000      13.59804000  T      -0.00909700      -0.00140600      -0.01997900
Cu       3.74991000      11.27233000      13.57588000  T      -0.00898900      -0.00256500      -0.01183200
Cu       6.25783000      11.26752000      13.57636000  T      -0.00378200      -0.00112800      -0.01418200
Cu       8.76318000      11.26460000      13.58327000  T       0.00492200      -0.00125300      -0.01538700
Cu      11.26802000      11.27041000      13.58755000  T       0.01600500       0.00293000      -0.01528500
Cu       0.00125000       0.00873000      15.39749000  T      -0.00681600       0.01122100      -0.07811200
Cu       2.50830000       0.02324000      15.39284000  T       0.00680100       0.00696800      -0.07927100
Cu       5.00236000      12.48323000      15.37627000  T       0.01097300      -0.00562000      -0.04375800
Cu       7.50767000      12.49369000      15.37213000  T      -0.00467400      -0.00304200      -0.04644700
Cu      10.01719000      12.49700000      15.38123000  T      -0.00992500      -0.00191200      -0.05430100
Cu       0.05051000       2.50405000      15.36756000  T       0.00917800       0.00859200      -0.04542700
Cu       2.51674000       2.47693000      15.37421000  T      -0.00736500       0.00522900      -0.04030400
Cu       4.99154000       2.42024000      15.48689000  T      -0.01175000      -0.02673500      -0.05074100
Cu       7.54254000       2.50705000      15.49612000  T       0.00698300      -0.02637600      -0.07709200
Cu      10.09307000       2.45675000      15.46241000  T       0.02678100      -0.02330700      -0.05052700
Cu      12.47324000       5.00844000      15.36151000  T       0.01155200       0.00318800      -0.06280000
Cu       2.40344000       4.94742000      15.48775000  T      -0.02191900      -0.00569000      -0.00690100
Pd       4.99105000       5.00396000      15.50763000  T       0.01732000      -0.00202400      -0.04748000
Y        7.47970000       4.99912000      17.25377000  T       0.00480600       0.00558800       0.02796800
Cu       9.97137000       5.00610000      15.46135000  T       0.04334400       0.00052200      -0.07621900
Cu      12.51472000       7.53157000      15.32639000  T       0.00427300      -0.00923900      -0.04529000
Cu       2.50833000       7.62024000      15.45670000  T      -0.00327900      -0.01579100      -0.02292900
Cu       5.03543000       7.59192000      15.44905000  T      -0.00913100       0.02539300      -0.04884900
Cu       7.55413000       7.49974000      15.49309000  T       0.00973100       0.02737900      -0.06600600
Cu      10.07448000       7.56058000      15.45887000  T       0.01910100       0.02176800      -0.05102300
Cu      12.51438000      10.01846000      15.38485000  T      -0.00691000      -0.00753000      -0.07374100
Cu       2.50758000      10.08080000      15.37912000  T       0.00813700      -0.00444900      -0.06327900
Cu       5.00542000      10.04150000      15.36597000  T       0.01047000      -0.00365000      -0.04079600
Cu       7.50609000      10.02695000      15.36847000  T      -0.00374000      -0.00819700      -0.05082100
Cu      10.01607000      10.03365000      15.37721000  T      -0.01006400      -0.00669800      -0.05339800
O        6.13960000       3.40038000      16.68832000  T      -0.08797400       0.01426700       0.06707000
O        6.14225000       6.59170000      16.67344000  T      -0.09870400      -0.01935700       0.07320000
O        8.98339000       6.41905000      16.55195000  T       0.03255900       0.07038800       0.06003700
O        8.97794000       3.58037000      16.54544000  T       0.04520700      -0.07573200       0.05497600
C        2.35214000       5.71965000      17.26648000  T       0.01825600      -0.01918300      -0.01442400
O        2.31934000       4.98930000      18.39739000  T      -0.00106600      -0.03914900       0.00289500
O        2.39125000       6.97429000      17.40269000  T       0.00459700      -0.02282500       0.02568400
H        2.33557000       5.63462000      19.14797000  T      -0.01096700      -0.03539800       0.02938400
108
Lattice="12.515153631 0.0 0.0 0.0 12.515153631 0.0 0.0 0.0 25.30973" Properties=species:S:1:pos:R:3:move_mask:L:1:forces:R:3 stress="0.008428814791503416 2.6875938296053308e-05 2.6020851545807302e-05 2.6875938296053308e-05 0.008052183406320244 0.00025537134588551354 2.6020851545807302e-05 0.00025537134588551354 0.0029343019608241185" free_energy=-445.26910215 energy=-445.26851376 pbc="T T T"
Cu       1.25152000       1.25152000      10.00000000  F       0.00396000       0.00625400      -0.06381500
Cu       3.75455000       1.25152000      10.00000000  F       0.00221200       0.01815600      -0.06958200
Cu       6.25758000       1.25152000      10.00000000  F       0.00200200       0.01748800      -0.06416900
Cu       8.76061000       1.25152000      10.00000000  F       0.00261700      -0.00079300      -0.04751500
Cu      11.26364000       1.25152000      10.00000000  F      -0.01260200      -0.00445800      -0.07334000
Cu       1.25152000       3.75455000      10.00000000  F      -0.00294900       0.00139800      -0.06605300
Cu       3.75455000       3.75455000      10.00000000  F       0.01077300      -0.02049800      -0.04796500
Cu       6.25758000       3.75455000      10.00000000  F      -0.01651500      -0.02450600      -0.07681700
Cu       8.76061000       3.75455000      10.00000000  F       0.00703000      -0.01571000      -0.07071800
Cu      11.26364000       3.75455000      10.00000000  F       0.00535500      -0.00001000      -0.05771500
Cu       1.25152000       6.25758000      10.00000000  F      -0.00512400      -0.00743400      -0.05642700
Cu       3.75455000       6.25758000      10.00000000  F       0.01280600       0.01519100      -0.03883600
Cu       6.25758000       6.25758000      10.00000000  F      -0.01649500       0.02122900      -0.07622500
Cu       8.76061000       6.25758000      10.00000000  F       0.00740100       0.01784700      -0.08181700
Cu      11.26364000       6.25758000      10.00000000  F       0.00317700      -0.00559300      -0.05092200
Cu       1.25152000       8.76061000      10.00000000  F       0.00566300       0.00891900      -0.06044000
Cu       3.75455000       8.76061000      10.00000000  F      -0.00860600      -0.01104200      -0.05968400
Cu       6.25758000       8.76061000      10.00000000  F       0.01085000      -0.01562300      -0.06329100
Cu       8.76061000       8.76061000      10.00000000  F      -0.00468000      -0.00697100      -0.04365000
Cu      11.26364000       8.76061000      10.00000000  F      -0.00446800       0.00486200      -0.07251200
Cu       1.25152000      11.26364000      10.00000000  F       0.00703000      -0.01022600      -0.02120100
Cu       3.75455000      11.26364000      10.00000000  F      -0.01475100      -0.00237600      -0.06379100
Cu       6.25758000      11.26364000      10.00000000  F       0.01027700       0.00226700      -0.06301800
Cu       8.76061000      11.26364000      10.00000000  F      -0.00236200       0.00537000      -0.07566400
Cu      11.26364000      11.26364000      10.00000000  F      -0.00277900       0.00407900      -0.04770300
Cu       0.00000000       0.00000000      11.76991000  F      -0.02338500       0.06785400       0.12478000
Cu       2.50303000       0.00000000      11.76991000  F       0.02857200       0.05551300       0.10498600
Cu       5.00606000       0.00000000      11.76991000  F       0.07220100       0.09042000       0.09577800
Cu       7.50909000       0.00000000      11.76991000  F       0.01684900       0.08952100       0.11827500
Cu      10.01212000       0.00000000      11.76991000  F      -0.04960100       0.09211700       0.12173600
Cu       0.00000000       2.50303000      11.76991000  F      -0.07559300       0.04411200       0.11040900
Cu       2.50303000       2.50303000      11.76991000  F       0.07981800       0.02079200       0.08312800
Cu       5.00606000       2.50303000      11.76991000  F      -0.02555800      -0.00911900       0.10454800
Cu       7.50909000       2.50303000      11.76991000  F      -0.01569300      -0.03192000       0.13095800
Cu      10.01212000       2.50303000      11.76991000  F       0.04313500      -0.05107900       0.10180500
Cu       0.00000000       5.00606000      11.76991000  F      -0.07007100       0.02222200       0.09162900
Cu       2.50303000       5.00606000      11.76991000  F       0.09272900       0.04276000       0.15069900
Cu       5.00606000       5.00606000      11.76991000  F      -0.08492600       0.02143000       0.18474400
Cu       7.50909000       5.00606000      11.76991000  F      -0.05422700      -0.00682200       0.13076300
Cu      10.01212000       5.00606000      11.76991000  F       0.04099100      -0.00520100       0.09291200
Cu       0.00000000       7.50909000      11.76991000  F      -0.06178200      -0.03470900       0.12214900
Cu       2.50303000       7.50909000      11.76991000  F       0.08129500      -0.03624500       0.10146700
Cu       5.00606000       7.50909000      11.76991000  F      -0.05098600       0.02551400       0.11257400
Cu       7.50909000       7.50909000      11.76991000  F      -0.01846100       0.02413600       0.10732800
Cu      10.01212000       7.50909000      11.76991000  F       0.04850000       0.04579700       0.08367900
Cu       0.00000000      10.01212000      11.76991000  F       0.00842400      -0.05059400       0.13133800
Cu       2.50303000      10.01212000      11.76991000  F       0.03179900      -0.01969400       0.08169100
Cu       5.00606000      10.01212000      11.76991000  F       0.02484000      -0.09272200       0.12490400
Cu       7.50909000      10.01212000      11.76991000  F       0.03239400      -0.07303800       0.10908600
Cu      10.01212000      10.01212000      11.76991000  F      -0.06122200      -0.06920700       0.11510100
Cu       1.26075000       1.25338000      13.58343000  T      -0.00101800      -0.00427000      -0.01895800
Cu       3.78627000       1.26842000      13.60754000  T      -0.00474700      -0.00498700      -0.02789000
Cu       6.28302000       1.27799000      13.62594000  T      -0.00257900      -0.00559800      -0.01938700
Cu       8.75768000       1.28070000      13.62769000  T       0.00564000      -0.00616700      -0.02433700
Cu      11.25626000       1.26323000      13.61171000  T       0.00776000      -0.00390500      -0.03063600
Cu       1.25355000       3.76854000      13.58070000  T       0.00505200      -0.00017900      -0.00945800
Cu       3.74909000       3.76509000      13.62116000  T      -0.00961400       0.00018500      -0.01601000
Cu       6.26502000       3.76029000      13.58236000  T      -0.00089400      -0.00135000      -0.02807400
Cu       8.74232000       3.76382000      13.56781000  T       0.00087200       0.00132400      -0.02398100
Cu      11.23425000       3.76187000      13.61607000  T       0.00210600      -0.00395100      -0.01742500
Cu       1.25914000       6.26487000      13.59321000  T       0.00754400       0.00132200      -0.00827300
Cu       3.74206000       6.27078000      13.63894000  T      -0.00843500       0.00390700      -0.00886300
Cu       6.26686000       6.24697000      13.57663000  T       0.00261400       0.00258200      -0.02657800
Cu       8.74391000       6.24653000      13.56382000  T      -0.00107700      -0.00003600      -0.02334700
Cu      11.23314000       6.24559000      13.61175000  T      -0.00257700       0.00092400      -0.01639800
Cu       1.27454000       8.76753000      13.59310000  T       0.00003900       0.00204900      -0.01520700
Cu       3.76921000       8.74757000      13.62069000  T      -0.00435800       0.00363900      -0.01989500
Cu       6.28243000       8.73939000      13.61276000  T       0.00015200       0.00227700      -0.01691200
Cu       8.75597000       8.73293000      13.62324000  T      -0.00088900       0.00810600      -0.02475800
Cu      11.25008000       8.76021000      13.59895000  T       0.00496800       0.00494400      -0.02675000
Cu       1.24577000      11.27451000      13.59739000  T      -0.00540500      -0.00176600      -0.02361800
Cu       3.74957000      11.27224000      13.57552000  T      -0.00517000      -0.00234500      -0.01622300
Cu       6.25769000      11.26748000      13.57591000  T      -0.00307800      -0.00141000      -0.01803300
Cu       8.76335000      11.26454000      13.58277000  T       0.00375600      -0.00080500      -0.01866800
Cu      11.26863000      11.27051000      13.58706000  T       0.00905700       0.00178600      -0.01939800
Cu       0.00101000       0.00913000      15.39470000  T      -0.00581900       0.00965100      -0.06704400
Cu       2.50855000       0.02349000      15.39003000  T       0.00583800       0.00522500      -0.06951000
Cu       5.00275000      12.48306000      15.37473000  T       0.00861900      -0.00725000      -0.03891100
Cu       7.50750000      12.49363000      15.37048000  T      -0.00381300      -0.00583800      -0.04130700
Cu      10.01683000      12.49697000      15.37931000  T      -0.00834100      -0.00522800      -0.04885600
Cu       0.05082000       2.50435000      15.36595000  T       0.00921100       0.00788700      -0.03969600
Cu       2.51650000       2.47712000      15.37278000  T      -0.00701900       0.00417400      -0.03547800
Cu       4.99096000       2.41911000      15.48495000  T       0.00549400      -0.00681200      -0.03101800
Cu       7.54287000       2.50588000      15.49315000  T      -0.00242600       0.00033300      -0.04508500
Cu      10.09413000       2.45580000      15.46051000  T       0.01271000      -0.00925800      -0.03495600
Cu      12.47363000       5.00856000      15.35927000  T       0.01177600       0.00294500      -0.05348900
Cu       2.40262000       4.94719000      15.48744000  T      -0.01345900      -0.00460700      -0.00521000
Pd       4.99159000       5.00389000      15.50580000  T       0.02142600      -0.00203500      -0.03691600
Y        7.47977000       4.99935000      17.25500000  T       0.01513500       0.00111100      -0.00469900
Cu       9.97318000       5.00611000      15.45839000  T       0.01101800       0.00132700      -0.04197500
Cu      12.51484000       7.53124000      15.32477000  T       0.00689700      -0.00833400      -0.03842700
Cu       2.50825000       7.61974000      15.45574000  T      -0.00566500      -0.01845700      -0.00967400
Cu       5.03494000       7.59303000      15.44713000  T       0.00762100       0.00365200      -0.02690700
Cu       7.55457000       7.50093000      15.49053000  T      -0.00185500       0.00124900      -0.03647600
Cu      10.07529000       7.56151000      15.45694000  T       0.00465400       0.00524700      -0.03452000
Cu      12.51413000      10.01819000      15.38222000  T      -0.00581800      -0.00633400      -0.06350000
Cu       2.50789000      10.08065000      15.37686000  T       0.00634300      -0.00571000      -0.05446500
Cu       5.00580000      10.04133000      15.36452000  T       0.00864200      -0.00026600      -0.03591700
Cu       7.50595000      10.02661000      15.36665000  T      -0.00328500      -0.00358500      -0.04406100
Cu      10.01571000      10.03336000      15.37532000  T      -0.00840000      -0.00222800      -0.04803200
O        6.13648000       3.40094000      16.69092000  T      -0.06475900       0.00742300       0.03111300
O        6.13877000       6.59095000      16.67625000  T      -0.07512300      -0.01056200       0.03708400
O        8.98452000       6.42157000      16.55427000  T       0.02221300       0.04933000       0.03084700
O        8.97955000       3.57763000      16.54755000  T       0.02835300      -0.05088500       0.02890700
C        2.35278000       5.71863000      17.26659000  T       0.01502800      -0.00278600      -0.01572900
O        2.31934000       4.98913000      18.39691000  T      -0.00132100      -0.07909800       0.03522200
O        2.39137000       6.97295000      17.40389000  T       0.00737700       0.00772000      -0.00171000
H        2.33518000       5.63311000      19.14887000  T      -0.01084000      -0.03393900       0.01587500
108
Lattice="12.515153631 0.0 0.0 0.0 12.515153631 0.0 0.0 0.0 25.30973" Properties=species:S:1:pos:R:3:move_mask:L:1:forces:R:3 stress="0.008424114935131627 2.721922129797689e-05 1.9061568870447472e-05 2.721922129797689e-05 0.008047158991473907 0.00025046551971256927 1.9061568870447472e-05 0.00025046551971256927 0.0028884393517671285" free_energy=-445.272088 energy=-445.27152388 pbc="T T T"
Cu       1.25152000       1.25152000      10.00000000  F       0.00436800       0.00637900      -0.06445300
Cu       3.75455000       1.25152000      10.00000000  F       0.00284200       0.01805000      -0.07001800
Cu       6.25758000       1.25152000      10.00000000  F       0.00210200       0.01749200      -0.06455900
Cu       8.76061000       1.25152000      10.00000000  F       0.00240100      -0.00066500      -0.04802500
Cu      11.26364000       1.25152000      10.00000000  F      -0.01274800      -0.00432800      -0.07415500
Cu       1.25152000       3.75455000      10.00000000  F      -0.00270100       0.00132100      -0.06691400
Cu       3.75455000       3.75455000      10.00000000  F       0.01138700      -0.02053000      -0.04873500
Cu       6.25758000       3.75455000      10.00000000  F      -0.01625100      -0.02446500      -0.07736500
Cu       8.76061000       3.75455000      10.00000000  F       0.00685000      -0.01565700      -0.07138300
Cu      11.26364000       3.75455000      10.00000000  F       0.00517900       0.00010900      -0.05842300
Cu       1.25152000       6.25758000      10.00000000  F      -0.00486000      -0.00718000      -0.05740800
Cu       3.75455000       6.25758000      10.00000000  F       0.01337700       0.01537400      -0.03972200
Cu       6.25758000       6.25758000      10.00000000  F      -0.01623700       0.02127600      -0.07689100
Cu       8.76061000       6.25758000      10.00000000  F       0.00722600       0.01788400      -0.08266100
Cu      11.26364000       6.25758000      10.00000000  F       0.00302200      -0.00557400      -0.05172700
Cu       1.25152000       8.76061000      10.00000000  F       0.00612200       0.00888400      -0.06120600
Cu       3.75455000       8.76061000      10.00000000  F      -0.00804200      -0.01083600      -0.06030000
Cu       6.25758000       8.76061000      10.00000000  F       0.01101400      -0.01543600      -0.06391300
Cu       8.76061000       8.76061000      10.00000000  F      -0.00494200      -0.00694100      -0.04443300
Cu      11.26364000       8.76061000      10.00000000  F      -0.00461900       0.00482400      -0.07346000
Cu       1.25152000      11.26364000      10.00000000  F       0.00745800      -0.01007200      -0.02185300
Cu       3.75455000      11.26364000      10.00000000  F      -0.01401300      -0.00220600      -0.06400200
Cu       6.25758000      11.26364000      10.00000000  F       0.01020100       0.00238800      -0.06334600
Cu       8.76061000      11.26364000      10.00000000  F      -0.00255200       0.00552300      -0.07623100
Cu      11.26364000      11.26364000      10.00000000  F      -0.00298500       0.00424300      -0.04843700
Cu       0.00000000       0.00000000      11.76991000  F      -0.02290600       0.06810500       0.11875900
Cu       2.50303000       0.00000000      11.76991000  F       0.02916300       0.05516400       0.10009700
Cu       5.00606000       0.00000000      11.76991000  F       0.07267600       0.08994000       0.09176300
Cu       7.50909000       0.00000000      11.76991000  F       0.01668200       0.08927600       0.11478900
Cu      10.01212000       0.00000000      11.76991000  F      -0.04993500       0.09184100       0.11755400
Cu       0.00000000       2.50303000      11.76991000  F      -0.07490300       0.04499200       0.10687200
Cu       2.50303000       2.50303000      11.76991000  F       0.07955100       0.02080400       0.07912900
Cu       5.00606000       2.50303000      11.76991000  F      -0.02541000      -0.00960400       0.10052500
Cu       7.50909000       2.50303000      11.76991000  F      -0.01575700      -0.03310800       0.12628400
Cu      10.01212000       2.50303000      11.76991000  F       0.04335400      -0.05111900       0.09759500
Cu       0.00000000       5.00606000      11.76991000  F      -0.06965000       0.02235500       0.08942100
Cu       2.50303000       5.00606000      11.76991000  F       0.09286900       0.04310300       0.14770200
Cu       5.00606000       5.00606000      11.76991000  F      -0.08601800       0.02172300       0.18105800
Cu       7.50909000       5.00606000      11.76991000  F      -0.05428900      -0.00698200       0.12430100
Cu      10.01212000       5.00606000      11.76991000  F       0.04188700      -0.00530100       0.08819500
Cu       0.00000000       7.50909000      11.76991000  F      -0.06132100      -0.03533600       0.11935200
Cu       2.50303000       7.50909000      11.76991000  F       0.08147100      -0.03589800       0.09800500
Cu       5.00606000       7.50909000      11.76991000  F      -0.05112500       0.02631100       0.10935400
Cu       7.50909000       7.50909000      11.76991000  F      -0.01854600       0.02543300       0.10224800
Cu      10.01212000       7.50909000      11.76991000  F       0.04865800       0.04623300       0.08001900
Cu       0.00000000      10.01212000      11.76991000  F       0.00883300      -0.05076500       0.12598000
Cu       2.50303000      10.01212000      11.76991000  F       0.03247500      -0.01957400       0.07743900
Cu       5.00606000      10.01212000      11.76991000  F       0.02522400      -0.09248100       0.12140600
Cu       7.50909000      10.01212000      11.76991000  F       0.03197000      -0.07231300       0.10522100
Cu      10.01212000      10.01212000      11.76991000  F      -0.06147600      -0.06865500       0.11118800
Cu       1.26069000       1.25313000      13.58290000  T       0.00012000      -0.00061800      -0.02378000
Cu       3.78607000       1.26820000      13.60663000  T      -0.00215900      -0.00306100      -0.02947600
Cu       6.28292000       1.27775000      13.62537000  T      -0.00196100      -0.00395700      -0.02310900
Cu       8.75788000       1.28045000      13.62696000  T       0.00447900      -0.00456500      -0.02767100
Cu      11.25658000       1.26303000      13.61071000  T       0.00507600      -0.00134000      -0.03237400
Cu       1.25375000       3.76853000      13.58055000  T       0.00487100       0.00000400      -0.01603200
Cu       3.74865000       3.76506000      13.62061000  T      -0.00472400       0.00104900      -0.01654800
Cu       6.26501000       3.76029000      13.58118000  T      -0.00134500      -0.00223100      -0.02236300
Cu       8.74234000       3.76389000      13.56678000  T       0.00097200       0.00036300      -0.01855300
Cu      11.23432000       3.76179000      13.61564000  T       0.00155900      -0.00527200      -0.02304700
Cu       1.25941000       6.26492000      13.59305000  T       0.00762300       0.00148400      -0.01340400
Cu       3.74169000       6.27097000      13.63867000  T      -0.00443900       0.00248400      -0.01063300
Cu       6.26700000       6.24704000      13.57549000  T       0.00123000       0.00290600      -0.02045400
Cu       8.74385000       6.24649000      13.56280000  T      -0.00061700       0.00114500      -0.01796100
Cu      11.23303000       6.24555000      13.61137000  T      -0.00228200       0.00308700      -0.02258300
Cu       1.27450000       8.76769000      13.59266000  T       0.00221400      -0.00103800      -0.01850900
Cu       3.76906000       8.74773000      13.62011000  T      -0.00302300       0.00207300      -0.02264000
Cu       6.28247000       8.73951000      13.61232000  T      -0.00085000       0.00086200      -0.02181300
Cu       8.75586000       8.73330000      13.62252000  T       0.00094000       0.00487900      -0.02890500
Cu      11.25032000       8.76045000      13.59812000  T       0.00234700       0.00233200      -0.02958700
Cu       1.24548000      11.27445000      13.59665000  T      -0.00171500      -0.00188600      -0.02679200
Cu       3.74929000      11.27214000      13.57506000  T      -0.00092900      -0.00187400      -0.02049300
Cu       6.25756000      11.26743000      13.57537000  T      -0.00209200      -0.00117700      -0.02176000
Cu       8.76350000      11.26450000      13.58219000  T       0.00192100      -0.00004900      -0.02178100
Cu      11.26913000      11.27060000      13.58647000  T       0.00280100       0.00111800      -0.02296500
Cu       0.00078000       0.00951000      15.39206000  T      -0.00479800       0.00793800      -0.05572300
Cu       2.50878000       0.02372000      15.38733000  T       0.00510100       0.00298200      -0.05937900
Cu       5.00311000      12.48286000      15.37323000  T       0.00680400      -0.00765800      -0.03459200
Cu       7.50734000      12.49350000      15.36889000  T      -0.00261100      -0.00738200      -0.03656400
Cu      10.01649000      12.49687000      15.37745000  T      -0.00669600      -0.00724200      -0.04323100
Cu       0.05115000       2.50465000      15.36441000  T       0.00799300       0.00664000      -0.03443600
Cu       2.51625000       2.47730000      15.37141000  T      -0.00498500       0.00259700      -0.03069600
Cu       4.99070000       2.41835000      15.48334000  T       0.01648200       0.00701600      -0.01700200
Cu       7.54302000       2.50521000      15.49074000  T      -0.00838800       0.01847700      -0.02071700
Cu      10.09495000       2.45511000      15.45887000  T       0.00141000       0.00111800      -0.02236600
Cu      12.47404000       5.00867000      15.35715000  T       0.01021300       0.00268700      -0.04438700
Cu       2.40193000       4.94699000      15.48717000  T      -0.00439500      -0.00370200      -0.00261900
Pd       4.99223000       5.00382000      15.50416000  T       0.02256900      -0.00225000      -0.01710000
Y        7.48005000       4.99950000      17.25565000  T       0.01572000      -0.00118200      -0.02348600
Cu       9.97439000       5.00613000      15.45603000  T      -0.01093300       0.00141400      -0.01672600
Cu      12.51501000       7.53092000      15.32325000  T       0.00708400      -0.00658000      -0.03198200
Cu       2.50812000       7.61918000      15.45503000  T      -0.00589100      -0.01794700      -0.00287700
Cu       5.03477000       7.59373000      15.44561000  T       0.01799000      -0.01114800      -0.01111200
Cu       7.55480000       7.50164000      15.48849000  T      -0.00898200      -0.01588300      -0.01465400
Cu      10.07583000       7.56213000      15.45529000  T      -0.00509100      -0.00557000      -0.02234500
Cu      12.51390000      10.01793000      15.37972000  T      -0.00463600      -0.00470100      -0.05301800
Cu       2.50816000      10.08048000      15.37472000  T       0.00488100      -0.00586600      -0.04587500
Cu       5.00615000      10.04123000      15.36313000  T       0.00719900       0.00212000      -0.03152300
Cu       7.50582000      10.02636000      15.36492000  T      -0.00249800       0.00038000      -0.03731300
Cu      10.01537000      10.03316000      15.37349000  T      -0.00672800       0.00133200      -0.04212300
O        6.13370000       3.40137000      16.69290000  T      -0.05961700       0.00655500       0.01371500
O        6.13563000       6.59036000      16.67844000  T      -0.06992500      -0.01047900       0.02164400
O        8.98550000       6.42378000      16.55608000  T       0.01889200       0.04369300       0.01881900
O        8.98091000       3.57528000      16.54921000  T       0.02275100      -0.04465000       0.01695100
C        2.35339000       5.71795000      17.26651000  T       0.01269800      -0.00180300       0.01025900
O        2.31932000       4.98795000      18.39712000  T       0.00114600      -0.07271300       0.02249600
O        2.39156000       6.97224000      17.40457000  T       0.01061800      -0.00108400      -0.00891300
H        2.33479000       5.63166000      19.14959000  T      -0.01047100      -0.03783200       0.00546900
108
Lattice="12.515153631 0.0 0.0 0.0 12.515153631 0.0 0.0 0.0 25.30973" Properties=species:S:1:pos:R:3:move_mask:L:1:forces:R:3 stress="0.008436161047744582 2.7231704316228658e-05 1.7538640643731956e-05 2.7231704316228658e-05 0.008062463171850574 0.0002507775951688634 1.7538640643731956e-05 0.0002507775951688634 0.0028751137297833677" free_energy=-445.27619605 energy=-445.27565503 pbc="T T T"
Cu       1.25152000       1.25152000      10.00000000  F       0.00412800       0.00634800      -0.06408400
Cu       3.75455000       1.25152000      10.00000000  F       0.00265700       0.01807100      -0.07003300
Cu       6.25758000       1.25152000      10.00000000  F       0.00210300       0.01744400      -0.06473800
Cu       8.76061000       1.25152000      10.00000000  F       0.00260400      -0.00083200      -0.04800400
Cu      11.26364000       1.25152000      10.00000000  F      -0.01268200      -0.00454200      -0.07389300
Cu       1.25152000       3.75455000      10.00000000  F      -0.00277700       0.00107000      -0.06665000
Cu       3.75455000       3.75455000      10.00000000  F       0.01120800      -0.02063400      -0.04867200
Cu       6.25758000       3.75455000      10.00000000  F      -0.01638500      -0.02461700      -0.07739600
Cu       8.76061000       3.75455000      10.00000000  F       0.00694500      -0.01594900      -0.07143000
Cu      11.26364000       3.75455000      10.00000000  F       0.00530500      -0.00018500      -0.05820700
Cu       1.25152000       6.25758000      10.00000000  F      -0.00493800      -0.00720500      -0.05703700
Cu       3.75455000       6.25758000      10.00000000  F       0.01319900       0.01522100      -0.03950800
Cu       6.25758000       6.25758000      10.00000000  F      -0.01637100       0.02119500      -0.07669900
Cu       8.76061000       6.25758000      10.00000000  F       0.00729900       0.01789300      -0.08252600
Cu      11.26364000       6.25758000      10.00000000  F       0.00316800      -0.00555900      -0.05136100
Cu       1.25152000       8.76061000      10.00000000  F       0.00591200       0.00890600      -0.06070400
Cu       3.75455000       8.76061000      10.00000000  F      -0.00820300      -0.01086500      -0.06003500
Cu       6.25758000       8.76061000      10.00000000  F       0.01103600      -0.01536400      -0.06377300
Cu       8.76061000       8.76061000      10.00000000  F      -0.00480400      -0.00674500      -0.04416200
Cu      11.26364000       8.76061000      10.00000000  F      -0.00456200       0.00504400      -0.07289300
Cu       1.25152000      11.26364000      10.00000000  F       0.00709500      -0.01002000      -0.02144100
Cu       3.75455000      11.26364000      10.00000000  F      -0.01417700      -0.00220600      -0.06381900
Cu       6.25758000      11.26364000      10.00000000  F       0.01023200       0.00234900      -0.06342600
Cu       8.76061000      11.26364000      10.00000000  F      -0.00222000       0.00552100      -0.07594000
Cu      11.26364000      11.26364000      10.00000000  F      -0.00300200       0.00426800      -0.04780500
Cu       0.00000000       0.00000000      11.76991000  F      -0.02287800       0.06797000       0.11473200
Cu       2.50303000       0.00000000      11.76991000  F       0.02864800       0.05491900       0.09715500
Cu       5.00606000       0.00000000      11.76991000  F       0.07262900       0.08974200       0.08925900
Cu       7.50909000       0.00000000      11.76991000  F       0.01698500       0.08901000       0.11242400
Cu      10.01212000       0.00000000      11.76991000  F      -0.04962300       0.09130800       0.11449400
Cu       0.00000000       2.50303000      11.76991000  F      -0.07429200       0.04538400       0.10460300
Cu       2.50303000       2.50303000      11.76991000  F       0.07884200       0.02100700       0.07700300
Cu       5.00606000       2.50303000      11.76991000  F      -0.02587800      -0.00973300       0.09832500
Cu       7.50909000       2.50303000      11.76991000  F      -0.01562800      -0.03402300       0.12347800
Cu      10.01212000       2.50303000      11.76991000  F       0.04373600      -0.05143600       0.09472200
Cu       0.00000000       5.00606000      11.76991000  F      -0.06915700       0.02237600       0.08856200
Cu       2.50303000       5.00606000      11.76991000  F       0.09256500       0.04327600       0.14639100
Cu       5.00606000       5.00606000      11.76991000  F      -0.08743800       0.02192200       0.17939900
Cu       7.50909000       5.00606000      11.76991000  F      -0.05431000      -0.00706600       0.12048600
Cu      10.01212000       5.00606000      11.76991000  F       0.04270600      -0.00543200       0.08535700
Cu       0.00000000       7.50909000      11.76991000  F      -0.06086500      -0.03576200       0.11772200
Cu       2.50303000       7.50909000      11.76991000  F       0.08107900      -0.03604300       0.09634000
Cu       5.00606000       7.50909000      11.76991000  F      -0.05182200       0.02643900       0.10787100
Cu       7.50909000       7.50909000      11.76991000  F      -0.01845100       0.02614800       0.09912400
Cu      10.01212000       7.50909000      11.76991000  F       0.04898200       0.04657400       0.07747900
Cu       0.00000000      10.01212000      11.76991000  F       0.00889200      -0.05083000       0.12239500
Cu       2.50303000      10.01212000      11.76991000  F       0.03199200      -0.01978000       0.07488700
Cu       5.00606000      10.01212000      11.76991000  F       0.02502500      -0.09275900       0.11927400
Cu       7.50909000      10.01212000      11.76991000  F       0.03211500      -0.07207600       0.10261700
Cu      10.01212000      10.01212000      11.76991000  F      -0.06111600      -0.06814800       0.10817700
Cu       1.26066000       1.25297000      13.58227000  T       0.00051600       0.00172800      -0.02557700
Cu       3.78593000       1.26803000      13.60570000  T      -0.00053000      -0.00069400      -0.02769100
Cu       6.28283000       1.27755000      13.62472000  T      -0.00149700      -0.00197500      -0.02293300
Cu       8.75806000       1.28024000      13.62615000  T       0.00317500      -0.00266800      -0.02720300
Cu      11.25684000       1.26289000      13.60969000  T       0.00319800       0.00048800      -0.03138000
Cu       1.25393000       3.76853000      13.58024000  T       0.00482800       0.00052500      -0.01849300
Cu       3.74833000       3.76506000      13.62007000  T      -0.00182300       0.00176400      -0.01472700
Cu       6.26499000       3.76025000      13.58018000  T      -0.00168700      -0.00306800      -0.01684500
Cu       8.74236000       3.76393000      13.56591000  T       0.00097100      -0.00030200      -0.01266000
Cu      11.23438000       3.76167000      13.61508000  T       0.00122500      -0.00546400      -0.02434300
Cu       1.25966000       6.26497000      13.59277000  T       0.00770600       0.00105200      -0.01489800
Cu       3.74142000       6.27111000      13.63837000  T      -0.00205700       0.00125500      -0.00940600
Cu       6.26709000       6.24712000      13.57454000  T       0.00026300       0.00315000      -0.01470200
Cu       8.74380000       6.24649000      13.56196000  T      -0.00033400       0.00171900      -0.01210800
Cu      11.23293000       6.24557000      13.61085000  T      -0.00185800       0.00381000      -0.02411900
Cu       1.27450000       8.76778000      13.59215000  T       0.00342100      -0.00358400      -0.01882600
Cu       3.76893000       8.74785000      13.61946000  T      -0.00235200      -0.00048500      -0.02123000
Cu       6.28248000       8.73960000      13.61177000  T      -0.00178000      -0.00100900      -0.02229800
Cu       8.75580000       8.73358000      13.62171000  T       0.00167500       0.00201600      -0.02882400
Cu      11.25049000       8.76062000      13.59724000  T       0.00080700       0.00020100      -0.02914900
Cu       1.24530000      11.27440000      13.59585000  T       0.00013100      -0.00199700      -0.02747900
Cu       3.74912000      11.27207000      13.57452000  T       0.00097800      -0.00185700      -0.02187300
Cu       6.25746000      11.26739000      13.57477000  T      -0.00140700      -0.00136800      -0.02303100
Cu       8.76362000      11.26448000      13.58156000  T       0.00097000       0.00006600      -0.02305100
Cu      11.26946000      11.27067000      13.58582000  T      -0.00076200       0.00047700      -0.02449800
Cu       0.00058000       0.00984000      15.38975000  T      -0.00384600       0.00691100      -0.04902100
Cu       2.50898000       0.02390000      15.38495000  T       0.00409100       0.00180300      -0.05280600
Cu       5.00342000      12.48264000      15.37188000  T       0.00481000      -0.00622300      -0.03137800
Cu       7.50721000      12.49333000      15.36746000  T      -0.00199100      -0.00658200      -0.03310500
Cu      10.01620000      12.49672000      15.37577000  T      -0.00514900      -0.00734700      -0.03942900
Cu       0.05144000       2.50492000      15.36304000  T       0.00701200       0.00591000      -0.03127900
Cu       2.51604000       2.47743000      15.37019000  T      -0.00301100       0.00160000      -0.02806000
Cu       4.99075000       2.41798000      15.48215000  T       0.01871500       0.01118900      -0.01184600
Cu       7.54301000       2.50504000      15.48902000  T      -0.01175300       0.02863500      -0.00660800
Cu      10.09545000       2.45471000      15.45760000  T      -0.00272600       0.00446900      -0.01765800
Cu      12.47441000       5.00877000      15.35530000  T       0.00825400       0.00238500      -0.03868600
Cu       2.40148000       4.94682000      15.48698000  T       0.00119900      -0.00249300      -0.00030700
Pd       4.99290000       5.00374000      15.50298000  T       0.02170800      -0.00211300      -0.01976800
Y        7.48040000       4.99958000      17.25574000  T       0.01716900      -0.00341200      -0.03940200
Cu       9.97499000       5.00616000      15.45439000  T      -0.02455400       0.00159800      -0.00153100
Cu      12.51520000       7.53065000      15.32192000  T       0.00678500      -0.00565600      -0.02862500
Cu       2.50797000       7.61861000      15.45455000  T      -0.00565800      -0.01716500      -0.00021100
Cu       5.03489000       7.59402000      15.44454000  T       0.02034000      -0.01634600      -0.00480400
Cu       7.55483000       7.50187000      15.48707000  T      -0.01372700      -0.02650500      -0.00163800
Cu      10.07610000       7.56243000      15.45401000  T      -0.00868100      -0.00977900      -0.01785300
Cu      12.51370000      10.01772000      15.37754000  T      -0.00363000      -0.00374400      -0.04691800
Cu       2.50839000      10.08030000      15.37284000  T       0.00354300      -0.00690000      -0.04036300
Cu       5.00645000      10.04119000      15.36189000  T       0.00560100       0.00173600      -0.02851100
Cu       7.50571000      10.02621000      15.36340000  T      -0.00208200       0.00089200      -0.03282300
Cu      10.01507000      10.03306000      15.37185000  T      -0.00539700       0.00231900      -0.03850300
O        6.13122000       3.40174000      16.69429000  T      -0.03814600       0.00578100      -0.00236000
O        6.13279000       6.58984000      16.68007000  T      -0.04741800      -0.00848800       0.00498600
O        8.98635000       6.42570000      16.55744000  T       0.00774300       0.02679900       0.00455300
O        8.98204000       3.57325000      16.55045000  T       0.00862800      -0.02551200       0.00445900
C        2.35391000       5.71747000      17.26672000  T       0.00994100      -0.01279500       0.01747000
O        2.31933000       4.98647000      18.39740000  T       0.00239000      -0.04810700       0.01189200
O        2.39181000       6.97168000      17.40491000  T       0.01109000      -0.00359600      -0.00997900
H        2.33442000       5.63027000      19.15008000  T      -0.01052900      -0.04463900      -0.00058700
108
Lattice="12.515153631 0.0 0.0 0.0 12.515153631 0.0 0.0 0.0 25.30973" Properties=species:S:1:pos:R:3:move_mask:L:1:forces:R:3 stress="0.008474228011903343 2.7269153370983956e-05 1.5004587938623351e-05 2.7269153370983956e-05 0.008101403947286959 0.00023871275802853109 1.5004587938623351e-05 0.00023871275802853109 0.002913836052400347" free_energy=-445.27726486 energy=-445.27673594 pbc="T T T"
Cu       1.25152000       1.25152000      10.00000000  F       0.00408200       0.00636000      -0.06413100
Cu       3.75455000       1.25152000      10.00000000  F       0.00256700       0.01805100      -0.07032500
Cu       6.25758000       1.25152000      10.00000000  F       0.00225500       0.01740600      -0.06515700
Cu       8.76061000       1.25152000      10.00000000  F       0.00308500      -0.00101500      -0.04820500
Cu      11.26364000       1.25152000      10.00000000  F      -0.01240800      -0.00477000      -0.07392300
Cu       1.25152000       3.75455000      10.00000000  F      -0.00270900       0.00082600      -0.06705900
Cu       3.75455000       3.75455000      10.00000000  F       0.01113300      -0.02074500      -0.04917900
Cu       6.25758000       3.75455000      10.00000000  F      -0.01626500      -0.02468500      -0.07787600
Cu       8.76061000       3.75455000      10.00000000  F       0.00726700      -0.01613500      -0.07191700
Cu      11.26364000       3.75455000      10.00000000  F       0.00561900      -0.00037300      -0.05866300
Cu       1.25152000       6.25758000      10.00000000  F      -0.00483800      -0.00722500      -0.05784200
Cu       3.75455000       6.25758000      10.00000000  F       0.01315400       0.01510200      -0.04037600
Cu       6.25758000       6.25758000      10.00000000  F      -0.01621300       0.02108100      -0.07751100
Cu       8.76061000       6.25758000      10.00000000  F       0.00759000       0.01792200      -0.08341200
Cu      11.26364000       6.25758000      10.00000000  F       0.00340200      -0.00561000      -0.05218100
Cu       1.25152000       8.76061000      10.00000000  F       0.00590400       0.00882400      -0.06134100
Cu       3.75455000       8.76061000      10.00000000  F      -0.00826700      -0.01094100      -0.06100100
Cu       6.25758000       8.76061000      10.00000000  F       0.01132400      -0.01540300      -0.06468800
Cu       8.76061000       8.76061000      10.00000000  F      -0.00441900      -0.00666400      -0.04492800
Cu      11.26364000       8.76061000      10.00000000  F      -0.00442700       0.00517900      -0.07357100
Cu       1.25152000      11.26364000      10.00000000  F       0.00690000      -0.00985100      -0.02170500
Cu       3.75455000      11.26364000      10.00000000  F      -0.01413000      -0.00200300      -0.06435100
Cu       6.25758000      11.26364000      10.00000000  F       0.01042100       0.00244300      -0.06397900
Cu       8.76061000      11.26364000      10.00000000  F      -0.00158500       0.00562200      -0.07619000
Cu      11.26364000      11.26364000      10.00000000  F      -0.00290700       0.00442500      -0.04770700
Cu       0.00000000       0.00000000      11.76991000  F      -0.02252600       0.06824900       0.10804100
Cu       2.50303000       0.00000000      11.76991000  F       0.02847600       0.05504400       0.09152900
Cu       5.00606000       0.00000000      11.76991000  F       0.07271600       0.08987500       0.08424600
Cu       7.50909000       0.00000000      11.76991000  F       0.01739300       0.08919500       0.10770100
Cu      10.01212000       0.00000000      11.76991000  F      -0.04926400       0.09125800       0.10871700
Cu       0.00000000       2.50303000      11.76991000  F      -0.07348800       0.04604700       0.09986400
Cu       2.50303000       2.50303000      11.76991000  F       0.07856800       0.02139400       0.07233800
Cu       5.00606000       2.50303000      11.76991000  F      -0.02609700      -0.00946700       0.09401500
Cu       7.50909000       2.50303000      11.76991000  F      -0.01536400      -0.03445400       0.11876900
Cu      10.01212000       2.50303000      11.76991000  F       0.04409400      -0.05136400       0.08962300
Cu       0.00000000       5.00606000      11.76991000  F      -0.06846300       0.02224200       0.08563900
Cu       2.50303000       5.00606000      11.76991000  F       0.09273900       0.04331800       0.14300200
Cu       5.00606000       5.00606000      11.76991000  F      -0.08848000       0.02191200       0.17607700
Cu       7.50909000       5.00606000      11.76991000  F      -0.05422100      -0.00748400       0.11542100
Cu      10.01212000       5.00606000      11.76991000  F       0.04336200      -0.00588000       0.08095000
Cu       0.00000000       7.50909000      11.76991000  F      -0.06012300      -0.03648200       0.11399300
Cu       2.50303000       7.50909000      11.76991000  F       0.08117900      -0.03643400       0.09228200
Cu       5.00606000       7.50909000      11.76991000  F      -0.05231900       0.02612200       0.10439100
Cu       7.50909000       7.50909000      11.76991000  F      -0.01824800       0.02639500       0.09407000
Cu      10.01212000       7.50909000      11.76991000  F       0.04921300       0.04648300       0.07278900
Cu       0.00000000      10.01212000      11.76991000  F       0.00929300      -0.05095100       0.11659800
Cu       2.50303000      10.01212000      11.76991000  F       0.03191700      -0.01994700       0.07000700
Cu       5.00606000      10.01212000      11.76991000  F       0.02506100      -0.09301600       0.11483800
Cu       7.50909000      10.01212000      11.76991000  F       0.03226100      -0.07178100       0.09767100
Cu      10.01212000      10.01212000      11.76991000  F      -0.06080600      -0.06764000       0.10272500
Cu       1.26064000       1.25287000      13.58148000  T       0.00109600       0.00426800      -0.02744800
Cu       3.78582000       1.26790000      13.60467000  T       0.00176500       0.00219900      -0.02556400
Cu       6.28275000       1.27738000      13.62396000  T      -0.00053200       0.00042100      -0.02259500
Cu       8.75823000       1.28006000      13.62522000  T       0.00137900       0.00035600      -0.02561300
Cu      11.25707000       1.26279000      13.60854000  T       0.00082700       0.00290900      -0.02941100
Cu       1.25412000       3.76853000      13.57978000  T       0.00478300       0.00119400      -0.02162400
Cu       3.74807000       3.76508000      13.61949000  T       0.00154100       0.00248900      -0.01356300
Cu       6.26495000       3.76019000      13.57922000  T      -0.00116700      -0.00336900      -0.01305600
Cu       8.74239000       3.76396000      13.56511000  T       0.00106900      -0.00083000      -0.00846200
Cu      11.23444000       3.76152000      13.61436000  T       0.00023600      -0.00432500      -0.02467200
Cu       1.25996000       6.26501000      13.59238000  T       0.00746400       0.00010400      -0.01744700
Cu       3.74119000       6.27124000      13.63804000  T       0.00073700      -0.00027800      -0.00952700
Cu       6.26717000       6.24721000      13.57365000  T      -0.00015700       0.00240300      -0.01096700
Cu       8.74376000       6.24651000      13.56118000  T       0.00002600       0.00170900      -0.00822300
Cu      11.23283000       6.24562000      13.61017000  T      -0.00164700       0.00318200      -0.02487300
Cu       1.27455000       8.76780000      13.59154000  T       0.00471500      -0.00613600      -0.01984900
Cu       3.76881000       8.74792000      13.61873000  T      -0.00084300      -0.00364300      -0.01958300
Cu       6.28246000       8.73965000      13.61109000  T      -0.00207000      -0.00318500      -0.02272300
Cu       8.75577000       8.73382000      13.62075000  T       0.00164900      -0.00196600      -0.02748500
Cu      11.25062000       8.76075000      13.59623000  T      -0.00097800      -0.00256800      -0.02790100
Cu       1.24516000      11.27433000      13.59492000  T       0.00204100      -0.00179200      -0.02821600
Cu       3.74900000      11.27198000      13.57384000  T       0.00331900      -0.00138400      -0.02383500
Cu       6.25737000      11.26734000      13.57402000  T      -0.00051300      -0.00101900      -0.02476000
Cu       8.76371000      11.26446000      13.58080000  T      -0.00034500       0.00058300      -0.02471600
Cu      11.26970000      11.27073000      13.58503000  T      -0.00382100       0.00013500      -0.02645300
Cu       0.00038000       0.01018000      15.38740000  T      -0.00225600       0.00514200      -0.03752300
Cu       2.50919000       0.02405000      15.38250000  T       0.00271400       0.00010400      -0.04140300
Cu       5.00371000      12.48240000      15.37048000  T       0.00257600      -0.00360600      -0.02604800
Cu       7.50708000      12.49313000      15.36597000  T      -0.00067400      -0.00411000      -0.02740200
Cu      10.01592000      12.49653000      15.37402000  T      -0.00296600      -0.00607400      -0.03225200
Cu       0.05175000       2.50519000      15.36162000  T       0.00465000       0.00475600      -0.02592700
Cu       2.51586000       2.47755000      15.36892000  T       0.00013400       0.00018600      -0.02363000
Cu       4.99099000       2.41781000      15.48109000  T       0.01836700       0.01329200      -0.00813100
Cu       7.54286000       2.50526000      15.48763000  T      -0.01282600       0.03309800       0.00372000
Cu      10.09581000       2.45444000      15.45640000  T      -0.00555800       0.00667500      -0.01380500
Cu      12.47478000       5.00888000      15.35343000  T       0.00414100       0.00153100      -0.03048500
Cu       2.40115000       4.94666000      15.48683000  T       0.00701100      -0.00197300       0.00132600
Pd       4.99367000       5.00366000      15.50179000  T       0.00701000      -0.00180900      -0.00260100
Y        7.48087000       4.99960000      17.25531000  T       0.01352600      -0.00470300      -0.04616300
Cu       9.97514000       5.00620000      15.45313000  T      -0.03115300       0.00073100       0.00862700
Cu      12.51543000       7.53037000      15.32055000  T       0.00457100      -0.00389800      -0.02317800
Cu       2.50780000       7.61798000      15.45417000  T      -0.00381000      -0.01391400      -0.00012000
Cu       5.03521000       7.59405000      15.44366000  T       0.01804800      -0.01744600      -0.00189700
Cu       7.55467000       7.50172000      15.48597000  T      -0.01548200      -0.03087700       0.00671900
Cu      10.07621000       7.56256000      15.45280000  T      -0.00889200      -0.01041500      -0.01470500
Cu      12.51351000      10.01752000      15.37531000  T      -0.00212800      -0.00229500      -0.03582200
Cu       2.50860000      10.08007000      15.37092000  T       0.00182500      -0.00670200      -0.03134900
Cu       5.00674000      10.04117000      15.36059000  T       0.00349000       0.00077600      -0.02380700
Cu       7.50560000      10.02610000      15.36184000  T      -0.00092800       0.00087000      -0.02602600
Cu      10.01479000      10.03300000      15.37013000  T      -0.00309600       0.00246400      -0.03144400
O        6.12895000       3.40209000      16.69531000  T      -0.02870900       0.00516700      -0.01067300
O        6.13014000       6.58935000      16.68135000  T      -0.03578500      -0.00955700      -0.00010500
O        8.98704000       6.42743000      16.55851000  T       0.00255700       0.01811600      -0.00099700
O        8.98295000       3.57146000      16.55143000  T       0.00330200      -0.01822900      -0.00331300
C        2.35443000       5.71686000      17.26713000  T       0.00943700      -0.01727000       0.01159400
O        2.31937000       4.98496000      18.39767000  T       0.00398000      -0.03260900       0.00061500
O        2.39213000       6.97115000      17.40509000  T       0.01301500      -0.01350800      -0.00398500
H        2.33401000       5.62861000      19.15044000  T      -0.01007100      -0.04582600       0.00067800
108
Lattice="12.515153631 0.0 0.0 0.0 12.515153631 0.0 0.0 0.0 25.30973" Properties=species:S:1:pos:R:3:move_mask:L:1:forces:R:3 stress="0.008537342152184275 2.746888166301222e-05 1.954216507314048e-05 2.746888166301222e-05 0.008166584027088558 0.00023754559582199092 1.954216507314048e-05 0.00023754559582199092 0.0029359746852698552" free_energy=-445.27841501 energy=-445.27792467 pbc="T T T"
Cu       1.25152000       1.25152000      10.00000000  F       0.00504600       0.00731400      -0.06446200
Cu       3.75455000       1.25152000      10.00000000  F       0.00329300       0.01871500      -0.06995400
Cu       6.25758000       1.25152000      10.00000000  F       0.00177000       0.01801000      -0.06482000
Cu       8.76061000       1.25152000      10.00000000  F       0.00212500      -0.00011800      -0.04861900
Cu      11.26364000       1.25152000      10.00000000  F      -0.01257200      -0.00379900      -0.07487000
Cu       1.25152000       3.75455000      10.00000000  F      -0.00197400       0.00107900      -0.06667200
Cu       3.75455000       3.75455000      10.00000000  F       0.01170200      -0.02057900      -0.04842300
Cu       6.25758000       3.75455000      10.00000000  F      -0.01667900      -0.02455600      -0.07705800
Cu       8.76061000       3.75455000      10.00000000  F       0.00653200      -0.01592800      -0.07159100
Cu      11.26364000       3.75455000      10.00000000  F       0.00551600      -0.00005100      -0.05856800
Cu       1.25152000       6.25758000      10.00000000  F      -0.00415800      -0.00779800      -0.05726200
Cu       3.75455000       6.25758000      10.00000000  F       0.01370900       0.01455300      -0.03945700
Cu       6.25758000       6.25758000      10.00000000  F      -0.01662600       0.02058300      -0.07647700
Cu       8.76061000       6.25758000      10.00000000  F       0.00687100       0.01730700      -0.08288800
Cu      11.26364000       6.25758000      10.00000000  F       0.00336300      -0.00623800      -0.05184400
Cu       1.25152000       8.76061000      10.00000000  F       0.00684600       0.00806400      -0.06135800
Cu       3.75455000       8.76061000      10.00000000  F      -0.00756300      -0.01137100      -0.06027600
Cu       6.25758000       8.76061000      10.00000000  F       0.01084900      -0.01574700      -0.06403900
Cu       8.76061000       8.76061000      10.00000000  F      -0.00539300      -0.00729700      -0.04502600
Cu      11.26364000       8.76061000      10.00000000  F      -0.00450700       0.00440200      -0.07394600
Cu       1.25152000      11.26364000      10.00000000  F       0.00787100      -0.00967200      -0.02224300
Cu       3.75455000      11.26364000      10.00000000  F      -0.01333500      -0.00185200      -0.06387600
Cu       6.25758000      11.26364000      10.00000000  F       0.00982200       0.00258300      -0.06368400
Cu       8.76061000      11.26364000      10.00000000  F      -0.00265700       0.00580100      -0.07667300
Cu      11.26364000      11.26364000      10.00000000  F      -0.00303700       0.00458800      -0.04888900
Cu       0.00000000       0.00000000      11.76991000  F      -0.02159300       0.06882400       0.10358100
Cu       2.50303000       0.00000000      11.76991000  F       0.03003700       0.05525900       0.08747400
Cu       5.00606000       0.00000000      11.76991000  F       0.07301500       0.09004600       0.08025200
Cu       7.50909000       0.00000000      11.76991000  F       0.01603300       0.08966600       0.10447500
Cu      10.01212000       0.00000000      11.76991000  F      -0.05010600       0.09163700       0.10516300
Cu       0.00000000       2.50303000      11.76991000  F      -0.07229500       0.04810000       0.09646400
Cu       2.50303000       2.50303000      11.76991000  F       0.07950100       0.02287900       0.06863500
Cu       5.00606000       2.50303000      11.76991000  F      -0.02616100      -0.00872500       0.08998600
Cu       7.50909000       2.50303000      11.76991000  F      -0.01608200      -0.03392400       0.11513000
Cu      10.01212000       2.50303000      11.76991000  F       0.04318700      -0.04976000       0.08617200
Cu       0.00000000       5.00606000      11.76991000  F      -0.06773300       0.02265300       0.08393000
Cu       2.50303000       5.00606000      11.76991000  F       0.09371500       0.04385400       0.13981900
Cu       5.00606000       5.00606000      11.76991000  F      -0.08933900       0.02242600       0.17281600
Cu       7.50909000       5.00606000      11.76991000  F      -0.05467500      -0.00729100       0.11128200
Cu      10.01212000       5.00606000      11.76991000  F       0.04298500      -0.00576400       0.07777400
Cu       0.00000000       7.50909000      11.76991000  F      -0.05882200      -0.03821600       0.11130500
Cu       2.50303000       7.50909000      11.76991000  F       0.08226200      -0.03753700       0.08895100
Cu       5.00606000       7.50909000      11.76991000  F      -0.05282900       0.02554900       0.10097800
Cu       7.50909000       7.50909000      11.76991000  F      -0.01905500       0.02576400       0.08976300
Cu      10.01212000       7.50909000      11.76991000  F       0.04838200       0.04506300       0.06910900
Cu       0.00000000      10.01212000      11.76991000  F       0.01044000      -0.05217300       0.11265000
Cu       2.50303000      10.01212000      11.76991000  F       0.03335200      -0.02096800       0.06630400
Cu       5.00606000      10.01212000      11.76991000  F       0.02499600      -0.09388900       0.11117300
Cu       7.50909000      10.01212000      11.76991000  F       0.03081300      -0.07241700       0.09400100
Cu      10.01212000      10.01212000      11.76991000  F      -0.06160200      -0.06814500       0.09893500
Cu       1.26064000       1.25283000      13.58033000  T       0.00206400       0.00627300      -0.02629800
Cu       3.78574000       1.26781000      13.60332000  T       0.00410500       0.00436000      -0.02174500
Cu       6.28267000       1.27723000      13.62292000  T      -0.00002200       0.00212400      -0.02019100
Cu       8.75841000       1.27989000      13.62398000  T      -0.00107400       0.00322100      -0.02143400
Cu      11.25731000       1.26274000      13.60702000  T      -0.00132300       0.00539300      -0.02483900
Cu       1.25438000       3.76855000      13.57904000  T       0.00487500       0.00249500      -0.02127300
Cu       3.74783000       3.76514000      13.61873000  T       0.00427100       0.00302200      -0.01206100
Cu       6.26490000       3.76008000      13.57809000  T      -0.00058800      -0.00343400      -0.00966300
Cu       8.74243000       3.76398000      13.56420000  T       0.00077600      -0.00076200      -0.00333700
Cu      11.23449000       3.76133000      13.61334000  T      -0.00082100      -0.00250800      -0.02197700
Cu       1.26035000       6.26506000      13.59176000  T       0.00736200      -0.00104600      -0.01681600
Cu       3.74097000       6.27136000      13.63758000  T       0.00304300      -0.00128100      -0.00866400
Cu       6.26725000       6.24734000      13.57260000  T      -0.00044500       0.00169200      -0.00773000
Cu       8.74372000       6.24654000      13.56030000  T       0.00001800       0.00120200      -0.00344800
Cu      11.23271000       6.24571000      13.60917000  T      -0.00169800       0.00207800      -0.02244500
Cu       1.27466000       8.76773000      13.59068000  T       0.00603700      -0.00851100      -0.01789400
Cu       3.76868000       8.74794000      13.61776000  T       0.00071400      -0.00618300      -0.01588300
Cu       6.28242000       8.73965000      13.61012000  T      -0.00292200      -0.00459000      -0.02080600
Cu       8.75576000       8.73401000      13.61946000  T       0.00051000      -0.00494600      -0.02360900
Cu      11.25075000       8.76083000      13.59486000  T      -0.00219300      -0.00535000      -0.02383400
Cu       1.24504000      11.27424000      13.59361000  T       0.00409000      -0.00203000      -0.02599400
Cu       3.74893000      11.27188000      13.57285000  T       0.00541600      -0.00162400      -0.02287900
Cu       6.25727000      11.26728000      13.57296000  T      -0.00024500      -0.00120800      -0.02357400
Cu       8.76380000      11.26445000      13.57971000  T      -0.00278000       0.00042300      -0.02336300
Cu      11.26989000      11.27079000      13.58388000  T      -0.00579800      -0.00036600      -0.02465300
Cu       0.00016000       0.01057000      15.38459000  T      -0.00144100       0.00487000      -0.03331600
Cu       2.50942000       0.02420000      15.37953000  T       0.00189300      -0.00105900      -0.03727300
Cu       5.00402000      12.48214000      15.36875000  T       0.00129800      -0.00134400      -0.02495200
Cu       7.50696000      12.49290000      15.36414000  T      -0.00021800      -0.00153600      -0.02576000
Cu      10.01561000      12.49627000      15.37186000  T      -0.00191400      -0.00443200      -0.02964800
Cu       0.05210000       2.50552000      15.35987000  T       0.00267200       0.00420900      -0.02415500
Cu       2.51569000       2.47767000      15.36735000  T       0.00211900      -0.00142400      -0.02227600
Cu       4.99143000       2.41777000      15.47988000  T       0.01558400       0.01083300      -0.00843400
Cu       7.54255000       2.50586000      15.48626000  T      -0.01271800       0.03470600       0.00863600
Cu      10.09613000       2.45424000      15.45500000  T      -0.00773900       0.00789100      -0.01182600
Cu      12.47519000       5.00900000      15.35118000  T       0.00040600       0.00087500      -0.02741500
Cu       2.40092000       4.94647000      15.48670000  T       0.00927000      -0.00185100       0.00251700
Pd       4.99442000       5.00356000      15.50063000  T       0.00432800      -0.00203200      -0.00427700
Y        7.48148000       4.99956000      17.25432000  T       0.00692500      -0.00383700      -0.05189700
Cu       9.97494000       5.00624000      15.45193000  T      -0.03573500       0.00012800       0.01512000
Cu      12.51569000       7.53005000      15.31890000  T       0.00284500      -0.00327400      -0.02131100
Cu       2.50759000       7.61719000      15.45376000  T      -0.00310500      -0.01289100       0.00105300
Cu       5.03570000       7.59392000      15.44270000  T       0.01488600      -0.01575500      -0.00072600
Cu       7.55434000       7.50121000      15.48492000  T      -0.01605700      -0.03390800       0.01215300
Cu      10.07624000       7.56260000      15.45137000  T      -0.01027800      -0.01207700      -0.01283200
Cu      12.51329000      10.01728000      15.37264000  T      -0.00129200      -0.00117600      -0.03166800
Cu       2.50884000      10.07976000      15.36861000  T       0.00096300      -0.00688800      -0.02819100
Cu       5.00708000      10.04115000      15.35900000  T       0.00235200       0.00003400      -0.02289500
Cu       7.50548000      10.02599000      15.35996000  T      -0.00051600       0.00032400      -0.02406400
Cu      10.01447000      10.03296000      15.36803000  T      -0.00212300       0.00224000      -0.02923200
O        6.12629000       3.40252000      16.69623000  T      -0.00904700       0.00615700      -0.01467900
O        6.12702000       6.58870000      16.68269000  T      -0.01460900      -0.01010900      -0.00455100
O        8.98777000       6.42941000      16.55961000  T      -0.00585200       0.00551800      -0.00921200
O        8.98393000       3.56940000      16.55239000  T      -0.00622000      -0.00472400      -0.01013600
C        2.35508000       5.71597000      17.26763000  T       0.00795300      -0.01805400       0.00827100
O        2.31948000       4.98316000      18.39784000  T       0.00354200      -0.02287900      -0.01327000
O        2.39263000       6.97034000      17.40531000  T       0.01268700      -0.02521300       0.00056600
H        2.33347000       5.62634000      19.15085000  T      -0.00947300      -0.04267000       0.00694400
108
Lattice="12.515153631 0.0 0.0 0.0 12.515153631 0.0 0.0 0.0 25.30973" Properties=species:S:1:pos:R:3:move_mask:L:1:forces:R:3 stress="0.008461894789870597 2.759995335465577e-05 1.2264565432360602e-05 2.759995335465577e-05 0.008088527713960262 0.0002360725996682825 1.2264565432360602e-05 0.0002360725996682825 0.0028120682461028204" free_energy=-445.28057486 energy=-445.28010284 pbc="T T T"
Cu       1.25152000       1.25152000      10.00000000  F       0.00426600       0.00651300      -0.06358400
Cu       3.75455000       1.25152000      10.00000000  F       0.00271300       0.01787800      -0.06955800
Cu       6.25758000       1.25152000      10.00000000  F       0.00192300       0.01726400      -0.06452200
Cu       8.76061000       1.25152000      10.00000000  F       0.00265900      -0.00085700      -0.04780600
Cu      11.26364000       1.25152000      10.00000000  F      -0.01265700      -0.00455300      -0.07376400
Cu       1.25152000       3.75455000      10.00000000  F      -0.00277700       0.00085300      -0.06639700
Cu       3.75455000       3.75455000      10.00000000  F       0.01116700      -0.02078800      -0.04851100
Cu       6.25758000       3.75455000      10.00000000  F      -0.01644500      -0.02467000      -0.07699000
Cu       8.76061000       3.75455000      10.00000000  F       0.00703500      -0.01607200      -0.07119200
Cu      11.26364000       3.75455000      10.00000000  F       0.00535800      -0.00016200      -0.05798300
Cu       1.25152000       6.25758000      10.00000000  F      -0.00492400      -0.00705900      -0.05687800
Cu       3.75455000       6.25758000      10.00000000  F       0.01311200       0.01524000      -0.03944000
Cu       6.25758000       6.25758000      10.00000000  F      -0.01641100       0.02110400      -0.07632600
Cu       8.76061000       6.25758000      10.00000000  F       0.00739600       0.01785200      -0.08243600
Cu      11.26364000       6.25758000      10.00000000  F       0.00322200      -0.00567300      -0.05115300
Cu       1.25152000       8.76061000      10.00000000  F       0.00608800       0.00849700      -0.06032000
Cu       3.75455000       8.76061000      10.00000000  F      -0.00819800      -0.01088500      -0.05977000
Cu       6.25758000       8.76061000      10.00000000  F       0.01099800      -0.01529000      -0.06362600
Cu       8.76061000       8.76061000      10.00000000  F      -0.00482900      -0.00685700      -0.04416600
Cu      11.26364000       8.76061000      10.00000000  F      -0.00459800       0.00484500      -0.07266900
Cu       1.25152000      11.26364000      10.00000000  F       0.00709000      -0.01003900      -0.02098200
Cu       3.75455000      11.26364000      10.00000000  F      -0.01387100      -0.00221200      -0.06309700
Cu       6.25758000      11.26364000      10.00000000  F       0.00987300       0.00221100      -0.06298400
Cu       8.76061000      11.26364000      10.00000000  F      -0.00207700       0.00542700      -0.07549600
Cu      11.26364000      11.26364000      10.00000000  F      -0.00314300       0.00419300      -0.04722900
Cu       0.00000000       0.00000000      11.76991000  F      -0.02222000       0.06815100       0.09959700
Cu       2.50303000       0.00000000      11.76991000  F       0.02913300       0.05449100       0.08404000
Cu       5.00606000       0.00000000      11.76991000  F       0.07289900       0.08952300       0.07734700
Cu       7.50909000       0.00000000      11.76991000  F       0.01682300       0.08923300       0.10175300
Cu      10.01212000       0.00000000      11.76991000  F      -0.04979500       0.09098000       0.10173000
Cu       0.00000000       2.50303000      11.76991000  F      -0.07279400       0.04767700       0.09329600
Cu       2.50303000       2.50303000      11.76991000  F       0.07878000       0.02240300       0.06589700
Cu       5.00606000       2.50303000      11.76991000  F      -0.02624800      -0.00901400       0.08785700
Cu       7.50909000       2.50303000      11.76991000  F      -0.01538600      -0.03458700       0.11270200
Cu      10.01212000       2.50303000      11.76991000  F       0.04333100      -0.05034600       0.08289100
Cu       0.00000000       5.00606000      11.76991000  F      -0.06826300       0.02301200       0.08205000
Cu       2.50303000       5.00606000      11.76991000  F       0.09341600       0.04429200       0.13831200
Cu       5.00606000       5.00606000      11.76991000  F      -0.08984300       0.02275800       0.17197400
Cu       7.50909000       5.00606000      11.76991000  F      -0.05415800      -0.00727000       0.10945600
Cu      10.01212000       5.00606000      11.76991000  F       0.04308700      -0.00574800       0.07526900
Cu       0.00000000       7.50909000      11.76991000  F      -0.05912300      -0.03763800       0.10900400
Cu       2.50303000       7.50909000      11.76991000  F       0.08163200      -0.03686200       0.08661800
Cu       5.00606000       7.50909000      11.76991000  F      -0.05334000       0.02584600       0.09962700
Cu       7.50909000       7.50909000      11.76991000  F      -0.01842500       0.02629300       0.08734500
Cu      10.01212000       7.50909000      11.76991000  F       0.04860400       0.04566200       0.06610300
Cu       0.00000000      10.01212000      11.76991000  F       0.00998100      -0.05220500       0.10924500
Cu       2.50303000      10.01212000      11.76991000  F       0.03237900      -0.02100100       0.06337900
Cu       5.00606000      10.01212000      11.76991000  F       0.02462800      -0.09404400       0.10867100
Cu       7.50909000      10.01212000      11.76991000  F       0.03147500      -0.07228100       0.09136200
Cu      10.01212000      10.01212000      11.76991000  F      -0.06116800      -0.06773700       0.09564000
Cu       1.26066000       1.25288000      13.57949000  T       0.00127900       0.00595200      -0.02542400
Cu       3.78575000       1.26781000      13.60243000  T       0.00455800       0.00493100      -0.01912500
Cu       6.28263000       1.27717000      13.62220000  T       0.00061200       0.00229900      -0.01786700
Cu       8.75848000       1.27985000      13.62315000  T      -0.00170400       0.00354100      -0.01873600
Cu      11.25740000       1.26278000      13.60602000  T      -0.00263200       0.00505500      -0.02245500
Cu       1.25457000       3.76860000      13.57846000  T       0.00456200       0.00271700      -0.02008100
Cu       3.74777000       3.76520000      13.61823000  T       0.00541100       0.00357700      -0.00880800
Cu       6.26488000       3.76000000      13.57743000  T      -0.00092300      -0.00236800      -0.00603900
Cu       8.74245000       3.76399000      13.56372000  T       0.00075700      -0.00071400      -0.00136200
Cu      11.23450000       3.76121000      13.61261000  T      -0.00178900      -0.00165800      -0.01985300
Cu       1.26062000       6.26506000      13.59128000  T       0.00698700      -0.00096800      -0.01556400
Cu       3.74091000       6.27140000      13.63727000  T       0.00408600      -0.00147500      -0.00554400
Cu       6.26728000       6.24741000      13.57201000  T      -0.00099500       0.00104100      -0.00370100
Cu       8.74370000       6.24657000      13.55983000  T      -0.00006400       0.00168100      -0.00096700
Cu      11.23263000       6.24577000      13.60845000  T      -0.00226000       0.00191800      -0.02032400
Cu       1.27478000       8.76760000      13.59007000  T       0.00534000      -0.00876700      -0.01672800
Cu       3.76863000       8.74787000      13.61712000  T       0.00112000      -0.00751300      -0.01287300
Cu       6.28237000       8.73960000      13.60943000  T      -0.00271600      -0.00522700      -0.01795000
Cu       8.75576000       8.73405000      13.61858000  T       0.00016500      -0.00584900      -0.02041800
Cu      11.25078000       8.76081000      13.59394000  T      -0.00300700      -0.00555600      -0.02154000
Cu       1.24503000      11.27417000      13.59270000  T       0.00318500      -0.00239200      -0.02515100
Cu       3.74895000      11.27182000      13.57212000  T       0.00560500      -0.00209700      -0.02204900
Cu       6.25722000      11.26724000      13.57218000  T       0.00046000      -0.00148800      -0.02246800
Cu       8.76381000      11.26444000      13.57893000  T      -0.00295900       0.00007200      -0.02268900
Cu      11.26992000      11.27081000      13.58307000  T      -0.00648900      -0.00085900      -0.02429500
Cu       0.00004000       0.01082000      15.38284000  T      -0.00153500       0.00390800      -0.03224100
Cu       2.50956000       0.02426000      15.37767000  T       0.00100100      -0.00233800      -0.03531400
Cu       5.00419000      12.48201000      15.36762000  T       0.00072200      -0.00062600      -0.02367400
Cu       7.50689000      12.49278000      15.36295000  T       0.00024100      -0.00067300      -0.02481000
Cu      10.01544000      12.49610000      15.37048000  T      -0.00129500      -0.00420200      -0.02911100
Cu       0.05230000       2.50573000      15.35874000  T       0.00165900       0.00355900      -0.02328000
Cu       2.51563000       2.47771000      15.36633000  T       0.00328300      -0.00164300      -0.02093200
Cu       4.99179000       2.41785000      15.47917000  T       0.01298300       0.00947500      -0.00859300
Cu       7.54228000       2.50651000      15.48566000  T      -0.01332100       0.03300300       0.00959700
Cu      10.09620000       2.45422000      15.45417000  T      -0.00640800       0.00566600      -0.01289000
Cu      12.47538000       5.00907000      15.34976000  T      -0.00139700       0.00108800      -0.02552300
Cu       2.40090000       4.94636000      15.48666000  T       0.01135000      -0.00173000       0.00348700
Pd       4.99483000       5.00349000      15.49999000  T       0.01034400      -0.00211400      -0.01213700
Y        7.48182000       4.99950000      17.25329000  T       0.00641300      -0.00348200      -0.04677300
Cu       9.97447000       5.00626000      15.45150000  T      -0.03463700       0.00034700       0.01544000
Cu      12.51585000       7.52986000      15.31785000  T       0.00139000      -0.00225000      -0.02017900
Cu       2.50745000       7.61666000      15.45356000  T      -0.00216200      -0.01254900       0.00238300
Cu       5.03609000       7.59370000      15.44220000  T       0.01218500      -0.01399600      -0.00050600
Cu       7.55401000       7.50061000      15.48452000  T      -0.01683600      -0.03317600       0.01370100
Cu      10.07615000       7.56249000      15.45052000  T      -0.00905500      -0.00965300      -0.01381900
Cu      12.51317000      10.01716000      15.37097000  T      -0.00147900      -0.00095200      -0.03022800
Cu       2.50896000      10.07954000      15.36717000  T       0.00017200      -0.00800700      -0.02624800
Cu       5.00727000      10.04113000      15.35796000  T       0.00179000      -0.00164600      -0.02152200
Cu       7.50542000      10.02593000      15.35877000  T      -0.00012500      -0.00129600      -0.02301800
Cu      10.01429000      10.03296000      15.36667000  T      -0.00164100       0.00119900      -0.02853200
O        6.12493000       3.40280000      16.69654000  T       0.00351000       0.00776000      -0.02096400
O        6.12537000       6.58826000      16.68332000  T       0.00079600      -0.01066000      -0.01279800
O        8.98805000       6.43042000      16.56005000  T      -0.01359100      -0.00567400      -0.01274900
O        8.98432000       3.56836000      16.55276000  T      -0.01427500       0.00755600      -0.01306700
C        2.35548000       5.71534000      17.26795000  T       0.00708500      -0.02071600       0.00058800
O        2.31956000       4.98206000      18.39774000  T       0.00331400      -0.01662200      -0.00994500
O        2.39301000       6.96962000      17.40545000  T       0.01163600      -0.02083700       0.00393500
H        2.33310000       5.62478000      19.15116000  T      -0.00908300      -0.04292100       0.00744800
108
Lattice="12.515153631 0.0 0.0 0.0 12.515153631 0.0 0.0 0.0 25.30973" Properties=species:S:1:pos:R:3:move_mask:L:1:forces:R:3 stress="0.008387639555799966 2.7562504299900465e-05 1.2295772977990018e-05 2.7562504299900465e-05 0.008011526215874238 0.00023474315822446935 1.2295772977990018e-05 0.00023474315822446935 0.0027223590354365007" free_energy=-445.28038524 energy=-445.2799268 pbc="T T T"
Cu       1.25152000       1.25152000      10.00000000  F       0.00468000       0.00691600      -0.06393400
Cu       3.75455000       1.25152000      10.00000000  F       0.00290000       0.01818300      -0.06985300
Cu       6.25758000       1.25152000      10.00000000  F       0.00155700       0.01755300      -0.06488600
Cu       8.76061000       1.25152000      10.00000000  F       0.00222100      -0.00047900      -0.04827900
Cu      11.26364000       1.25152000      10.00000000  F      -0.01260800      -0.00415100      -0.07425600
Cu       1.25152000       3.75455000      10.00000000  F      -0.00242100       0.00123700      -0.06666400
Cu       3.75455000       3.75455000      10.00000000  F       0.01129500      -0.02043800      -0.04874900
Cu       6.25758000       3.75455000      10.00000000  F      -0.01676700      -0.02430700      -0.07716400
Cu       8.76061000       3.75455000      10.00000000  F       0.00667700      -0.01570200      -0.07140100
Cu      11.26364000       3.75455000      10.00000000  F       0.00539300       0.00026500      -0.05826900
Cu       1.25152000       6.25758000      10.00000000  F      -0.00457400      -0.00725000      -0.05707000
Cu       3.75455000       6.25758000      10.00000000  F       0.01323100       0.01505900      -0.03960100
Cu       6.25758000       6.25758000      10.00000000  F      -0.01673700       0.02090900      -0.07642200
Cu       8.76061000       6.25758000      10.00000000  F       0.00704800       0.01763700      -0.08257900
Cu      11.26364000       6.25758000      10.00000000  F       0.00326100      -0.00591800      -0.05133400
Cu       1.25152000       8.76061000      10.00000000  F       0.00650600       0.00784700      -0.06051900
Cu       3.75455000       8.76061000      10.00000000  F      -0.00802600      -0.01141700      -0.05994600
Cu       6.25758000       8.76061000      10.00000000  F       0.01064600      -0.01579800      -0.06387100
Cu       8.76061000       8.76061000      10.00000000  F      -0.00526700      -0.00744500      -0.04455500
Cu      11.26364000       8.76061000      10.00000000  F      -0.00456700       0.00421500      -0.07299600
Cu       1.25152000      11.26364000      10.00000000  F       0.00749600      -0.01025500      -0.02128900
Cu       3.75455000      11.26364000      10.00000000  F      -0.01360100      -0.00242200      -0.06325700
Cu       6.25758000      11.26364000      10.00000000  F       0.00945700       0.00198100      -0.06331800
Cu       8.76061000      11.26364000      10.00000000  F      -0.00255000       0.00519800      -0.07606500
Cu      11.26364000      11.26364000      10.00000000  F      -0.00310700       0.00395900      -0.04772500
Cu       0.00000000       0.00000000      11.76991000  F      -0.02198900       0.06836500       0.09632300
Cu       2.50303000       0.00000000      11.76991000  F       0.02982500       0.05460000       0.08102200
Cu       5.00606000       0.00000000      11.76991000  F       0.07299400       0.08970900       0.07444100
Cu       7.50909000       0.00000000      11.76991000  F       0.01627100       0.08960300       0.09906100
Cu      10.01212000       0.00000000      11.76991000  F      -0.05027400       0.09127700       0.09872000
Cu       0.00000000       2.50303000      11.76991000  F      -0.07251300       0.04867600       0.09046900
Cu       2.50303000       2.50303000      11.76991000  F       0.07949900       0.02330800       0.06318400
Cu       5.00606000       2.50303000      11.76991000  F      -0.02621900      -0.00824200       0.08533100
Cu       7.50909000       2.50303000      11.76991000  F      -0.01565900      -0.03387700       0.11048900
Cu      10.01212000       2.50303000      11.76991000  F       0.04270500      -0.04941900       0.08022700
Cu       0.00000000       5.00606000      11.76991000  F      -0.06808000       0.02333600       0.08021900
Cu       2.50303000       5.00606000      11.76991000  F       0.09416400       0.04468300       0.13618300
Cu       5.00606000       5.00606000      11.76991000  F      -0.09003600       0.02307700       0.17035000
Cu       7.50909000       5.00606000      11.76991000  F      -0.05431400      -0.00714400       0.10788400
Cu      10.01212000       5.00606000      11.76991000  F       0.04248300      -0.00566300       0.07336200
Cu       0.00000000       7.50909000      11.76991000  F      -0.05861100      -0.03847200       0.10677600
Cu       2.50303000       7.50909000      11.76991000  F       0.08237500      -0.03759400       0.08422300
Cu       5.00606000       7.50909000      11.76991000  F      -0.05362700       0.02510600       0.09757900
Cu       7.50909000       7.50909000      11.76991000  F      -0.01881200       0.02549200       0.08503300
Cu      10.01212000       7.50909000      11.76991000  F       0.04803600       0.04471900       0.06342700
Cu       0.00000000      10.01212000      11.76991000  F       0.01043300      -0.05317300       0.10647300
Cu       2.50303000      10.01212000      11.76991000  F       0.03301800      -0.02191800       0.06073500
Cu       5.00606000      10.01212000      11.76991000  F       0.02449100      -0.09495300       0.10605600
Cu       7.50909000      10.01212000      11.76991000  F       0.03083800      -0.07308400       0.08867300
Cu      10.01212000      10.01212000      11.76991000  F      -0.06161300      -0.06836500       0.09263200
Cu       1.26069000       1.25296000      13.57878000  T       0.00145700       0.00610900      -0.02317500
Cu       3.78580000       1.26787000      13.60176000  T       0.00517600       0.00553700      -0.01650300
Cu       6.28261000       1.27717000      13.62163000  T       0.00087600       0.00305200      -0.01556300
Cu       8.75850000       1.27987000      13.62251000  T      -0.00299800       0.00488100      -0.01525200
Cu      11.25743000       1.26285000      13.60525000  T      -0.00356400       0.00567200      -0.01889400
Cu       1.25471000       3.76865000      13.57794000  T       0.00451800       0.00344300      -0.01819400
Cu       3.74779000       3.76527000      13.61789000  T       0.00589600       0.00382700      -0.00787200
Cu       6.26485000       3.75993000      13.57702000  T      -0.00045500      -0.00149900      -0.00524900
Cu       8.74248000       3.76398000      13.56345000  T       0.00024300      -0.00002700      -0.00038200
Cu      11.23449000       3.76113000      13.61202000  T      -0.00258500       0.00009200      -0.01685800
Cu       1.26083000       6.26506000      13.59087000  T       0.00661600      -0.00165400      -0.01417700
Cu       3.74091000       6.27141000      13.63706000  T       0.00458200      -0.00188100      -0.00498600
Cu       6.26729000       6.24746000      13.57166000  T      -0.00087500       0.00026300      -0.00301000
Cu       8.74368000       6.24661000      13.55957000  T      -0.00055300       0.00096200      -0.00000300
Cu      11.23256000       6.24582000      13.60787000  T      -0.00251300       0.00063900      -0.01738700
Cu       1.27490000       8.76744000      13.58957000  T       0.00527600      -0.00928600      -0.01492200
Cu       3.76861000       8.74776000      13.61666000  T       0.00177600      -0.00866100      -0.01039100
Cu       6.28231000       8.73952000      13.60889000  T      -0.00261500      -0.00605100      -0.01550900
Cu       8.75575000       8.73401000      13.61791000  T      -0.00122000      -0.00734400      -0.01669000
Cu      11.25077000       8.76075000      13.59323000  T      -0.00322500      -0.00655300      -0.01832600
Cu       1.24505000      11.27411000      13.59195000  T       0.00344300      -0.00263900      -0.02275600
Cu       3.74902000      11.27175000      13.57150000  T       0.00585300      -0.00240500      -0.02038900
Cu       6.25720000      11.26720000      13.57154000  T       0.00042200      -0.00164100      -0.02039700
Cu       8.76378000      11.26444000      13.57827000  T      -0.00387400      -0.00023800      -0.02079600
Cu      11.26988000      11.27082000      13.58237000  T      -0.00623000      -0.00122800      -0.02217300
Cu      -0.00004000       0.01100000      15.38156000  T      -0.00085300       0.00341900      -0.02917000
Cu       2.50964000       0.02427000      15.37629000  T       0.00070100      -0.00299900      -0.03160200
Cu       5.00429000      12.48193000      15.36676000  T       0.00007600       0.00043800      -0.02213900
Cu       7.50686000      12.49271000      15.36205000  T       0.00016300       0.00109000      -0.02298600
Cu      10.01533000      12.49596000      15.36943000  T      -0.00087900      -0.00283500      -0.02660500
Cu       0.05242000       2.50588000      15.35789000  T       0.00075800       0.00354900      -0.02173800
Cu       2.51564000       2.47772000      15.36557000  T       0.00423100      -0.00180200      -0.01947400
Cu       4.99211000       2.41798000      15.47869000  T       0.00922900       0.00655800      -0.01003600
Cu       7.54199000       2.50719000      15.48542000  T      -0.01139200       0.02820500       0.00706900
Cu      10.09619000       2.45424000      15.45357000  T      -0.00648700       0.00537300      -0.01238100
Cu      12.47547000       5.00912000      15.34874000  T      -0.00317700       0.00091200      -0.02315600
Cu       2.40101000       4.94628000      15.48667000  T       0.01112000      -0.00265600       0.00072100
Pd       4.99520000       5.00343000      15.49947000  T       0.00632000      -0.00162800      -0.01162900
Y        7.48208000       4.99944000      17.25228000  T       0.00507400      -0.00253300      -0.04031900
Cu       9.97388000       5.00628000      15.45140000  T      -0.03006700       0.00012200       0.01264000
Cu      12.51594000       7.52973000      15.31707000  T       0.00024900      -0.00203200      -0.01862500
Cu       2.50736000       7.61625000      15.45348000  T      -0.00106400      -0.01135300       0.00184100
Cu       5.03641000       7.59346000      15.44192000  T       0.00792200      -0.01060500      -0.00243100
Cu       7.55366000       7.49995000      15.48444000  T      -0.01474400      -0.02884600       0.01098100
Cu      10.07601000       7.56235000      15.44990000  T      -0.00829700      -0.00860400      -0.01361600
Cu      12.51309000      10.01708000      15.36976000  T      -0.00090300      -0.00084400      -0.02700300
Cu       2.50903000      10.07933000      15.36611000  T       0.00007900      -0.00810800      -0.02359800
Cu       5.00739000      10.04110000      15.35718000  T       0.00105400      -0.00273700      -0.02014000
Cu       7.50539000      10.02588000      15.35789000  T      -0.00013400      -0.00287900      -0.02124000
Cu      10.01417000      10.03297000      15.36563000  T      -0.00123200      -0.00012500      -0.02629800
O        6.12427000       3.40305000      16.69648000  T       0.00862500       0.00692900      -0.02084400
O        6.12454000       6.58791000      16.68351000  T       0.00709200      -0.00974700      -0.01338200
O        8.98803000       6.43087000      16.56016000  T      -0.01404700      -0.00828700      -0.01502800
O        8.98436000       3.56792000      16.55282000  T      -0.01428500       0.00978700      -0.01555200
C        2.35577000       5.71477000      17.26809000  T       0.00705500      -0.01752900      -0.00262100
O        2.31964000       4.98132000      18.39760000  T       0.00256600      -0.02002300      -0.00857600
O        2.39332000       6.96904000      17.40559000  T       0.01094800      -0.01895400       0.00364600
H        2.33280000       5.62349000      19.15140000  T      -0.00865200      -0.04004800       0.00827300
108
Lattice="12.515153631 0.0 0.0 0.0 12.515153631 0.0 0.0 0.0 25.30973" Properties=species:S:1:pos:R:3:move_mask:L:1:forces:R:3 stress="0.008189465399544045 2.7531296754271056e-05 5.848294050952613e-06 2.7531296754271056e-05 0.007805724935466491 0.00022912580001117438 5.848294050952613e-06 0.00022912580001117438 0.0024506224526229213" free_energy=-445.28188714 energy=-445.28148646 pbc="T T T"
Cu       1.25152000       1.25152000      10.00000000  F       0.00435400       0.00663900      -0.06381400
Cu       3.75455000       1.25152000      10.00000000  F       0.00267600       0.01784500      -0.06998500
Cu       6.25758000       1.25152000      10.00000000  F       0.00183000       0.01715800      -0.06541000
Cu       8.76061000       1.25152000      10.00000000  F       0.00274400      -0.00088100      -0.04851900
Cu      11.26364000       1.25152000      10.00000000  F      -0.01259000      -0.00455300      -0.07429600
Cu       1.25152000       3.75455000      10.00000000  F      -0.00275700       0.00080500      -0.06697400
Cu       3.75455000       3.75455000      10.00000000  F       0.01104800      -0.02087800      -0.04918100
Cu       6.25758000       3.75455000      10.00000000  F      -0.01649300      -0.02461200      -0.07741700
Cu       8.76061000       3.75455000      10.00000000  F       0.00710900      -0.01610500      -0.07179000
Cu      11.26364000       3.75455000      10.00000000  F       0.00545700      -0.00006100      -0.05863000
Cu       1.25152000       6.25758000      10.00000000  F      -0.00485600      -0.00696900      -0.05740900
Cu       3.75455000       6.25758000      10.00000000  F       0.01293900       0.01531200      -0.04005000
Cu       6.25758000       6.25758000      10.00000000  F      -0.01645100       0.02103100      -0.07666000
Cu       8.76061000       6.25758000      10.00000000  F       0.00748600       0.01780500      -0.08307100
Cu      11.26364000       6.25758000      10.00000000  F       0.00328500      -0.00578000      -0.05171200
Cu       1.25152000       8.76061000      10.00000000  F       0.00619900       0.00811700      -0.06043400
Cu       3.75455000       8.76061000      10.00000000  F      -0.00825300      -0.01105300      -0.06014500
Cu       6.25758000       8.76061000      10.00000000  F       0.01094000      -0.01532200      -0.06431500
Cu       8.76061000       8.76061000      10.00000000  F      -0.00474100      -0.00694400      -0.04496000
Cu      11.26364000       8.76061000      10.00000000  F      -0.00461600       0.00469700      -0.07287900
Cu       1.25152000      11.26364000      10.00000000  F       0.00696600      -0.01011400      -0.02091000
Cu       3.75455000      11.26364000      10.00000000  F      -0.01368600      -0.00230600      -0.06317900
Cu       6.25758000      11.26364000      10.00000000  F       0.00971600       0.00201600      -0.06351000
Cu       8.76061000      11.26364000      10.00000000  F      -0.00199600       0.00525800      -0.07608600
Cu      11.26364000      11.26364000      10.00000000  F      -0.00314900       0.00402000      -0.04733800
Cu       0.00000000       0.00000000      11.76991000  F      -0.02222400       0.06856900       0.08398500
Cu       2.50303000       0.00000000      11.76991000  F       0.03048600       0.05470800       0.06957100
Cu       5.00606000       0.00000000      11.76991000  F       0.07346400       0.09050600       0.06343800
Cu       7.50909000       0.00000000      11.76991000  F       0.01669400       0.09080500       0.08877700
Cu      10.01212000       0.00000000      11.76991000  F      -0.05066500       0.09180200       0.08713500
Cu       0.00000000       2.50303000      11.76991000  F      -0.07229100       0.05005200       0.07956800
Cu       2.50303000       2.50303000      11.76991000  F       0.08087600       0.02490500       0.05318500
Cu       5.00606000       2.50303000      11.76991000  F      -0.02573600      -0.00670700       0.07637100
Cu       7.50909000       2.50303000      11.76991000  F      -0.01504700      -0.03282200       0.10235000
Cu      10.01212000       2.50303000      11.76991000  F       0.04144000      -0.04832200       0.06987000
Cu       0.00000000       5.00606000      11.76991000  F      -0.06790600       0.02401300       0.07322300
Cu       2.50303000       5.00606000      11.76991000  F       0.09636100       0.04554200       0.12880700
Cu       5.00606000       5.00606000      11.76991000  F      -0.09042500       0.02378000       0.16518600
Cu       7.50909000       5.00606000      11.76991000  F      -0.05375400      -0.00711300       0.10248500
Cu      10.01212000       5.00606000      11.76991000  F       0.04075000      -0.00585000       0.06578400
Cu       0.00000000       7.50909000      11.76991000  F      -0.05739300      -0.03933500       0.09829700
Cu       2.50303000       7.50909000      11.76991000  F       0.08386700      -0.03858000       0.07540700
Cu       5.00606000       7.50909000      11.76991000  F      -0.05434100       0.02360800       0.09054100
Cu       7.50909000       7.50909000      11.76991000  F      -0.01859800       0.02403700       0.07652800
Cu      10.01212000       7.50909000      11.76991000  F       0.04681400       0.04351800       0.05289700
Cu       0.00000000      10.01212000      11.76991000  F       0.01094700      -0.05461300       0.09580800
Cu       2.50303000      10.01212000      11.76991000  F       0.03340400      -0.02353000       0.05075000
Cu       5.00606000      10.01212000      11.76991000  F       0.02414000      -0.09698800       0.09612400
Cu       7.50909000      10.01212000      11.76991000  F       0.03095700      -0.07449400       0.07840600
Cu      10.01212000      10.01212000      11.76991000  F      -0.06186800      -0.06860900       0.08101800
Cu       1.26079000       1.25336000      13.57579000  T       0.00108600       0.00540200      -0.01595700
Cu       3.78608000       1.26816000      13.59903000  T       0.00633800       0.00695900      -0.00743000
Cu       6.28258000       1.27721000      13.61931000  T       0.00231300       0.00496700      -0.00707900
Cu       8.75850000       1.28002000      13.61998000  T      -0.00579900       0.00801300      -0.00459500
Cu      11.25744000       1.26320000      13.60215000  T      -0.00587800       0.00581100      -0.00876600
Cu       1.25533000       3.76891000      13.57578000  T       0.00449400       0.00426400      -0.01104000
Cu       3.74795000       3.76560000      13.61646000  T       0.00669300       0.00339100      -0.00356800
Cu       6.26476000       3.75968000      13.57536000  T       0.00166500       0.00003600      -0.00151900
Cu       8.74255000       3.76399000      13.56240000  T      -0.00081400       0.00080100       0.00285300
Cu      11.23438000       3.76090000      13.60963000  T      -0.00473600       0.00432500      -0.00726500
Cu       1.26175000       6.26499000      13.58913000  T       0.00532700      -0.00345800      -0.00813800
Cu       3.74100000       6.27141000      13.63618000  T       0.00570500      -0.00264800      -0.00160700
Cu       6.26731000       6.24763000      13.57026000  T       0.00021200      -0.00181400       0.00058300
Cu       8.74361000       6.24672000      13.55858000  T      -0.00156700      -0.00080900       0.00337900
Cu      11.23225000       6.24597000      13.60547000  T      -0.00327100      -0.00291600      -0.00786700
Cu       1.27541000       8.76670000      13.58751000  T       0.00433300      -0.00947500      -0.00905800
Cu       3.76859000       8.74717000      13.61480000  T       0.00305100      -0.01154500      -0.00136900
Cu       6.28207000       8.73910000      13.60665000  T      -0.00153600      -0.00773100      -0.00642100
Cu       8.75567000       8.73372000      13.61521000  T      -0.00458800      -0.01021100      -0.00470700
Cu      11.25068000       8.76038000      13.59035000  T      -0.00362400      -0.00707400      -0.00878500
Cu       1.24518000      11.27382000      13.58882000  T       0.00230800      -0.00244200      -0.01558100
Cu       3.74936000      11.27148000      13.56891000  T       0.00565400      -0.00274300      -0.01408500
Cu       6.25712000      11.26702000      13.56885000  T       0.00167200      -0.00145000      -0.01335500
Cu       8.76361000      11.26442000      13.57554000  T      -0.00514100      -0.00080800      -0.01525500
Cu      11.26964000      11.27080000      13.57948000  T      -0.00477100      -0.00139600      -0.01696700
Cu      -0.00036000       0.01170000      15.37625000  T       0.00058600       0.00133200      -0.02281000
Cu       2.50996000       0.02423000      15.37062000  T      -0.00134100      -0.00564000      -0.02263700
Cu       5.00466000      12.48166000      15.36319000  T      -0.00146100       0.00415000      -0.01800300
Cu       7.50673000      12.49251000      15.35831000  T       0.00125400       0.00694700      -0.01832300
Cu      10.01491000      12.49545000      15.36505000  T       0.00120300       0.00110300      -0.02132300
Cu       0.05288000       2.50650000      15.35433000  T      -0.00233000       0.00197100      -0.01848000
Cu       2.51574000       2.47772000      15.36237000  T       0.00704400      -0.00344300      -0.01553400
Cu       4.99331000       2.41843000      15.47662000  T      -0.00074900      -0.00243000      -0.01375600
Cu       7.54080000       2.50998000      15.48443000  T      -0.00561900       0.01206600      -0.00138600
Cu      10.09608000       2.45440000      15.45110000  T      -0.00627700       0.00302800      -0.01195800
Cu      12.47571000       5.00932000      15.34449000  T      -0.00844200       0.00021400      -0.01606200
Cu       2.40156000       4.94590000      15.48665000  T       0.01032800      -0.00552900      -0.00644000
Pd       4.99656000       5.00318000      15.49729000  T       0.00039400      -0.00180600      -0.01166100
Y        7.48309000       4.99921000      17.24812000  T      -0.01005900      -0.00092400      -0.00032100
Cu       9.97139000       5.00634000      15.45104000  T      -0.01448800      -0.00110500       0.00279900
Cu      12.51627000       7.52922000      15.31384000  T      -0.00353000       0.00024800      -0.01402400
Cu       2.50703000       7.61453000      15.45315000  T       0.00188400      -0.00831600       0.00258500
Cu       5.03759000       7.59250000      15.44070000  T      -0.00439800       0.00026000      -0.00611400
Cu       7.55220000       7.49722000      15.48411000  T      -0.00847500      -0.01449700       0.00290400
Cu      10.07544000       7.56174000      15.44731000  T      -0.00588500      -0.00379800      -0.01428900
Cu      12.51278000      10.01676000      15.36476000  T       0.00024400       0.00129000      -0.01970600
Cu       2.50930000      10.07840000      15.36178000  T      -0.00140500      -0.00837700      -0.01700500
Cu       5.00785000      10.04090000      15.35391000  T      -0.00078100      -0.00540200      -0.01626900
Cu       7.50525000      10.02557000      15.35421000  T       0.00103800      -0.00736500      -0.01691200
Cu      10.01372000      10.03295000      15.36134000  T       0.00063000      -0.00281900      -0.02126900
O        6.12190000       3.40406000      16.69604000  T       0.01539700      -0.00064400      -0.02230400
O        6.12153000       6.58646000      16.68409000  T       0.01636900      -0.00280000      -0.01672000
O        8.98781000       6.43250000      16.56034000  T      -0.01239900      -0.01002800      -0.01793400
O        8.98439000       3.56633000      16.55282000  T      -0.01051100       0.00988200      -0.01944800
C        2.35700000       5.71244000      17.26852000  T       0.00705700      -0.01077800      -0.00984500
O        2.31995000       4.97802000      18.39702000  T      -0.00011600      -0.03090200      -0.00203800
O        2.39468000       6.96660000      17.40616000  T       0.00911200      -0.01523900       0.00341100
H        2.33157000       5.61804000      19.15250000  T      -0.00651500      -0.03211100       0.00763800
108
Lattice="12.515153631 0.0 0.0 0.0 12.515153631 0.0 0.0 0.0 25.30973" Properties=species:S:1:pos:R:3:move_mask:L:1:forces:R:3 stress="0.008210767670190685 2.7531296754271056e-05 1.0329697603336792e-05 2.7531296754271056e-05 0.007827732496644356 0.00022362703047127124 1.0329697603336792e-05 0.00022362703047127124 0.002455022716556669" free_energy=-445.28394922 energy=-445.28356947 pbc="T T T"
Cu       1.25152000       1.25152000      10.00000000  F       0.00431100       0.00701700      -0.06392400
Cu       3.75455000       1.25152000      10.00000000  F       0.00276000       0.01806700      -0.07025700
Cu       6.25758000       1.25152000      10.00000000  F       0.00182800       0.01736400      -0.06551800
Cu       8.76061000       1.25152000      10.00000000  F       0.00273800      -0.00051700      -0.04829000
Cu      11.26364000       1.25152000      10.00000000  F      -0.01255600      -0.00413800      -0.07408600
Cu       1.25152000       3.75455000      10.00000000  F      -0.00293300       0.00101300      -0.06698000
Cu       3.75455000       3.75455000      10.00000000  F       0.01104800      -0.02076900      -0.04940800
Cu       6.25758000       3.75455000      10.00000000  F      -0.01637800      -0.02443800      -0.07731300
Cu       8.76061000       3.75455000      10.00000000  F       0.00723000      -0.01584700      -0.07136000
Cu      11.26364000       3.75455000      10.00000000  F       0.00544300       0.00024100      -0.05823400
Cu       1.25152000       6.25758000      10.00000000  F      -0.00502700      -0.00692500      -0.05748900
Cu       3.75455000       6.25758000      10.00000000  F       0.01290600       0.01541200      -0.04034800
Cu       6.25758000       6.25758000      10.00000000  F      -0.01634700       0.02101700      -0.07662100
Cu       8.76061000       6.25758000      10.00000000  F       0.00764300       0.01771200      -0.08273300
Cu      11.26364000       6.25758000      10.00000000  F       0.00327500      -0.00584800      -0.05135600
Cu       1.25152000       8.76061000      10.00000000  F       0.00616800       0.00801100      -0.06057600
Cu       3.75455000       8.76061000      10.00000000  F      -0.00824400      -0.01100000      -0.06053800
Cu       6.25758000       8.76061000      10.00000000  F       0.01094700      -0.01521800      -0.06448700
Cu       8.76061000       8.76061000      10.00000000  F      -0.00470800      -0.00697300      -0.04491100
Cu      11.26364000       8.76061000      10.00000000  F      -0.00460100       0.00457100      -0.07269400
Cu       1.25152000      11.26364000      10.00000000  F       0.00694900      -0.00990100      -0.02101800
Cu       3.75455000      11.26364000      10.00000000  F      -0.01355100      -0.00206600      -0.06337000
Cu       6.25758000      11.26364000      10.00000000  F       0.00966200       0.00226200      -0.06362500
Cu       8.76061000      11.26364000      10.00000000  F      -0.00206600       0.00547500      -0.07599900
Cu      11.26364000      11.26364000      10.00000000  F      -0.00308200       0.00421800      -0.04730700
Cu       0.00000000       0.00000000      11.76991000  F      -0.02250900       0.06927000       0.07890600
Cu       2.50303000       0.00000000      11.76991000  F       0.03114700       0.05525700       0.06485700
Cu       5.00606000       0.00000000      11.76991000  F       0.07397700       0.09128500       0.05878500
Cu       7.50909000       0.00000000      11.76991000  F       0.01670700       0.09203800       0.08453500
Cu      10.01212000       0.00000000      11.76991000  F      -0.05127900       0.09285600       0.08249100
Cu       0.00000000       2.50303000      11.76991000  F      -0.07262400       0.05157100       0.07506200
Cu       2.50303000       2.50303000      11.76991000  F       0.08170100       0.02624500       0.04875600
Cu       5.00606000       2.50303000      11.76991000  F      -0.02520900      -0.00556000       0.07219100
Cu       7.50909000       2.50303000      11.76991000  F      -0.01454300      -0.03163500       0.09887800
Cu      10.01212000       2.50303000      11.76991000  F       0.04051900      -0.04691000       0.06574500
Cu       0.00000000       5.00606000      11.76991000  F      -0.06830400       0.02443800       0.07035200
Cu       2.50303000       5.00606000      11.76991000  F       0.09723100       0.04607600       0.12515800
Cu       5.00606000       5.00606000      11.76991000  F      -0.09021000       0.02416100       0.16261800
Cu       7.50909000       5.00606000      11.76991000  F      -0.05296600      -0.00706800       0.10028900
Cu      10.01212000       5.00606000      11.76991000  F       0.03962400      -0.00585800       0.06278400
Cu       0.00000000       7.50909000      11.76991000  F      -0.05716000      -0.04028800       0.09479200
Cu       2.50303000       7.50909000      11.76991000  F       0.08466900      -0.03939700       0.07141900
Cu       5.00606000       7.50909000      11.76991000  F      -0.05443100       0.02276300       0.08714900
Cu       7.50909000       7.50909000      11.76991000  F      -0.01833600       0.02288300       0.07294100
Cu      10.01212000       7.50909000      11.76991000  F       0.04598400       0.04228500       0.04865200
Cu       0.00000000      10.01212000      11.76991000  F       0.01113900      -0.05563500       0.09156100
Cu       2.50303000      10.01212000      11.76991000  F       0.03392800      -0.02451700       0.04663300
Cu       5.00606000      10.01212000      11.76991000  F       0.02419400      -0.09802400       0.09200600
Cu       7.50909000      10.01212000      11.76991000  F       0.03078300      -0.07537800       0.07417000
Cu      10.01212000      10.01212000      11.76991000  F      -0.06239900      -0.06914100       0.07635900
Cu       1.26084000       1.25356000      13.57454000  T       0.00060900       0.00528300      -0.01225700
Cu       3.78626000       1.26834000      13.59796000  T       0.00641200       0.00696200      -0.00434000
Cu       6.28259000       1.27727000      13.61840000  T       0.00310400       0.00552600      -0.00412800
Cu       8.75844000       1.28016000      13.61901000  T      -0.00649100       0.00934600      -0.00028400
Cu      11.25739000       1.26339000      13.60092000  T      -0.00671000       0.00627000      -0.00450200
Cu       1.25561000       3.76906000      13.57488000  T       0.00350900       0.00476500      -0.00775600
Cu       3.74808000       3.76576000      13.61590000  T       0.00675700       0.00332600      -0.00280100
Cu       6.26475000       3.75960000      13.57473000  T       0.00313000       0.00096700      -0.00062300
Cu       8.74256000       3.76400000      13.56205000  T      -0.00102100       0.00165000       0.00365100
Cu      11.23428000       3.76087000      13.60869000  T      -0.00565900       0.00605700      -0.00341400
Cu       1.26215000       6.26493000      13.58842000  T       0.00394400      -0.00412300      -0.00535000
Cu       3.74109000       6.27138000      13.63584000  T       0.00576700      -0.00288100      -0.00094100
Cu       6.26732000       6.24766000      13.56975000  T       0.00123400      -0.00280600       0.00129600
Cu       8.74356000       6.24676000      13.55825000  T      -0.00172300      -0.00192400       0.00418200
Cu      11.23210000       6.24599000      13.60451000  T      -0.00365100      -0.00427300      -0.00390800
Cu       1.27564000       8.76632000      13.58666000  T       0.00348700      -0.00935400      -0.00619900
Cu       3.76862000       8.74682000      13.61411000  T       0.00321900      -0.01178700       0.00151700
Cu       6.28197000       8.73886000      13.60578000  T      -0.00067900      -0.00784800      -0.00309600
Cu       8.75558000       8.73351000      13.61418000  T      -0.00578300      -0.01100900       0.00022100
Cu      11.25061000       8.76017000      13.58920000  T      -0.00372400      -0.00727600      -0.00473900
Cu       1.24524000      11.27369000      13.58752000  T       0.00178900      -0.00204900      -0.01166800
Cu       3.74954000      11.27134000      13.56781000  T       0.00545200      -0.00262800      -0.01122400
Cu       6.25711000      11.26693000      13.56772000  T       0.00237700      -0.00110000      -0.00982500
Cu       8.76349000      11.26440000      13.57437000  T      -0.00561900      -0.00069100      -0.01190400
Cu      11.26951000      11.27078000      13.57823000  T      -0.00434100      -0.00117100      -0.01364300
Cu      -0.00047000       0.01198000      15.37404000  T       0.00114000       0.00069300      -0.01896200
Cu       2.51006000       0.02416000      15.36829000  T      -0.00210500      -0.00651300      -0.01808500
Cu       5.00478000      12.48161000      15.36168000  T      -0.00198600       0.00477600      -0.01548400
Cu       7.50670000      12.49252000      15.35673000  T       0.00178700       0.00867900      -0.01574400
Cu      10.01477000      12.49528000      15.36321000  T       0.00184200       0.00270800      -0.01830500
Cu       0.05303000       2.50676000      15.35282000  T      -0.00358500       0.00162700      -0.01665500
Cu       2.51586000       2.47768000      15.36103000  T       0.00703900      -0.00438700      -0.01292000
Cu       4.99372000       2.41855000      15.47569000  T      -0.00443300      -0.00506500      -0.01404700
Cu       7.54032000       2.51109000      15.48402000  T      -0.00227100       0.00537800      -0.00513600
Cu      10.09598000       2.45449000      15.45005000  T      -0.00703800       0.00308000      -0.01065500
Cu      12.47570000       5.00939000      15.34276000  T      -0.01023900       0.00013800      -0.01259800
Cu       2.40186000       4.94569000      15.48655000  T       0.00851200      -0.00727500      -0.00902400
Pd       4.99706000       5.00307000      15.49636000  T      -0.00038800      -0.00165900      -0.00909400
Y        7.48332000       4.99911000      17.24669000  T      -0.01165400      -0.00001000       0.00461900
Cu       9.97037000       5.00634000      15.45089000  T      -0.00746800      -0.00152000      -0.00173400
Cu      12.51634000       7.52904000      15.31250000  T      -0.00551400       0.00100400      -0.01200600
Cu       2.50693000       7.61380000      15.45305000  T       0.00247800      -0.00625200       0.00190600
Cu       5.03795000       7.59218000      15.44016000  T      -0.00894600       0.00400200      -0.00680800
Cu       7.55158000       7.49610000      15.48399000  T      -0.00464500      -0.00761100      -0.00121600
Cu      10.07517000       7.56150000      15.44618000  T      -0.00553800      -0.00254000      -0.01329400
Cu      12.51266000      10.01666000      15.36271000  T       0.00066500       0.00225000      -0.01600800
Cu       2.50938000      10.07797000      15.35999000  T      -0.00208700      -0.00763900      -0.01327900
Cu       5.00801000      10.04076000      15.35252000  T      -0.00144000      -0.00506500      -0.01385400
Cu       7.50521000      10.02537000      15.35267000  T       0.00172000      -0.00797400      -0.01459500
Cu      10.01356000      10.03290000      15.35952000  T       0.00120300      -0.00351200      -0.01827800
O        6.12118000       3.40441000      16.69566000  T       0.01205900      -0.00091200      -0.02334500
O        6.12058000       6.58591000      16.68414000  T       0.01228400      -0.00456800      -0.01573700
O        8.98761000       6.43301000      16.56022000  T      -0.00937000      -0.00531600      -0.02069800
O        8.98431000       3.56582000      16.55262000  T      -0.00652000       0.00468000      -0.02327800
C        2.35754000       5.71148000      17.26855000  T       0.00793900      -0.01476600      -0.00447800
O        2.32006000       4.97644000      18.39680000  T       0.00008700      -0.03529600      -0.00791700
O        2.39527000       6.96555000      17.40640000  T       0.01188500      -0.01891600       0.00525200
H        2.33105000       5.61570000      19.15299000  T      -0.00585600      -0.03191100       0.00454800
108
Lattice="12.515153631 0.0 0.0 0.0 12.515153631 0.0 0.0 0.0 25.30973" Properties=species:S:1:pos:R:3:move_mask:L:1:forces:R:3 stress="0.00814847740911437 2.7862096737942864e-05 7.964165644627038e-06 2.7862096737942864e-05 0.007767196099632414 0.00022138632869507917 7.964165644627038e-06 0.00022138632869507917 0.0023747569091978104" free_energy=-445.28394884 energy=-445.28357704 pbc="T T T"
Cu       1.25152000       1.25152000      10.00000000  F       0.00409200       0.00708700      -0.06393900
Cu       3.75455000       1.25152000      10.00000000  F       0.00269800       0.01812600      -0.07019400
Cu       6.25758000       1.25152000      10.00000000  F       0.00194700       0.01737600      -0.06560800
Cu       8.76061000       1.25152000      10.00000000  F       0.00281400      -0.00056600      -0.04844400
Cu      11.26364000       1.25152000      10.00000000  F      -0.01276200      -0.00412300      -0.07422600
Cu       1.25152000       3.75455000      10.00000000  F      -0.00314900       0.00086600      -0.06684300
Cu       3.75455000       3.75455000      10.00000000  F       0.01098600      -0.02092300      -0.04927000
Cu       6.25758000       3.75455000      10.00000000  F      -0.01628200      -0.02454200      -0.07720700
Cu       8.76061000       3.75455000      10.00000000  F       0.00725900      -0.01596200      -0.07141500
Cu      11.26364000       3.75455000      10.00000000  F       0.00527900       0.00012600      -0.05821700
Cu       1.25152000       6.25758000      10.00000000  F      -0.00524100      -0.00713800      -0.05736000
Cu       3.75455000       6.25758000      10.00000000  F       0.01284200       0.01520600      -0.04021600
Cu       6.25758000       6.25758000      10.00000000  F      -0.01621700       0.02081400      -0.07652200
Cu       8.76061000       6.25758000      10.00000000  F       0.00767000       0.01752900      -0.08280500
Cu      11.26364000       6.25758000      10.00000000  F       0.00307200      -0.00606300      -0.05137300
Cu       1.25152000       8.76061000      10.00000000  F       0.00593100       0.00775500      -0.06061600
Cu       3.75455000       8.76061000      10.00000000  F      -0.00826700      -0.01124000      -0.06052500
Cu       6.25758000       8.76061000      10.00000000  F       0.01111800      -0.01541500      -0.06456500
Cu       8.76061000       8.76061000      10.00000000  F      -0.00465100      -0.00712900      -0.04508300
Cu      11.26364000       8.76061000      10.00000000  F      -0.00486200       0.00437400      -0.07278600
Cu       1.25152000      11.26364000      10.00000000  F       0.00665400      -0.00991800      -0.02108100
Cu       3.75455000      11.26364000      10.00000000  F      -0.01357200      -0.00210000      -0.06340900
Cu       6.25758000      11.26364000      10.00000000  F       0.00983600       0.00217400      -0.06373600
Cu       8.76061000      11.26364000      10.00000000  F      -0.00199300       0.00539800      -0.07620400
Cu      11.26364000      11.26364000      10.00000000  F      -0.00335000       0.00415500      -0.04742900
Cu       0.00000000       0.00000000      11.76991000  F      -0.02278600       0.06958400       0.07548900
Cu       2.50303000       0.00000000      11.76991000  F       0.03159600       0.05549800       0.06164900
Cu       5.00606000       0.00000000      11.76991000  F       0.07421700       0.09177500       0.05553400
Cu       7.50909000       0.00000000      11.76991000  F       0.01667700       0.09261300       0.08129700
Cu      10.01212000       0.00000000      11.76991000  F      -0.05182900       0.09340500       0.07918900
Cu       0.00000000       2.50303000      11.76991000  F      -0.07285200       0.05233400       0.07197000
Cu       2.50303000       2.50303000      11.76991000  F       0.08236600       0.02696700       0.04569800
Cu       5.00606000       2.50303000      11.76991000  F      -0.02492500      -0.00489300       0.06925500
Cu       7.50909000       2.50303000      11.76991000  F      -0.01449300      -0.03102300       0.09618300
Cu      10.01212000       2.50303000      11.76991000  F       0.03982700      -0.04636100       0.06271200
Cu       0.00000000       5.00606000      11.76991000  F      -0.06835300       0.02451400       0.06801200
Cu       2.50303000       5.00606000      11.76991000  F       0.09808800       0.04620000       0.12264200
Cu       5.00606000       5.00606000      11.76991000  F      -0.09018100       0.02425000       0.16070200
Cu       7.50909000       5.00606000      11.76991000  F      -0.05289600      -0.00715100       0.09851900
Cu      10.01212000       5.00606000      11.76991000  F       0.03871900      -0.00598500       0.06034300
Cu       0.00000000       7.50909000      11.76991000  F      -0.05698300      -0.04112500       0.09233900
Cu       2.50303000       7.50909000      11.76991000  F       0.08532900      -0.04019200       0.06867000
Cu       5.00606000       7.50909000      11.76991000  F      -0.05452900       0.02185600       0.08481300
Cu       7.50909000       7.50909000      11.76991000  F      -0.01843100       0.02192600       0.07025000
Cu      10.01212000       7.50909000      11.76991000  F       0.04526100       0.04146600       0.04557800
Cu       0.00000000      10.01212000      11.76991000  F       0.01115100      -0.05658800       0.08862700
Cu       2.50303000      10.01212000      11.76991000  F       0.03426300      -0.02551700       0.04391400
Cu       5.00606000      10.01212000      11.76991000  F       0.02416500      -0.09918100       0.08910000
Cu       7.50909000      10.01212000      11.76991000  F       0.03066400      -0.07633700       0.07101300
Cu      10.01212000      10.01212000      11.76991000  F      -0.06292100      -0.06990400       0.07308300
Cu       1.26087000       1.25373000      13.57367000  T       0.00046400       0.00473200      -0.01013800
Cu       3.78643000       1.26852000      13.59727000  T       0.00580400       0.00635100      -0.00325900
Cu       6.28263000       1.27737000      13.61781000  T       0.00301900       0.00557700      -0.00295800
Cu       8.75833000       1.28035000      13.61844000  T      -0.00647600       0.00944300       0.00122300
Cu      11.25728000       1.26357000      13.60015000  T      -0.00684600       0.00603000      -0.00279000
Cu       1.25581000       3.76920000      13.57427000  T       0.00314800       0.00439500      -0.00601300
Cu       3.74822000       3.76588000      13.61553000  T       0.00623900       0.00280900      -0.00281100
Cu       6.26479000       3.75956000      13.57435000  T       0.00350500       0.00137600      -0.00058200
Cu       8.74256000       3.76403000      13.56187000  T      -0.00145900       0.00205700       0.00318900
Cu      11.23416000       3.76091000      13.60810000  T      -0.00595600       0.00630200      -0.00180200
Cu       1.26242000       6.26484000      13.58795000  T       0.00337400      -0.00430100      -0.00374500
Cu       3.74120000       6.27134000      13.63563000  T       0.00522500      -0.00315100      -0.00098300
Cu       6.26735000       6.24766000      13.56946000  T       0.00147400      -0.00344300       0.00123200
Cu       8.74351000       6.24675000      13.55809000  T      -0.00209600      -0.00284600       0.00374300
Cu      11.23197000       6.24596000      13.60392000  T      -0.00381100      -0.00491400      -0.00210200
Cu       1.27581000       8.76600000      13.58609000  T       0.00301700      -0.00911900      -0.00488500
Cu       3.76867000       8.74649000      13.61372000  T       0.00277800      -0.01160700       0.00224700
Cu       6.28191000       8.73863000      13.60523000  T      -0.00050800      -0.00795800      -0.00162700
Cu       8.75547000       8.73326000      13.61358000  T      -0.00621700      -0.01104900       0.00189600
Cu      11.25053000       8.75997000      13.58848000  T      -0.00360700      -0.00707300      -0.00321000
Cu       1.24530000      11.27360000      13.58662000  T       0.00140400      -0.00209000      -0.00967800
Cu       3.74971000      11.27124000      13.56704000  T       0.00486400      -0.00279900      -0.00935000
Cu       6.25713000      11.26688000      13.56696000  T       0.00224000      -0.00108100      -0.00769700
Cu       8.76335000      11.26438000      13.57356000  T      -0.00537100      -0.00084300      -0.01010700
Cu      11.26939000      11.27076000      13.57736000  T      -0.00363900      -0.00123700      -0.01205500
Cu      -0.00053000       0.01215000      15.37253000  T       0.00111900       0.00028700      -0.01643000
Cu       2.51009000       0.02404000      15.36671000  T      -0.00256900      -0.00698300      -0.01496600
Cu       5.00483000      12.48163000      15.36062000  T      -0.00207400       0.00431800      -0.01348500
Cu       7.50670000      12.49262000      15.35562000  T       0.00189900       0.00870100      -0.01325100
Cu      10.01471000      12.49522000      15.36192000  T       0.00204900       0.00308500      -0.01551200
Cu       0.05307000       2.50692000      15.35174000  T      -0.00403800       0.00123100      -0.01466200
Cu       2.51600000       2.47761000      15.36009000  T       0.00617100      -0.00489100      -0.01111800
Cu       4.99391000       2.41855000      15.47498000  T      -0.00608400      -0.00624900      -0.01330700
Cu       7.54002000       2.51179000      15.48369000  T      -0.00087900       0.00060000      -0.00691600
Cu      10.09584000       2.45457000      15.44930000  T      -0.00538900       0.00131100      -0.01012400
Cu      12.47559000       5.00944000      15.34159000  T      -0.01002400      -0.00012200      -0.01001600
Cu       2.40211000       4.94548000      15.48638000  T       0.00692800      -0.00761300      -0.01000700
Pd       4.99736000       5.00299000      15.49571000  T      -0.00433100      -0.00073100      -0.00317100
Y        7.48334000       4.99906000      17.24588000  T      -0.01047900      -0.00042300       0.01080900
Cu       9.96971000       5.00633000      15.45076000  T      -0.00315400      -0.00154400      -0.00359300
Cu      12.51633000       7.52894000      15.31157000  T      -0.00596300       0.00106600      -0.00996800
Cu       2.50690000       7.61331000      15.45301000  T       0.00219800      -0.00559900       0.00254200
Cu       5.03806000       7.59204000      15.43977000  T      -0.01036500       0.00489800      -0.00603100
Cu       7.55118000       7.49538000      15.48387000  T      -0.00342500      -0.00343900      -0.00299400
Cu      10.07496000       7.56133000      15.44537000  T      -0.00427100      -0.00125600      -0.01234300
Cu      12.51260000      10.01663000      15.36131000  T       0.00057800       0.00251300      -0.01324400
Cu       2.50941000      10.07763000      15.35879000  T      -0.00234800      -0.00746400      -0.01104400
Cu       5.00809000      10.04063000      15.35156000  T      -0.00163500      -0.00445500      -0.01194200
Cu       7.50520000      10.02517000      15.35160000  T       0.00194100      -0.00790800      -0.01244500
Cu      10.01348000      10.03283000      15.35825000  T       0.00146500      -0.00372500      -0.01579300
O        6.12083000       3.40461000      16.69519000  T       0.01463200      -0.00399100      -0.02192300
O        6.12009000       6.58551000      16.68402000  T       0.01570500      -0.00070200      -0.01682600
O        8.98742000       6.43330000      16.55994000  T      -0.00846400      -0.00833400      -0.01958000
O        8.98422000       3.56552000      16.55225000  T      -0.00628400       0.00743200      -0.02140000
C        2.35795000       5.71072000      17.26857000  T       0.00781100      -0.01671400      -0.00388000
O        2.32013000       4.97510000      18.39656000  T       0.00008300      -0.02219500      -0.00565200
O        2.39577000       6.96470000      17.40662000  T       0.01117200      -0.01426200       0.00540100
H        2.33067000       5.61395000      19.15332000  T      -0.00554100      -0.03640400      -0.00237300
108
Lattice="12.515153631 0.0 0.0 0.0 12.515153631 0.0 0.0 0.0 25.30973" Properties=species:S:1:pos:R:3:move_mask:L:1:forces:R:3 stress="0.008108319539398437 2.827403634025116e-05 6.147886488995009e-06 2.827403634025116e-05 0.007728224116650399 0.00021985091745011187 6.147886488995009e-06 0.00021985091745011187 0.0023196256590888834" free_energy=-445.28490499 energy=-445.28454617 pbc="T T T"
Cu       1.25152000       1.25152000      10.00000000  F       0.00425500       0.00729300      -0.06390000
Cu       3.75455000       1.25152000      10.00000000  F       0.00268500       0.01829600      -0.07001800
Cu       6.25758000       1.25152000      10.00000000  F       0.00172000       0.01753600      -0.06551000
Cu       8.76061000       1.25152000      10.00000000  F       0.00262000      -0.00039000      -0.04847700
Cu      11.26364000       1.25152000      10.00000000  F      -0.01276000      -0.00394500      -0.07435300
Cu       1.25152000       3.75455000      10.00000000  F      -0.00301700       0.00098100      -0.06675500
Cu       3.75455000       3.75455000      10.00000000  F       0.01094400      -0.02083300      -0.04898200
Cu       6.25758000       3.75455000      10.00000000  F      -0.01648600      -0.02442700      -0.07694000
Cu       8.76061000       3.75455000      10.00000000  F       0.00705700      -0.01585500      -0.07139500
Cu      11.26364000       3.75455000      10.00000000  F       0.00529900       0.00024800      -0.05830300
Cu       1.25152000       6.25758000      10.00000000  F      -0.00509300      -0.00728700      -0.05723700
Cu       3.75455000       6.25758000      10.00000000  F       0.01277600       0.01507200      -0.03993900
Cu       6.25758000       6.25758000      10.00000000  F      -0.01642300       0.02063900      -0.07621400
Cu       8.76061000       6.25758000      10.00000000  F       0.00748100       0.01736700      -0.08272200
Cu      11.26364000       6.25758000      10.00000000  F       0.00308700      -0.00621400      -0.05138600
Cu       1.25152000       8.76061000      10.00000000  F       0.00607400       0.00748900      -0.06049900
Cu       3.75455000       8.76061000      10.00000000  F      -0.00829500      -0.01146200      -0.06029800
Cu       6.25758000       8.76061000      10.00000000  F       0.01089800      -0.01560600      -0.06434200
Cu       8.76061000       8.76061000      10.00000000  F      -0.00481400      -0.00734300      -0.04504800
Cu      11.26364000       8.76061000      10.00000000  F      -0.00487000       0.00415200      -0.07275300
Cu       1.25152000      11.26364000      10.00000000  F       0.00675300      -0.00994700      -0.02099000
Cu       3.75455000      11.26364000      10.00000000  F      -0.01356000      -0.00213800      -0.06319300
Cu       6.25758000      11.26364000      10.00000000  F       0.00959900       0.00212300      -0.06355300
Cu       8.76061000      11.26364000      10.00000000  F      -0.00217200       0.00535200      -0.07619300
Cu      11.26364000      11.26364000      10.00000000  F      -0.00334700       0.00409500      -0.04746400
Cu       0.00000000       0.00000000      11.76991000  F      -0.02292600       0.07002400       0.07201100
Cu       2.50303000       0.00000000      11.76991000  F       0.03229100       0.05575700       0.05844400
Cu       5.00606000       0.00000000      11.76991000  F       0.07442900       0.09232900       0.05235000
Cu       7.50909000       0.00000000      11.76991000  F       0.01641600       0.09338700       0.07812000
Cu      10.01212000       0.00000000      11.76991000  F      -0.05252100       0.09417800       0.07596800
Cu       0.00000000       2.50303000      11.76991000  F      -0.07304800       0.05330300       0.06903600
Cu       2.50303000       2.50303000      11.76991000  F       0.08325300       0.02784600       0.04267000
Cu       5.00606000       2.50303000      11.76991000  F      -0.02463500      -0.00406600       0.06636900
Cu       7.50909000       2.50303000      11.76991000  F      -0.01450100      -0.03021600       0.09360300
Cu      10.01212000       2.50303000      11.76991000  F       0.03899100      -0.04560300       0.05983000
Cu       0.00000000       5.00606000      11.76991000  F      -0.06833300       0.02475600       0.06585700
Cu       2.50303000       5.00606000      11.76991000  F       0.09911000       0.04653600       0.12013900
Cu       5.00606000       5.00606000      11.76991000  F      -0.09011400       0.02450400       0.15898700
Cu       7.50909000       5.00606000      11.76991000  F      -0.05285000      -0.00707900       0.09701100
Cu      10.01212000       5.00606000      11.76991000  F       0.03765200      -0.00596900       0.05809300
Cu       0.00000000       7.50909000      11.76991000  F      -0.05664900      -0.04192900       0.09007200
Cu       2.50303000       7.50909000      11.76991000  F       0.08621200      -0.04093800       0.06599300
Cu       5.00606000       7.50909000      11.76991000  F      -0.05472100       0.02101800       0.08263500
Cu       7.50909000       7.50909000      11.76991000  F      -0.01868000       0.02093300       0.06780400
Cu      10.01212000       7.50909000      11.76991000  F       0.04443900       0.04061900       0.04272800
Cu       0.00000000      10.01212000      11.76991000  F       0.01142500      -0.05771700       0.08570900
Cu       2.50303000      10.01212000      11.76991000  F       0.03480300      -0.02668000       0.04123500
Cu       5.00606000      10.01212000      11.76991000  F       0.02401600      -0.10050200       0.08634000
Cu       7.50909000      10.01212000      11.76991000  F       0.03026900      -0.07748500       0.06799200
Cu      10.01212000      10.01212000      11.76991000  F      -0.06356000      -0.07083200       0.06989900
Cu       1.26091000       1.25395000      13.57269000  T       0.00042300       0.00401200      -0.00766200
Cu       3.78665000       1.26876000      13.59655000  T       0.00482700       0.00507800      -0.00238400
Cu       6.28271000       1.27753000      13.61719000  T       0.00250900       0.00531300      -0.00203200
Cu       8.75816000       1.28064000      13.61788000  T      -0.00621700       0.00896100       0.00207100
Cu      11.25711000       1.26381000      13.59935000  T      -0.00654800       0.00558800      -0.00133100
Cu       1.25604000       3.76938000      13.57360000  T       0.00288200       0.00385200      -0.00391000
Cu       3.74842000       3.76604000      13.61513000  T       0.00554800       0.00244300      -0.00294300
Cu       6.26486000       3.75953000      13.57394000  T       0.00348400       0.00198000      -0.00049500
Cu       8.74254000       3.76409000      13.56171000  T      -0.00203300       0.00267000       0.00241100
Cu      11.23398000       3.76103000      13.60749000  T      -0.00580000       0.00611800      -0.00065000
Cu       1.26273000       6.26471000      13.58744000  T       0.00289000      -0.00419200      -0.00180600
Cu       3.74137000       6.27126000      13.63540000  T       0.00447300      -0.00336400      -0.00106800
Cu       6.26740000       6.24761000      13.56916000  T       0.00143700      -0.00389300       0.00117300
Cu       8.74344000       6.24671000      13.55796000  T      -0.00264600      -0.00369700       0.00305100
Cu      11.23180000       6.24586000      13.60330000  T      -0.00369300      -0.00486100      -0.00078600
Cu       1.27601000       8.76559000      13.58548000  T       0.00259300      -0.00855200      -0.00324100
Cu       3.76874000       8.74604000      13.61335000  T       0.00208100      -0.01071500       0.00257700
Cu       6.28184000       8.73832000      13.60466000  T      -0.00070500      -0.00764800      -0.00023500
Cu       8.75528000       8.73290000      13.61300000  T      -0.00641500      -0.01044600       0.00308100
Cu      11.25041000       8.75970000      13.58772000  T      -0.00326600      -0.00632600      -0.00185400
Cu       1.24536000      11.27347000      13.58563000  T       0.00121200      -0.00207400      -0.00739700
Cu       3.74992000      11.27110000      13.56618000  T       0.00405200      -0.00309200      -0.00712300
Cu       6.25717000      11.26680000      13.56612000  T       0.00190800      -0.00106100      -0.00507700
Cu       8.76317000      11.26435000      13.57264000  T      -0.00502600      -0.00100500      -0.00765400
Cu      11.26923000      11.27073000      13.57635000  T      -0.00285800      -0.00121800      -0.00983900
Cu      -0.00057000       0.01232000      15.37083000  T       0.00149600      -0.00008400      -0.01439500
Cu       2.51010000       0.02385000      15.36496000  T      -0.00260200      -0.00732400      -0.01230500
Cu       5.00486000      12.48169000      15.35941000  T      -0.00220400       0.00326900      -0.01201300
Cu       7.50672000      12.49281000      15.35438000  T       0.00155500       0.00793200      -0.01105400
Cu      10.01466000      12.49518000      15.36046000  T       0.00205300       0.00295000      -0.01311500
Cu       0.05307000       2.50710000      15.35050000  T      -0.00370000       0.00117400      -0.01303700
Cu       2.51619000       2.47748000      15.35904000  T       0.00494300      -0.00534000      -0.00961200
Cu       4.99403000       2.41849000      15.47413000  T      -0.00703900      -0.00624400      -0.01240400
Cu       7.53972000       2.51247000      15.48326000  T       0.00009100      -0.00325500      -0.00903800
Cu      10.09567000       2.45464000      15.44845000  T      -0.00407600       0.00008700      -0.00946100
Cu      12.47538000       5.00949000      15.34031000  T      -0.00854300      -0.00008300      -0.00729500
Cu       2.40243000       4.94519000      15.48611000  T       0.00469500      -0.00771500      -0.01037400
Pd       4.99759000       5.00290000      15.49507000  T      -0.00289400      -0.00055800      -0.00330700
Y        7.48327000       4.99900000      17.24522000  T      -0.00806700      -0.00085100       0.01277800
Cu       9.96904000       5.00630000      15.45057000  T       0.00073600      -0.00135300      -0.00587700
Cu      12.51625000       7.52885000      15.31054000  T      -0.00557800       0.00105400      -0.00805500
Cu       2.50688000       7.61276000      15.45299000  T       0.00158200      -0.00545100       0.00282900
Cu       5.03806000       7.59196000      15.43930000  T      -0.01094300       0.00481700      -0.00512500
Cu       7.55075000       7.49464000      15.48371000  T      -0.00222600       0.00024500      -0.00544200
Cu      10.07471000       7.56115000      15.44443000  T      -0.00366900      -0.00058900      -0.01092600
Cu      12.51255000      10.01662000      15.35977000  T       0.00090900       0.00257300      -0.01103300
Cu       2.50941000      10.07722000      15.35747000  T      -0.00217700      -0.00729000      -0.00920700
Cu       5.00816000      10.04046000      15.35046000  T      -0.00190100      -0.00331400      -0.01054900
Cu       7.50522000      10.02488000      15.35040000  T       0.00155900      -0.00709700      -0.01049400
Cu      10.01341000      10.03273000      15.35681000  T       0.00154400      -0.00351600      -0.01346500
O        6.12064000       3.40475000      16.69451000  T       0.01520300      -0.00533500      -0.01916900
O        6.11977000       6.58514000      16.68373000  T       0.01598300       0.00152100      -0.01575500
O        8.98714000       6.43349000      16.55946000  T      -0.00825200      -0.00975800      -0.01730700
O        8.98407000       3.56531000      16.55168000  T      -0.00664400       0.00887500      -0.01851900
C        2.35844000       5.70976000      17.26855000  T       0.00746700      -0.01381700      -0.00211600
O        2.32020000       4.97363000      18.39627000  T      -0.00070000      -0.02177300      -0.00775900
O        2.39638000       6.96372000      17.40689000  T       0.01011400      -0.01588100       0.00517800
H        2.33024000       5.61175000      19.15356000  T      -0.00500900      -0.03311500      -0.00188900
108
Lattice="12.515153631 0.0 0.0 0.0 12.515153631 0.0 0.0 0.0 25.30973" Properties=species:S:1:pos:R:3:move_mask:L:1:forces:R:3 stress="0.008014696902510188 2.8704700469937108e-05 -3.120754562941629e-07 2.8704700469937108e-05 0.007636667419282817 0.00021231741593517078 -3.120754562941629e-07 0.00021231741593517078 0.0021801716206892737" free_energy=-445.28574586 energy=-445.28542102 pbc="T T T"
Cu       1.25152000       1.25152000      10.00000000  F       0.00522800       0.00701700      -0.06325300
Cu       3.75455000       1.25152000      10.00000000  F       0.00297300       0.01803800      -0.06868800
Cu       6.25758000       1.25152000      10.00000000  F       0.00089400       0.01737800      -0.06428700
Cu       8.76061000       1.25152000      10.00000000  F       0.00185400      -0.00044500      -0.04781300
Cu      11.26364000       1.25152000      10.00000000  F      -0.01248600      -0.00408000      -0.07421000
Cu       1.25152000       3.75455000      10.00000000  F      -0.00220400       0.00094100      -0.06649900
Cu       3.75455000       3.75455000      10.00000000  F       0.01125900      -0.02101700      -0.04799700
Cu       6.25758000       3.75455000      10.00000000  F      -0.01712300      -0.02441800      -0.07561800
Cu       8.76061000       3.75455000      10.00000000  F       0.00624600      -0.01578200      -0.07090500
Cu      11.26364000       3.75455000      10.00000000  F       0.00549900       0.00035500      -0.05836700
Cu       1.25152000       6.25758000      10.00000000  F      -0.00428500      -0.00677000      -0.05695200
Cu       3.75455000       6.25758000      10.00000000  F       0.01295100       0.01555800      -0.03894300
Cu       6.25758000       6.25758000      10.00000000  F      -0.01704000       0.02084100      -0.07488500
Cu       8.76061000       6.25758000      10.00000000  F       0.00678400       0.01755700      -0.08223600
Cu      11.26364000       6.25758000      10.00000000  F       0.00328400      -0.00588300      -0.05138100
Cu       1.25152000       8.76061000      10.00000000  F       0.00697700       0.00791700      -0.05976300
Cu       3.75455000       8.76061000      10.00000000  F      -0.00815500      -0.01096900      -0.05900700
Cu       6.25758000       8.76061000      10.00000000  F       0.01008700      -0.01513400      -0.06305700
Cu       8.76061000       8.76061000      10.00000000  F      -0.00540500      -0.00699700      -0.04448200
Cu      11.26364000       8.76061000      10.00000000  F      -0.00458700       0.00450000      -0.07233700
Cu       1.25152000      11.26364000      10.00000000  F       0.00761600      -0.00982400      -0.02003700
Cu       3.75455000      11.26364000      10.00000000  F      -0.01335200      -0.00195100      -0.06163600
Cu       6.25758000      11.26364000      10.00000000  F       0.00866500       0.00229600      -0.06210300
Cu       8.76061000      11.26364000      10.00000000  F      -0.00287800       0.00549700      -0.07543500
Cu      11.26364000      11.26364000      10.00000000  F      -0.00292500       0.00416800      -0.04700400
Cu       0.00000000       0.00000000      11.76991000  F      -0.02249800       0.07102200       0.06298800
Cu       2.50303000       0.00000000      11.76991000  F       0.03504100       0.05624800       0.05030600
Cu       5.00606000       0.00000000      11.76991000  F       0.07499200       0.09376900       0.04481800
Cu       7.50909000       0.00000000      11.76991000  F       0.01493900       0.09558100       0.07070100
Cu      10.01212000       0.00000000      11.76991000  F      -0.05467300       0.09622500       0.06793500
Cu       0.00000000       2.50303000      11.76991000  F      -0.07299300       0.05550600       0.06159600
Cu       2.50303000       2.50303000      11.76991000  F       0.08656100       0.02961300       0.03525300
Cu       5.00606000       2.50303000      11.76991000  F      -0.02357100      -0.00224400       0.06012100
Cu       7.50909000       2.50303000      11.76991000  F      -0.01533200      -0.02824300       0.08796000
Cu      10.01212000       2.50303000      11.76991000  F       0.03635000      -0.04375500       0.05289000
Cu       0.00000000       5.00606000      11.76991000  F      -0.06783200       0.02564800       0.06065700
Cu       2.50303000       5.00606000      11.76991000  F       0.10275400       0.04758000       0.11441500
Cu       5.00606000       5.00606000      11.76991000  F      -0.08954900       0.02516800       0.15601400
Cu       7.50909000       5.00606000      11.76991000  F      -0.05339600      -0.00686500       0.09415300
Cu      10.01212000       5.00606000      11.76991000  F       0.03436300      -0.00572100       0.05281100
Cu       0.00000000       7.50909000      11.76991000  F      -0.05523200      -0.04327300       0.08454100
Cu       2.50303000       7.50909000      11.76991000  F       0.08928500      -0.04205900       0.05965800
Cu       5.00606000       7.50909000      11.76991000  F      -0.05502300       0.01944600       0.07829600
Cu       7.50909000       7.50909000      11.76991000  F      -0.01996300       0.01880100       0.06266300
Cu      10.01212000       7.50909000      11.76991000  F       0.04196400       0.03894800       0.03603900
Cu       0.00000000      10.01212000      11.76991000  F       0.01288800      -0.06018400       0.07824300
Cu       2.50303000      10.01212000      11.76991000  F       0.03703100      -0.02907100       0.03464700
Cu       5.00606000      10.01212000      11.76991000  F       0.02363300      -0.10328500       0.08000200
Cu       7.50909000      10.01212000      11.76991000  F       0.02852400      -0.07999100       0.06096800
Cu      10.01212000      10.01212000      11.76991000  F      -0.06550100      -0.07285000       0.06205200
Cu       1.26101000       1.25455000      13.57010000  T       0.00165300       0.00183000      -0.00190700
Cu       3.78726000       1.26942000      13.59463000  T       0.00310600       0.00156200      -0.00063700
Cu       6.28291000       1.27799000      13.61555000  T       0.00031500       0.00455600       0.00014700
Cu       8.75765000       1.28147000      13.61643000  T      -0.00625200       0.00723400       0.00348800
Cu      11.25658000       1.26449000      13.59724000  T      -0.00530800       0.00385900       0.00140000
Cu       1.25667000       3.76988000      13.57185000  T       0.00278600       0.00205700       0.00098500
Cu       3.74900000       3.76646000      13.61403000  T       0.00521200       0.00135500      -0.00240600
Cu       6.26508000       3.75951000      13.57287000  T       0.00248700       0.00363500       0.00100400
Cu       8.74246000       3.76427000      13.56129000  T      -0.00479600       0.00409500       0.00043400
Cu      11.23344000       3.76138000      13.60590000  T      -0.00514900       0.00538300       0.00173100
Cu       1.26356000       6.26433000      13.58613000  T       0.00245200      -0.00315500       0.00307900
Cu       3.74182000       6.27101000      13.63479000  T       0.00389500      -0.00360100      -0.00053400
Cu       6.26753000       6.24743000      13.56839000  T       0.00031500      -0.00484200       0.00236800
Cu       8.74321000       6.24653000      13.55762000  T      -0.00499100      -0.00521500       0.00142200
Cu      11.23131000       6.24557000      13.60168000  T      -0.00342700      -0.00368600       0.00207800
Cu       1.27656000       8.76442000      13.58386000  T       0.00233300      -0.00601900       0.00033100
Cu       3.76893000       8.74478000      13.61239000  T       0.00094300      -0.00764300       0.00298400
Cu       6.28164000       8.73744000      13.60320000  T      -0.00173800      -0.00622500       0.00311900
Cu       8.75473000       8.73186000      13.61152000  T      -0.00742200      -0.00808100       0.00538400
Cu      11.25008000       8.75893000      13.58571000  T      -0.00221400      -0.00382900       0.00068900
Cu       1.24554000      11.27313000      13.58298000  T       0.00193500      -0.00209100      -0.00259400
Cu       3.75049000      11.27069000      13.56389000  T       0.00263500      -0.00323900      -0.00162500
Cu       6.25729000      11.26661000      13.56391000  T       0.00048100      -0.00052800       0.00165200
Cu       8.76264000      11.26426000      13.57021000  T      -0.00507600      -0.00093800      -0.00149900
Cu      11.26882000      11.27062000      13.57366000  T      -0.00067900      -0.00090100      -0.00445100
Cu      -0.00066000       0.01277000      15.36625000  T       0.00288000      -0.00100800      -0.01044900
Cu       2.51010000       0.02326000      15.36029000  T      -0.00091200      -0.00817600      -0.00700200
Cu       5.00492000      12.48185000      15.35614000  T      -0.00186400       0.00131100      -0.00938200
Cu       7.50678000      12.49337000      15.35103000  T      -0.00030400       0.00614400      -0.00666900
Cu      10.01457000      12.49511000      15.35655000  T       0.00101300       0.00266100      -0.00791900
Cu       0.05305000       2.50759000      15.34714000  T      -0.00237900       0.00113100      -0.00925900
Cu       2.51673000       2.47708000      15.35619000  T       0.00384000      -0.00615400      -0.00642100
Cu       4.99425000       2.41825000      15.47178000  T      -0.00696500      -0.00373100      -0.00950400
Cu       7.53894000       2.51413000      15.48200000  T       0.00100700      -0.01134500      -0.01365200
Cu      10.09520000       2.45482000      15.44610000  T      -0.00278800      -0.00172700      -0.00715500
Cu      12.47477000       5.00961000      15.33694000  T      -0.00403700       0.00046100      -0.00042600
Cu       2.40326000       4.94434000      15.48527000  T       0.00099400      -0.00675300      -0.01086700
Pd       4.99820000       5.00268000      15.49334000  T       0.00060400      -0.00123100      -0.00917200
Y        7.48307000       4.99882000      17.24362000  T      -0.00741800      -0.00070000       0.02005000
Cu       9.96738000       5.00622000      15.44995000  T       0.00895400      -0.00051700      -0.01118500
Cu      12.51599000       7.52862000      15.30777000  T      -0.00380600       0.00131500      -0.00339700
Cu       2.50684000       7.61124000      15.45299000  T       0.00150700      -0.00538000       0.00351000
Cu       5.03794000       7.59178000      15.43805000  T      -0.01107800       0.00351000      -0.00214000
Cu       7.54961000       7.49279000      15.48316000  T      -0.00080300       0.00874500      -0.01132000
Cu      10.07403000       7.56070000      15.44185000  T      -0.00360800       0.00040100      -0.00701500
Cu      12.51241000      10.01662000      15.35564000  T       0.00247600       0.00270100      -0.00612300
Cu       2.50940000      10.07605000      15.35392000  T      -0.00042600      -0.00728800      -0.00524400
Cu       5.00831000      10.04000000      15.34749000  T      -0.00199600      -0.00069100      -0.00765300
Cu       7.50527000      10.02407000      15.34715000  T      -0.00034900      -0.00494000      -0.00652500
Cu      10.01325000      10.03241000      15.35292000  T       0.00087200      -0.00306000      -0.00860500
O        6.12029000       3.40504000      16.69259000  T       0.01118000      -0.00654700      -0.01713100
O        6.11908000       6.58421000      16.68283000  T       0.01117600       0.00444200      -0.01561500
O        8.98635000       6.43386000      16.55810000  T      -0.00852200      -0.01067800      -0.01263100
O        8.98361000       3.56488000      16.55007000  T      -0.00789300       0.01021400      -0.01265600
C        2.35982000       5.70716000      17.26852000  T       0.00735200      -0.01403600      -0.00066100
O        2.32036000       4.96954000      18.39540000  T      -0.00130100      -0.03223300      -0.01250800
O        2.39807000       6.96096000      17.40766000  T       0.00996600      -0.02162900       0.00570400
H        2.32905000       5.60570000      19.15421000  T      -0.00350800      -0.02558900      -0.00045300
108
Lattice="12.515153631 0.0 0.0 0.0 12.515153631 0.0 0.0 0.0 25.30973" Properties=species:S:1:pos:R:3:move_mask:L:1:forces:R:3 stress="0.008059698183307807 2.8904428761965365e-05 4.200535641719432e-06 2.8904428761965365e-05 0.007683385115090053 0.00021211768764314252 4.200535641719432e-06 0.00021211768764314252 0.0022214092714839847" free_energy=-445.28576542 energy=-445.28544536 pbc="T T T"
Cu       1.25152000       1.25152000      10.00000000  F       0.00412300       0.00702000      -0.06316300
Cu       3.75455000       1.25152000      10.00000000  F       0.00268200       0.01805100      -0.06951200
Cu       6.25758000       1.25152000      10.00000000  F       0.00167100       0.01725700      -0.06497700
Cu       8.76061000       1.25152000      10.00000000  F       0.00256700      -0.00063600      -0.04751600
Cu      11.26364000       1.25152000      10.00000000  F      -0.01286400      -0.00418300      -0.07341700
Cu       1.25152000       3.75455000      10.00000000  F      -0.00318800       0.00098400      -0.06633600
Cu       3.75455000       3.75455000      10.00000000  F       0.01093300      -0.02090600      -0.04869100
Cu       6.25758000       3.75455000      10.00000000  F      -0.01649900      -0.02435500      -0.07639000
Cu       8.76061000       3.75455000      10.00000000  F       0.00695800      -0.01580600      -0.07070700
Cu      11.26364000       3.75455000      10.00000000  F       0.00518700       0.00027700      -0.05759200
Cu       1.25152000       6.25758000      10.00000000  F      -0.00523100      -0.00678900      -0.05679300
Cu       3.75455000       6.25758000      10.00000000  F       0.01270700       0.01560000      -0.03952800
Cu       6.25758000       6.25758000      10.00000000  F      -0.01641000       0.02100700      -0.07555000
Cu       8.76061000       6.25758000      10.00000000  F       0.00741800       0.01773200      -0.08197900
Cu      11.26364000       6.25758000      10.00000000  F       0.00292900      -0.00578100      -0.05065100
Cu       1.25152000       8.76061000      10.00000000  F       0.00596700       0.00787800      -0.05967200
Cu       3.75455000       8.76061000      10.00000000  F      -0.00832300      -0.01105600      -0.05967300
Cu       6.25758000       8.76061000      10.00000000  F       0.01084600      -0.01513700      -0.06356000
Cu       8.76061000       8.76061000      10.00000000  F      -0.00480200      -0.00687200      -0.04409000
Cu      11.26364000       8.76061000      10.00000000  F      -0.00506300       0.00458200      -0.07157300
Cu       1.25152000      11.26364000      10.00000000  F       0.00655200      -0.00986100      -0.02003900
Cu       3.75455000      11.26364000      10.00000000  F      -0.01356600      -0.00207000      -0.06239600
Cu       6.25758000      11.26364000      10.00000000  F       0.00954800       0.00215700      -0.06269500
Cu       8.76061000      11.26364000      10.00000000  F      -0.00224700       0.00537700      -0.07507800
Cu      11.26364000      11.26364000      10.00000000  F      -0.00340100       0.00412600      -0.04630700
Cu       0.00000000       0.00000000      11.76991000  F      -0.02377300       0.07090700       0.06494800
Cu       2.50303000       0.00000000      11.76991000  F       0.03360700       0.05614200       0.05188300
Cu       5.00606000       0.00000000      11.76991000  F       0.07531700       0.09340000       0.04599200
Cu       7.50909000       0.00000000      11.76991000  F       0.01644100       0.09519400       0.07197800
Cu      10.01212000       0.00000000      11.76991000  F      -0.05417500       0.09593800       0.06978600
Cu       0.00000000       2.50303000      11.76991000  F      -0.07415600       0.05520400       0.06335000
Cu       2.50303000       2.50303000      11.76991000  F       0.08504200       0.02946900       0.03649300
Cu       5.00606000       2.50303000      11.76991000  F      -0.02344700      -0.00251000       0.06058600
Cu       7.50909000       2.50303000      11.76991000  F      -0.01386800      -0.02859700       0.08867000
Cu      10.01212000       2.50303000      11.76991000  F       0.03704200      -0.04415900       0.05441600
Cu       0.00000000       5.00606000      11.76991000  F      -0.06891000       0.02556500       0.06208900
Cu       2.50303000       5.00606000      11.76991000  F       0.10123700       0.04754400       0.11517500
Cu       5.00606000       5.00606000      11.76991000  F      -0.08942300       0.02529800       0.15592200
Cu       7.50909000       5.00606000      11.76991000  F      -0.05200600      -0.00669900       0.09439500
Cu      10.01212000       5.00606000      11.76991000  F       0.03500000      -0.00567600       0.05391500
Cu       0.00000000       7.50909000      11.76991000  F      -0.05643800      -0.04304600       0.08602000
Cu       2.50303000       7.50909000      11.76991000  F       0.08794800      -0.04196700       0.06076900
Cu       5.00606000       7.50909000      11.76991000  F      -0.05469100       0.01980400       0.07865700
Cu       7.50909000       7.50909000      11.76991000  F      -0.01861100       0.01927900       0.06341100
Cu      10.01212000       7.50909000      11.76991000  F       0.04242000       0.03938700       0.03749000
Cu       0.00000000      10.01212000      11.76991000  F       0.01157100      -0.05998100       0.08002200
Cu       2.50303000      10.01212000      11.76991000  F       0.03576400      -0.02898900       0.03607200
Cu       5.00606000      10.01212000      11.76991000  F       0.02408600      -0.10319000       0.08113400
Cu       7.50909000      10.01212000      11.76991000  F       0.02991800      -0.07990800       0.06224900
Cu      10.01212000      10.01212000      11.76991000  F      -0.06511700      -0.07267600       0.06383700
Cu       1.26102000       1.25452000      13.57029000  T      -0.00047300       0.00182000      -0.00273500
Cu       3.78724000       1.26938000      13.59478000  T       0.00197700       0.00128600      -0.00155800
Cu       6.28290000       1.27800000      13.61568000  T       0.00151600       0.00336400      -0.00092700
Cu       8.75763000       1.28147000      13.61658000  T      -0.00377200       0.00607900       0.00245600
Cu      11.25657000       1.26448000      13.59742000  T      -0.00498000       0.00345400       0.00033000
Cu       1.25665000       3.76986000      13.57200000  T       0.00090600       0.00195300       0.00019100
Cu       3.74900000       3.76644000      13.61409000  T       0.00339200       0.00092900      -0.00279600
Cu       6.26509000       3.75954000      13.57297000  T       0.00383200       0.00228800       0.00008400
Cu       8.74242000       3.76429000      13.56133000  T      -0.00210000       0.00321800       0.00148000
Cu      11.23344000       3.76141000      13.60604000  T      -0.00469800       0.00417800       0.00101100
Cu       1.26351000       6.26433000      13.58626000  T       0.00097800      -0.00277600       0.00250600
Cu       3.74182000       6.27099000      13.63483000  T       0.00219500      -0.00254000      -0.00058300
Cu       6.26752000       6.24739000      13.56848000  T       0.00188900      -0.00326600       0.00147300
Cu       8.74318000       6.24650000      13.55766000  T      -0.00259100      -0.00406100       0.00221900
Cu      11.23131000       6.24556000      13.60183000  T      -0.00326300      -0.00281700       0.00122500
Cu       1.27654000       8.76446000      13.58399000  T       0.00078300      -0.00590100       0.00018300
Cu       3.76893000       8.74480000      13.61250000  T      -0.00005400      -0.00704700       0.00246600
Cu       6.28164000       8.73745000      13.60334000  T      -0.00065300      -0.00528800       0.00162800
Cu       8.75470000       8.73187000      13.61169000  T      -0.00496800      -0.00707700       0.00381300
Cu      11.25008000       8.75896000      13.58588000  T      -0.00239500      -0.00347700      -0.00011000
Cu       1.24555000      11.27314000      13.58317000  T       0.00022200      -0.00214700      -0.00328200
Cu       3.75047000      11.27069000      13.56406000  T       0.00193300      -0.00325200      -0.00251500
Cu       6.25729000      11.26662000      13.56410000  T       0.00181200      -0.00082900       0.00018600
Cu       8.76263000      11.26426000      13.57039000  T      -0.00319500      -0.00090800      -0.00243200
Cu      11.26885000      11.27062000      13.57383000  T      -0.00156900      -0.00078300      -0.00471100
Cu      -0.00063000       0.01273000      15.36651000  T       0.00122900      -0.00039700      -0.01285500
Cu       2.51009000       0.02323000      15.36060000  T      -0.00217600      -0.00779600      -0.00901500
Cu       5.00490000      12.48185000      15.35631000  T      -0.00151800       0.00057300      -0.00910800
Cu       7.50677000      12.49339000      15.35123000  T       0.00121000       0.00473600      -0.00771300
Cu      10.01458000      12.49514000      15.35678000  T       0.00142900       0.00178800      -0.01025300
Cu       0.05303000       2.50756000      15.34732000  T      -0.00308000       0.00119400      -0.01050800
Cu       2.51672000       2.47706000      15.35635000  T       0.00165400      -0.00605100      -0.00658300
Cu       4.99417000       2.41823000      15.47187000  T      -0.00586200      -0.00425000      -0.00840800
Cu       7.53901000       2.51389000      15.48198000  T       0.00176900      -0.00730900      -0.01040100
Cu      10.09521000       2.45479000      15.44622000  T      -0.00335400      -0.00019300      -0.00661600
Cu      12.47477000       5.00960000      15.33720000  T      -0.00489700       0.00041700      -0.00304900
Cu       2.40320000       4.94434000      15.48523000  T      -0.00011700      -0.00646800      -0.00778400
Pd       4.99815000       5.00269000      15.49339000  T       0.00378800      -0.00187500      -0.01240900
Y        7.48301000       4.99883000      17.24394000  T      -0.00635100      -0.00212500       0.01418900
Cu       9.96759000       5.00622000      15.44989000  T       0.00482600      -0.00063800      -0.00744500
Cu      12.51597000       7.52865000      15.30796000  T      -0.00456900       0.00106700      -0.00495400
Cu       2.50686000       7.61131000      15.45302000  T      -0.00058800      -0.00587600       0.00430000
Cu       5.03784000       7.59183000      15.43813000  T      -0.00954000       0.00358800      -0.00146700
Cu       7.54969000       7.49302000      15.48310000  T      -0.00036700       0.00501700      -0.00793200
Cu      10.07405000       7.56074000      15.44199000  T      -0.00407800      -0.00096500      -0.00689500
Cu      12.51244000      10.01665000      15.35591000  T       0.00088400       0.00242700      -0.00881100
Cu       2.50940000      10.07608000      15.35415000  T      -0.00169900      -0.00704800      -0.00652400
Cu       5.00828000      10.04003000      15.34766000  T      -0.00150800      -0.00051000      -0.00750900
Cu       7.50527000      10.02409000      15.34735000  T       0.00118500      -0.00410900      -0.00749600
Cu      10.01327000      10.03241000      15.35314000  T       0.00118300      -0.00250800      -0.01078000
O        6.12043000       3.40495000      16.69258000  T       0.01142300      -0.00678100      -0.01441300
O        6.11925000       6.58433000      16.68275000  T       0.01158800       0.00494200      -0.01327400
O        8.98633000       6.43373000      16.55809000  T      -0.00488000      -0.00862900      -0.01480200
O        8.98357000       3.56502000      16.55007000  T      -0.00414500       0.00810200      -0.01500500
C        2.35978000       5.70723000      17.26852000  T       0.00687000      -0.01783800      -0.00169000
O        2.32033000       4.96957000      18.39535000  T      -0.00113300      -0.02276600      -0.00624900
O        2.39803000       6.96098000      17.40765000  T       0.00890000      -0.01892500       0.00511900
H        2.32911000       5.60594000      19.15415000  T      -0.00407200      -0.03151300      -0.00463800
108
Lattice="12.515153631 0.0 0.0 0.0 12.515153631 0.0 0.0 0.0 25.30973" Properties=species:S:1:pos:R:3:move_mask:L:1:forces:R:3 stress="0.008043601331272153 2.8898187252839486e-05 3.0084073986757305e-06 2.8898187252839486e-05 0.0076672695385270224 0.00021206151406100957 3.0084073986757305e-06 0.00021206151406100957 0.002198921114103427" free_energy=-445.30512592 energy=-445.30479987 pbc="T T T"
Cu       1.25152000       1.25152000      10.00000000  F       0.00419600       0.00727500      -0.06366900
Cu       3.75455000       1.25152000      10.00000000  F       0.00264100       0.01816100      -0.06972900
Cu       6.25758000       1.25152000      10.00000000  F       0.00151600       0.01733200      -0.06525700
Cu       8.76061000       1.25152000      10.00000000  F       0.00252000      -0.00044100      -0.04812500
Cu      11.26364000       1.25152000      10.00000000  F      -0.01278500      -0.00393400      -0.07414200
Cu       1.25152000       3.75455000      10.00000000  F      -0.00336600       0.00137400      -0.06645400
Cu       3.75455000       3.75455000      10.00000000  F       0.01073300      -0.02075500      -0.04880500
Cu       6.25758000       3.75455000      10.00000000  F      -0.01655300      -0.02424800      -0.07659100
Cu       8.76061000       3.75455000      10.00000000  F       0.00717400      -0.01541100      -0.07108200
Cu      11.26364000       3.75455000      10.00000000  F       0.00530100       0.00054700      -0.05769500
Cu       1.25152000       6.25758000      10.00000000  F      -0.00527300      -0.00711800      -0.05649000
Cu       3.75455000       6.25758000      10.00000000  F       0.01249500       0.01527100      -0.03965600
Cu       6.25758000       6.25758000      10.00000000  F      -0.01642500       0.02070000      -0.07573200
Cu       8.76061000       6.25758000      10.00000000  F       0.00749800       0.01742000      -0.08204400
Cu      11.26364000       6.25758000      10.00000000  F       0.00304800      -0.00613900      -0.04956100
Cu       1.25152000       8.76061000      10.00000000  F       0.00578000       0.00699300      -0.06000500
Cu       3.75455000       8.76061000      10.00000000  F      -0.00849400      -0.01168300      -0.05993400
Cu       6.25758000       8.76061000      10.00000000  F       0.01080200      -0.01571500      -0.06381500
Cu       8.76061000       8.76061000      10.00000000  F      -0.00458900      -0.00773200      -0.04455000
Cu      11.26364000       8.76061000      10.00000000  F      -0.00497400       0.00383700      -0.07179300
Cu       1.25152000      11.26364000      10.00000000  F       0.00663400      -0.01027100      -0.02059200
Cu       3.75455000      11.26364000      10.00000000  F      -0.01357700      -0.00237300      -0.06270100
Cu       6.25758000      11.26364000      10.00000000  F       0.00938000       0.00186000      -0.06302900
Cu       8.76061000      11.26364000      10.00000000  F      -0.00229400       0.00496300      -0.07573300
Cu      11.26364000      11.26364000      10.00000000  F      -0.00335300       0.00367500      -0.04705200
Cu       0.00000000       0.00000000      11.76991000  F      -0.02352100       0.07091000       0.06415100
Cu       2.50303000       0.00000000      11.76991000  F       0.03389900       0.05608800       0.05106500
Cu       5.00606000       0.00000000      11.76991000  F       0.07525300       0.09331300       0.04516600
Cu       7.50909000       0.00000000      11.76991000  F       0.01604600       0.09508000       0.07101500
Cu      10.01212000       0.00000000      11.76991000  F      -0.05443500       0.09595800       0.06889200
Cu       0.00000000       2.50303000      11.76991000  F      -0.07387900       0.05517800       0.06266200
Cu       2.50303000       2.50303000      11.76991000  F       0.08530800       0.02956600       0.03566300
Cu       5.00606000       2.50303000      11.76991000  F      -0.02352000      -0.00238600       0.05965300
Cu       7.50909000       2.50303000      11.76991000  F      -0.01429400      -0.02847000       0.08757800
Cu      10.01212000       2.50303000      11.76991000  F       0.03682900      -0.04423300       0.05352600
Cu       0.00000000       5.00606000      11.76991000  F      -0.06849700       0.02534600       0.06118700
Cu       2.50303000       5.00606000      11.76991000  F       0.10162100       0.04735400       0.11437800
Cu       5.00606000       5.00606000      11.76991000  F      -0.08948600       0.02512200       0.15494800
Cu       7.50909000       5.00606000      11.76991000  F      -0.05266800      -0.00688500       0.09324300
Cu      10.01212000       5.00606000      11.76991000  F       0.03481400      -0.00587000       0.05283300
Cu       0.00000000       7.50909000      11.76991000  F      -0.05611200      -0.04358500       0.08521000
Cu       2.50303000       7.50909000      11.76991000  F       0.08840000      -0.04249800       0.05996400
Cu       5.00606000       7.50909000      11.76991000  F      -0.05476900       0.01929900       0.07779100
Cu       7.50909000       7.50909000      11.76991000  F      -0.01925900       0.01880600       0.06247000
Cu      10.01212000       7.50909000      11.76991000  F       0.04216000       0.03895500       0.03662100
Cu       0.00000000      10.01212000      11.76991000  F       0.01189300      -0.06026400       0.07924000
Cu       2.50303000      10.01212000      11.76991000  F       0.03605700      -0.02949600       0.03526200
Cu       5.00606000      10.01212000      11.76991000  F       0.02402300      -0.10367800       0.08033500
Cu       7.50909000      10.01212000      11.76991000  F       0.02947700      -0.08031600       0.06134700
Cu      10.01212000      10.01212000      11.76991000  F      -0.06542500      -0.07301900       0.06300700
Cu       1.26101000       1.25453000      13.57035000  T       0.00022100       0.00141400      -0.00286100
Cu       3.78725000       1.26938000      13.59483000  T       0.00153800       0.00085500      -0.00203300
Cu       6.28291000       1.27803000      13.61573000  T       0.00050400       0.00279000      -0.00168100
Cu       8.75759000       1.28153000      13.61667000  T      -0.00344100       0.00483500       0.00082000
Cu      11.25652000       1.26450000      13.59751000  T      -0.00385500       0.00285100      -0.00054200
Cu       1.25664000       3.76987000      13.57206000  T       0.00111000       0.00141500      -0.00078100
Cu       3.74903000       3.76644000      13.61409000  T       0.00275400       0.00057600      -0.00327100
Cu       6.26513000       3.75958000      13.57301000  T       0.00244700       0.00192300      -0.00100200
Cu       8.74239000       3.76433000      13.56137000  T      -0.00230200       0.00270400      -0.00046100
Cu      11.23339000       3.76145000      13.60612000  T      -0.00351700       0.00334600      -0.00022000
Cu       1.26350000       6.26431000      13.58634000  T       0.00112300      -0.00256300       0.00108300
Cu       3.74183000       6.27097000      13.63484000  T       0.00180900      -0.00263300      -0.00166300
Cu       6.26754000       6.24736000      13.56853000  T       0.00082900      -0.00302700       0.00006100
Cu       8.74315000       6.24645000      13.55771000  T      -0.00273700      -0.00377700       0.00016400
Cu      11.23128000       6.24553000      13.60191000  T      -0.00234600      -0.00252600      -0.00021000
Cu       1.27653000       8.76442000      13.58405000  T       0.00098600      -0.00523900      -0.00080500
Cu       3.76892000       8.74475000      13.61257000  T      -0.00005600      -0.00609800       0.00092400
Cu       6.28164000       8.73741000      13.60342000  T      -0.00118200      -0.00473600       0.00044800
Cu       8.75465000       8.73181000      13.61180000  T      -0.00433700      -0.00611000       0.00186000
Cu      11.25006000       8.75894000      13.58595000  T      -0.00181500      -0.00315500      -0.00101200
Cu       1.24554000      11.27312000      13.58322000  T       0.00077300      -0.00200900      -0.00331900
Cu       3.75048000      11.27066000      13.56411000  T       0.00154000      -0.00289300      -0.00274300
Cu       6.25731000      11.26661000      13.56418000  T       0.00085400      -0.00088300      -0.00059700
Cu       8.76261000      11.26425000      13.57044000  T      -0.00287700      -0.00098800      -0.00268100
Cu      11.26884000      11.27061000      13.57386000  T      -0.00098300      -0.00084700      -0.00452000
Cu      -0.00061000       0.01270000      15.36650000  T       0.00138500      -0.00046100      -0.00913700
Cu       2.51006000       0.02314000      15.36065000  T      -0.00143100      -0.00644300      -0.00640200
Cu       5.00487000      12.48185000      15.35631000  T      -0.00146700       0.00037200      -0.00718400
Cu       7.50679000      12.49343000      15.35125000  T       0.00046400       0.00343300      -0.00556000
Cu      10.01461000      12.49517000      15.35678000  T       0.00108900       0.00130700      -0.00708000
Cu       0.05299000       2.50756000      15.34730000  T      -0.00216600       0.00088900      -0.00777500
Cu       2.51672000       2.47698000      15.35637000  T       0.00138700      -0.00507800      -0.00532300
Cu       4.99407000       2.41818000      15.47184000  T      -0.00500600      -0.00308100      -0.00695500
Cu       7.53907000       2.51373000      15.48188000  T       0.00110800      -0.00691000      -0.00903800
Cu      10.09518000       2.45478000      15.44622000  T      -0.00223700      -0.00069900      -0.00513700
Cu      12.47473000       5.00960000      15.33728000  T      -0.00315500       0.00014100      -0.00166000
Cu       2.40317000       4.94428000      15.48515000  T       0.00007800      -0.00559800      -0.00747300
Pd       4.99818000       5.00267000      15.49329000  T      -0.00009000      -0.00087500      -0.00575400
Y        7.48293000       4.99880000      17.24420000  T      -0.00538100      -0.00188100       0.00916300
Cu       9.96772000       5.00621000      15.44981000  T       0.00497700      -0.00066200      -0.00689700
Cu      12.51592000       7.52867000      15.30799000  T      -0.00326700       0.00053100      -0.00330500
Cu       2.50685000       7.61129000      15.45308000  T      -0.00041800      -0.00506200       0.00315500
Cu       5.03771000       7.59189000      15.43816000  T      -0.00804700       0.00230700      -0.00136700
Cu       7.54973000       7.49316000      15.48301000  T      -0.00066100       0.00461400      -0.00730000
Cu      10.07401000       7.56075000      15.44198000  T      -0.00286400      -0.00062100      -0.00538000
Cu      12.51246000      10.01668000      15.35594000  T       0.00112400       0.00163700      -0.00589600
Cu       2.50937000      10.07602000      15.35419000  T      -0.00106800      -0.00614500      -0.00461600
Cu       5.00825000      10.04003000      15.34766000  T      -0.00152600      -0.00055800      -0.00581600
Cu       7.50528000      10.02406000      15.34736000  T       0.00043000      -0.00316900      -0.00535400
Cu      10.01329000      10.03239000      15.35314000  T       0.00093900      -0.00221200      -0.00758100
O        6.12061000       3.40485000      16.69244000  T       0.01117300      -0.00594200      -0.01229500
O        6.11944000       6.58443000      16.68259000  T       0.01161700       0.00394700      -0.01150100
O        8.98629000       6.43359000      16.55793000  T      -0.00590900      -0.00979500      -0.01098600
O        8.98353000       3.56515000      16.54992000  T      -0.00520800       0.00881700      -0.01106200
C        2.35983000       5.70708000      17.26850000  T       0.00644500      -0.01586300      -0.00280200
O        2.32031000       4.96941000      18.39530000  T      -0.00124400      -0.02158200      -0.00614500
O        2.39809000       6.96082000      17.40770000  T       0.00798200      -0.01492900       0.00515200
H        2.32909000       5.60572000      19.15406000  T      -0.00404000      -0.02952600      -0.00262600
