108
Lattice="12.515153631 0.0 0.0 0.0 12.515153631 0.0 0.0 0.0 25.30973" Properties=species:S:1:pos:R:3:move_mask:L:1:forces:R:3 stress="0.008131463055237213 -2.9366300437280732e-05 -4.525094116265362e-05 -2.9366300437280732e-05 0.008053250704380769 0.000649329160402139 -4.525094116265362e-05 0.000649329160402139 0.00282195479655822" free_energy=-444.5382159 energy=-444.53589909 pbc="T T T"
Cu       1.25152000       1.25152000      10.00000000  F      -0.00092000      -0.01844300      -0.07775400
Cu       3.75455000       1.25152000      10.00000000  F       0.00853900       0.00081900      -0.07143600
Cu       6.25758000       1.25152000      10.00000000  F      -0.01460000       0.01257000      -0.04688400
Cu       8.76061000       1.25152000      10.00000000  F       0.01236100       0.00455500      -0.04033900
Cu      11.26364000       1.25152000      10.00000000  F      -0.00713500      -0.00233600      -0.07375600
Cu       1.25152000       3.75455000      10.00000000  F      -0.00111800       0.00132900      -0.06679100
Cu       3.75455000       3.75455000      10.00000000  F       0.01895500      -0.00641100      -0.05905200
Cu       6.25758000       3.75455000      10.00000000  F      -0.02149700      -0.00868400      -0.07952500
Cu       8.76061000       3.75455000      10.00000000  F       0.02195100      -0.00535300      -0.07779200
Cu      11.26364000       3.75455000      10.00000000  F      -0.01701900       0.00802900      -0.05752900
Cu       1.25152000       6.25758000      10.00000000  F      -0.00203600       0.00069100      -0.07475300
Cu       3.75455000       6.25758000      10.00000000  F       0.01872000       0.01566000      -0.06657600
Cu       6.25758000       6.25758000      10.00000000  F      -0.02050400       0.01512600      -0.08905900
Cu       8.76061000       6.25758000      10.00000000  F       0.02130000       0.01571900      -0.08352800
Cu      11.26364000       6.25758000      10.00000000  F      -0.01567500       0.00261800      -0.07107600
Cu       1.25152000       8.76061000      10.00000000  F      -0.00207200       0.00680200      -0.07646300
Cu       3.75455000       8.76061000      10.00000000  F       0.00254900      -0.01785100      -0.06901700
Cu       6.25758000       8.76061000      10.00000000  F      -0.00567800      -0.02263800      -0.05834900
Cu       8.76061000       8.76061000      10.00000000  F       0.00828500      -0.01710700      -0.05246100
Cu      11.26364000       8.76061000      10.00000000  F      -0.00462400      -0.01625500      -0.07160900
Cu       1.25152000      11.26364000      10.00000000  F      -0.00454800       0.00423300      -0.01390000
Cu       3.75455000      11.26364000      10.00000000  F      -0.00777600       0.00606100      -0.06948400
Cu       6.25758000      11.26364000      10.00000000  F       0.00398100       0.00916800      -0.06844000
Cu       8.76061000      11.26364000      10.00000000  F      -0.00696500       0.00556900      -0.07066700
Cu      11.26364000      11.26364000      10.00000000  F       0.01341500       0.00648700      -0.06885500
Cu       0.00000000       0.00000000      11.76991000  F      -0.02093400       0.04292300       0.11534500
Cu       2.50303000       0.00000000      11.76991000  F       0.03486600       0.01593100       0.09743600
Cu       5.00606000       0.00000000      11.76991000  F       0.06610200       0.06834400       0.11927800
Cu       7.50909000       0.00000000      11.76991000  F       0.01254600       0.06556900       0.09210500
Cu      10.01212000       0.00000000      11.76991000  F      -0.05364400       0.06860500       0.13716500
Cu       0.00000000       2.50303000      11.76991000  F      -0.08962600       0.02383400       0.08002300
Cu       2.50303000       2.50303000      11.76991000  F       0.06636300       0.03015500       0.08009000
Cu       5.00606000       2.50303000      11.76991000  F       0.01776000      -0.01298100       0.14537800
Cu       7.50909000       2.50303000      11.76991000  F      -0.02165400      -0.00405100       0.24350100
Cu      10.01212000       2.50303000      11.76991000  F      -0.00199000      -0.01958000       0.13217400
Cu       0.00000000       5.00606000      11.76991000  F      -0.07385600       0.03753000       0.05936600
Cu       2.50303000       5.00606000      11.76991000  F       0.03813900       0.01337300       0.06751800
Cu       5.00606000       5.00606000      11.76991000  F       0.01551200      -0.02595300       0.17259700
Cu       7.50909000       5.00606000      11.76991000  F      -0.05490600      -0.02874100       0.21074500
Cu      10.01212000       5.00606000      11.76991000  F      -0.02567200      -0.01577300       0.12938400
Cu       0.00000000       7.50909000      11.76991000  F      -0.06220000      -0.00148500       0.10184400
Cu       2.50303000       7.50909000      11.76991000  F       0.05040700       0.04328400       0.06094600
Cu       5.00606000       7.50909000      11.76991000  F      -0.00555700       0.06645800       0.07886200
Cu       7.50909000       7.50909000      11.76991000  F      -0.04038000       0.03756100       0.10765800
Cu      10.01212000       7.50909000      11.76991000  F       0.06157800       0.08945900       0.04821300
Cu       0.00000000      10.01212000      11.76991000  F      -0.00500300      -0.04086200       0.12953100
Cu       2.50303000      10.01212000      11.76991000  F       0.03284900      -0.04289600       0.13355400
Cu       5.00606000      10.01212000      11.76991000  F       0.08663200      -0.03629900       0.15789700
Cu       7.50909000      10.01212000      11.76991000  F       0.01754800      -0.03046000       0.13745400
Cu      10.01212000      10.01212000      11.76991000  F      -0.06976900      -0.02919800       0.16306800
Cu       1.25889000       1.23706000      13.58130000  T      -0.00339300      -0.02082200      -0.00709500
Cu       3.77290000       1.26982000      13.59821000  T      -0.00787300      -0.00360500      -0.01480000
Cu       6.29114000       1.26689000      13.63296000  T       0.00447100      -0.00444700       0.00195400
Cu       8.74638000       1.27009000      13.63075000  T      -0.00008200      -0.00961100       0.00180900
Cu      11.25945000       1.27709000      13.60172000  T       0.01390000      -0.01391600      -0.01615900
Cu       1.23644000       3.74656000      13.56782000  T       0.00309500       0.00052100      -0.00843300
Cu       3.75581000       3.77370000      13.60120000  T      -0.01567400       0.00326600      -0.00617500
Cu       6.27595000       3.75742000      13.61039000  T       0.00347600      -0.01138800      -0.03207200
Cu       8.72491000       3.75944000      13.60283000  T      -0.00966600      -0.01603800      -0.03506300
Cu      11.22773000       3.78502000      13.60012000  T      -0.00370900       0.00281000      -0.00168100
Cu       1.24286000       6.26011000      13.57470000  T      -0.00373200       0.00280700      -0.00339800
Cu       3.75261000       6.28961000      13.58402000  T      -0.01785500       0.02473100      -0.01200800
Cu       6.26673000       6.24985000      13.58627000  T      -0.00555900       0.00761300      -0.05790200
Cu       8.73985000       6.25917000      13.55803000  T       0.00748700       0.00035200      -0.05691100
Cu      11.23792000       6.28226000      13.60446000  T      -0.00713600       0.00874700       0.00656800
Cu       1.26576000       8.76312000      13.59374000  T      -0.00031300       0.01748700      -0.00212100
Cu       3.78709000       8.76567000      13.62057000  T      -0.01094500       0.00930200      -0.01671700
Cu       6.28049000       8.73462000      13.61659000  T      -0.00596400       0.00015100       0.00009400
Cu       8.76322000       8.73832000      13.61713000  T       0.00236100       0.00039000       0.00324700
Cu      11.26165000       8.76510000      13.61295000  T       0.01479000       0.00842900      -0.01022700
Cu       1.25156000      11.25555000      13.60942000  T      -0.00935300      -0.00387800      -0.01104300
Cu       3.74655000      11.27032000      13.58242000  T      -0.01631700       0.00399000      -0.00362400
Cu       6.26848000      11.28138000      13.59555000  T       0.00027000      -0.00272500      -0.00216200
Cu       8.75086000      11.28210000      13.59967000  T      -0.00061900      -0.00530700       0.00351100
Cu      11.27278000      11.27246000      13.58302000  T       0.02156200       0.00491200      -0.00042700
Cu       0.01123000       0.00019000      15.39911000  T      -0.01196200       0.00835000      -0.09037400
Cu       2.50196000       0.00014000      15.39535000  T       0.00436900      -0.00202100      -0.08444200
Cu       4.97606000       0.01952000      15.36389000  T       0.00795400       0.01593100      -0.05194900
Cu       7.51166000      12.41814000      15.49569000  T      -0.00291000      -0.01320500      -0.05281700
Cu      10.05181000       0.01700000      15.36373000  T      -0.01151500       0.01495200      -0.06095600
Cu       0.04563000       2.49798000      15.36722000  T       0.00833100       0.00583800      -0.04900500
Cu       2.49388000       2.49802000      15.36654000  T      -0.00562600       0.01032600      -0.05030900
Cu       4.95130000       2.48318000      15.42391000  T      -0.04416200      -0.06606300      -0.09462600
Cu       7.53564000       2.36297000      15.61769000  T       0.00550600      -0.01015200      -0.03864800
Cu      10.10452000       2.49756000      15.42408000  T       0.04453000      -0.05850600      -0.08505900
Cu      12.48805000       5.00268000      15.34923000  T      -0.00111200       0.00529000      -0.05606900
Cu       2.38771000       4.99912000      15.37151000  T      -0.01728100      -0.01138600      -0.04794200
Pd       4.87904000       5.11290000      15.52319000  T      -0.01434400       0.01860700      -0.07405400
Y        7.51552000       4.98653000      17.26363000  T      -0.00214700      -0.06871200       0.09608900
Cu      10.01046000       5.13322000      15.42778000  T       0.09418100       0.05035800      -0.13496700
Cu       0.05202000       7.50555000      15.38220000  T       0.00798200      -0.01921500      -0.05429800
Cu       2.53717000       7.49124000      15.38186000  T      -0.00003500      -0.02088700      -0.05681300
Cu       5.01649000       7.66355000      15.51369000  T      -0.03926200       0.06646600      -0.08807400
Cu       7.54576000       7.48670000      15.50139000  T       0.01170400       0.08680200      -0.15065200
Cu      10.08855000       7.62335000      15.48452000  T       0.05080500       0.04656200      -0.07956600
Cu      12.51093000      10.00191000      15.40232000  T      -0.00451200       0.00019400      -0.08555900
Cu       2.51020000       9.99790000      15.40195000  T      -0.00115300      -0.00120000      -0.08316100
Cu       5.00933000      10.09492000      15.37783000  T       0.01912700       0.01352000      -0.03706000
Cu       7.50603000       9.98487000      15.36272000  T      -0.00044800      -0.01933900      -0.06683900
Cu      10.01187000      10.07598000      15.37319000  T      -0.01754500       0.01626500      -0.04440600
O        6.03325000       3.62580000      16.50530000  T       0.01847900      -0.03407900       0.02347500
O        6.15007000       6.61018000      16.67102000  T      -0.09894200      -0.03692000       0.13686900
O        8.96262000       6.52383000      16.57720000  T       0.10254300       0.02875500       0.12327200
O        9.02874000       3.75963000      16.36902000  T      -0.04433400      -0.12159200       0.02152700
C        7.59212000       1.52566000      17.42427000  T       0.02660300       0.29530300       0.42059700
O        7.66301000       2.57895000      18.44434000  T      -0.01141800      -0.40919600      -0.56235500
O        7.50348000       0.37634000      17.84430000  T       0.00289100       0.04725200       0.09892900
H        7.57603000       2.11900000      19.30250000  T      -0.00252400      -0.15717300       0.29403700
108
Lattice="12.515153631 0.0 0.0 0.0 12.515153631 0.0 0.0 0.0 25.30973" Properties=species:S:1:pos:R:3:move_mask:L:1:forces:R:3 stress="0.00812173254250996 -3.2518262545851775e-05 -5.876380842019087e-05 -3.2518262545851775e-05 0.007864101770320877 0.0005024726921792317 -5.876380842019087e-05 0.0005024726921792317 0.0027326450424759565" free_energy=-444.56785546 energy=-444.56564932 pbc="T T T"
Cu       1.25152000       1.25152000      10.00000000  F      -0.00071100      -0.01857000      -0.07880100
Cu       3.75455000       1.25152000      10.00000000  F       0.00791600       0.00059000      -0.07224600
Cu       6.25758000       1.25152000      10.00000000  F      -0.01452900       0.01237400      -0.04770200
Cu       8.76061000       1.25152000      10.00000000  F       0.01196700       0.00448800      -0.04031900
Cu      11.26364000       1.25152000      10.00000000  F      -0.00602400      -0.00272900      -0.07419400
Cu       1.25152000       3.75455000      10.00000000  F      -0.00088000       0.00071000      -0.06798700
Cu       3.75455000       3.75455000      10.00000000  F       0.01875500      -0.00632900      -0.05960900
Cu       6.25758000       3.75455000      10.00000000  F      -0.02145200      -0.00848600      -0.08094600
Cu       8.76061000       3.75455000      10.00000000  F       0.02174400      -0.00508200      -0.07935400
Cu      11.26364000       3.75455000      10.00000000  F      -0.01641300       0.00821900      -0.05739800
Cu       1.25152000       6.25758000      10.00000000  F      -0.00168800       0.00044800      -0.07580600
Cu       3.75455000       6.25758000      10.00000000  F       0.01872300       0.01506800      -0.06781700
Cu       6.25758000       6.25758000      10.00000000  F      -0.02078900       0.01460800      -0.09033600
Cu       8.76061000       6.25758000      10.00000000  F       0.02142500       0.01518600      -0.08476500
Cu      11.26364000       6.25758000      10.00000000  F      -0.01540300       0.00182400      -0.07152600
Cu       1.25152000       8.76061000      10.00000000  F      -0.00166700       0.00742500      -0.07748300
Cu       3.75455000       8.76061000      10.00000000  F       0.00224400      -0.01744300      -0.07020400
Cu       6.25758000       8.76061000      10.00000000  F      -0.00609300      -0.02255400      -0.05932700
Cu       8.76061000       8.76061000      10.00000000  F       0.00826000      -0.01708300      -0.05271400
Cu      11.26364000       8.76061000      10.00000000  F      -0.00394300      -0.01555900      -0.07193000
Cu       1.25152000      11.26364000      10.00000000  F      -0.00448600       0.00410400      -0.01605000
Cu       3.75455000      11.26364000      10.00000000  F      -0.00820100       0.00617300      -0.07053400
Cu       6.25758000      11.26364000      10.00000000  F       0.00344000       0.00955900      -0.06921000
Cu       8.76061000      11.26364000      10.00000000  F      -0.00665000       0.00588900      -0.07087800
Cu      11.26364000      11.26364000      10.00000000  F       0.01432500       0.00660200      -0.06987500
Cu       0.00000000       0.00000000      11.76991000  F      -0.02022800       0.04195800       0.10602900
Cu       2.50303000       0.00000000      11.76991000  F       0.03442400       0.01497400       0.08973600
Cu       5.00606000       0.00000000      11.76991000  F       0.06667000       0.06785100       0.11611700
Cu       7.50909000       0.00000000      11.76991000  F       0.01282900       0.06449000       0.08867100
Cu      10.01212000       0.00000000      11.76991000  F      -0.05405900       0.06710200       0.13462500
Cu       0.00000000       2.50303000      11.76991000  F      -0.08897800       0.02449400       0.07576900
Cu       2.50303000       2.50303000      11.76991000  F       0.06537400       0.02978300       0.07459900
Cu       5.00606000       2.50303000      11.76991000  F       0.01731100      -0.01490600       0.14220200
Cu       7.50909000       2.50303000      11.76991000  F      -0.02216500      -0.00834700       0.23663100
Cu      10.01212000       2.50303000      11.76991000  F      -0.00129700      -0.02212300       0.12964400
Cu       0.00000000       5.00606000      11.76991000  F      -0.07445600       0.03800300       0.05664700
Cu       2.50303000       5.00606000      11.76991000  F       0.03738600       0.01435100       0.06263800
Cu       5.00606000       5.00606000      11.76991000  F       0.01136400      -0.02731900       0.16658100
Cu       7.50909000       5.00606000      11.76991000  F      -0.05588400      -0.03145000       0.19929700
Cu      10.01212000       5.00606000      11.76991000  F      -0.02205000      -0.01789600       0.12256200
Cu       0.00000000       7.50909000      11.76991000  F      -0.06109300      -0.00151200       0.09765700
Cu       2.50303000       7.50909000      11.76991000  F       0.04730000       0.04446000       0.05445400
Cu       5.00606000       7.50909000      11.76991000  F      -0.00751200       0.07002400       0.07007100
Cu       7.50909000       7.50909000      11.76991000  F      -0.04057400       0.04301400       0.09741200
Cu      10.01212000       7.50909000      11.76991000  F       0.06454300       0.09332600       0.04124300
Cu       0.00000000      10.01212000      11.76991000  F      -0.00458300      -0.04044400       0.12156000
Cu       2.50303000      10.01212000      11.76991000  F       0.03256900      -0.04149800       0.12597000
Cu       5.00606000      10.01212000      11.76991000  F       0.08657100      -0.03488000       0.15336900
Cu       7.50909000      10.01212000      11.76991000  F       0.01783100      -0.03016900       0.13479300
Cu      10.01212000      10.01212000      11.76991000  F      -0.06949300      -0.02783900       0.16083600
Cu       1.25874000       1.23591000      13.58051000  T      -0.00084200      -0.00809300      -0.01874400
Cu       3.77234000       1.26956000      13.59681000  T      -0.00718100      -0.00251300      -0.02698300
Cu       6.29158000       1.26657000      13.63291000  T       0.00855800      -0.00415200      -0.00615600
Cu       8.74620000       1.26946000      13.63068000  T      -0.00458400      -0.00726200      -0.00686000
Cu      11.26037000       1.27627000      13.60023000  T       0.01033800      -0.00714900      -0.02860500
Cu       1.23659000       3.74651000      13.56694000  T      -0.00051400      -0.00237500      -0.01960600
Cu       3.75490000       3.77399000      13.60051000  T      -0.00788800       0.00503100      -0.01488700
Cu       6.27603000       3.75675000      13.60836000  T      -0.00161800      -0.00647400      -0.02209200
Cu       8.72435000       3.75846000      13.60068000  T      -0.00452200      -0.01040500      -0.02164000
Cu      11.22752000       3.78514000      13.59965000  T      -0.00130900       0.00045400      -0.01505400
Cu       1.24262000       6.26031000      13.57412000  T      -0.00328400       0.00207300      -0.01718300
Cu       3.75157000       6.29105000      13.58297000  T      -0.00910200       0.01242900      -0.01879800
Cu       6.26635000       6.25028000      13.58273000  T      -0.00410400       0.00343500      -0.03626200
Cu       8.74022000       6.25913000      13.55455000  T       0.00290600      -0.00206100      -0.03500300
Cu      11.23766000       6.28296000      13.60424000  T       0.00065900       0.01036600      -0.01704400
Cu       1.26578000       8.76405000      13.59328000  T       0.00025100       0.00575400      -0.01477800
Cu       3.78642000       8.76638000      13.61915000  T      -0.00640500       0.01025300      -0.02447800
Cu       6.28004000       8.73468000      13.61614000  T      -0.00601900       0.00162100      -0.01673300
Cu       8.76348000       8.73836000      13.61687000  T       0.00594200       0.00054400      -0.01478700
Cu      11.26256000       8.76569000      13.61191000  T       0.00864500       0.00758200      -0.02160200
Cu       1.25104000      11.25530000      13.60834000  T      -0.00429100      -0.00229800      -0.02296700
Cu       3.74568000      11.27056000      13.58191000  T      -0.00580800       0.00278500      -0.01428500
Cu       6.26844000      11.28125000      13.59507000  T      -0.00034900       0.00049800      -0.01452400
Cu       8.75082000      11.28180000      13.59953000  T      -0.00017700      -0.00144000      -0.01164600
Cu      11.27393000      11.27271000      13.58266000  T       0.00696700       0.00189700      -0.01396500
Cu       0.01046000       0.00075000      15.39339000  T      -0.00883200       0.00713000      -0.06394000
Cu       2.50222000       0.00005000      15.38994000  T       0.00225900       0.00025300      -0.06211100
Cu       4.97669000       0.02033000      15.36063000  T       0.00881800       0.00556200      -0.03665800
Cu       7.51145000      12.41763000      15.49368000  T      -0.00265000      -0.00245700      -0.00023000
Cu      10.05093000       0.01777000      15.35992000  T      -0.01225100       0.00481000      -0.04285100
Cu       0.04625000       2.49841000      15.36405000  T       0.00820600       0.00581100      -0.03847200
Cu       2.49342000       2.49862000      15.36330000  T      -0.00662400       0.00476900      -0.03859800
Cu       4.94936000       2.48001000      15.41853000  T      -0.00355700      -0.01223900      -0.04782700
Cu       7.53607000       2.36172000      15.61659000  T       0.00640100      -0.02332800       0.01900900
Cu      10.10680000       2.49446000      15.41898000  T       0.01228300      -0.01845800      -0.05010200
Cu      12.48823000       5.00293000      15.34566000  T       0.00562000       0.00080900      -0.04169600
Cu       2.38671000       4.99841000      15.36846000  T      -0.00682300      -0.00780000      -0.03535500
Pd       4.87909000       5.11387000      15.51923000  T       0.01312000       0.00313200      -0.02644100
Y        7.51573000       4.98536000      17.26655000  T       0.01047000       0.02334800      -0.01984100
Cu      10.01440000       5.13517000      15.42100000  T       0.00159400      -0.00447100      -0.03999400
Cu       0.05269000       7.50438000      15.37874000  T       0.00993500      -0.01136000      -0.03967100
Cu       2.53701000       7.48995000      15.37821000  T      -0.00450100      -0.01293200      -0.04189800
Cu       5.01501000       7.66663000      15.50902000  T       0.00402700       0.01129400      -0.03354100
Cu       7.54630000       7.49028000      15.49364000  T       0.00401100      -0.00270700      -0.04761000
Cu      10.09094000       7.62562000      15.48026000  T       0.00928100       0.01044200      -0.03197600
Cu      12.51060000      10.00188000      15.39693000  T      -0.00485800      -0.00077400      -0.05965300
Cu       2.51019000       9.99777000      15.39665000  T       0.00092100      -0.00211300      -0.05952500
Cu       5.01048000      10.09597000      15.37541000  T       0.01082600       0.01545600      -0.02897900
Cu       7.50598000       9.98390000      15.35855000  T      -0.00051700      -0.00482000      -0.04493900
Cu      10.01082000      10.07713000      15.37033000  T      -0.00972600       0.01516500      -0.03346800
O        6.03381000       3.62355000      16.50654000  T      -0.00651100      -0.02859700       0.00474800
O        6.14424000       6.60811000      16.67839000  T      -0.05711000      -0.01349300       0.05066900
O        8.96863000       6.52547000      16.58397000  T       0.06101700       0.01927100       0.04911600
O        9.02689000       3.75345000      16.36961000  T       0.00114900      -0.04186300      -0.01568500
C        7.59297000       1.53539000      17.44119000  T      -0.00780900      -0.05938700       0.01842300
O        7.66145000       2.55519000      18.43133000  T      -0.00665100      -0.05582900       0.05334300
O        7.50359000       0.37820000      17.84980000  T      -0.00300700      -0.05002000       0.04210400
H        7.57743000       2.11404000      19.30788000  T       0.02354700      -0.09998300       0.03623100
108
Lattice="12.515153631 0.0 0.0 0.0 12.515153631 0.0 0.0 0.0 25.30973" Properties=species:S:1:pos:R:3:move_mask:L:1:forces:R:3 stress="0.008026973950960801 -2.959099476581253e-05 -5.558063876599042e-05 -2.959099476581253e-05 0.007762003164039679 0.0004757902406660808 -5.558063876599042e-05 0.0004757902406660808 0.0024857309414560145" free_energy=-444.57860858 energy=-444.57646266 pbc="T T T"
Cu       1.25152000       1.25152000      10.00000000  F      -0.00064700      -0.01788100      -0.07862500
Cu       3.75455000       1.25152000      10.00000000  F       0.00840400       0.00083000      -0.07172800
Cu       6.25758000       1.25152000      10.00000000  F      -0.01417400       0.01241000      -0.04789900
Cu       8.76061000       1.25152000      10.00000000  F       0.01181800       0.00463400      -0.04056400
Cu      11.26364000       1.25152000      10.00000000  F      -0.00650900      -0.00233800      -0.07393000
Cu       1.25152000       3.75455000      10.00000000  F      -0.00094100       0.00098000      -0.06815600
Cu       3.75455000       3.75455000      10.00000000  F       0.01888600      -0.00605100      -0.05942600
Cu       6.25758000       3.75455000      10.00000000  F      -0.02100700      -0.00814900      -0.08120400
Cu       8.76061000       3.75455000      10.00000000  F       0.02165800      -0.00475000      -0.07971500
Cu      11.26364000       3.75455000      10.00000000  F      -0.01659300       0.00869600      -0.05713400
Cu       1.25152000       6.25758000      10.00000000  F      -0.00182300       0.00071800      -0.07556100
Cu       3.75455000       6.25758000      10.00000000  F       0.01899100       0.01535800      -0.06761200
Cu       6.25758000       6.25758000      10.00000000  F      -0.02065600       0.01480400      -0.08986300
Cu       8.76061000       6.25758000      10.00000000  F       0.02162000       0.01540700      -0.08427400
Cu      11.26364000       6.25758000      10.00000000  F      -0.01565700       0.00194400      -0.07119900
Cu       1.25152000       8.76061000      10.00000000  F      -0.00169900       0.00702800      -0.07638300
Cu       3.75455000       8.76061000      10.00000000  F       0.00277600      -0.01768700      -0.06974800
Cu       6.25758000       8.76061000      10.00000000  F      -0.00595900      -0.02250600      -0.05896100
Cu       8.76061000       8.76061000      10.00000000  F       0.00823300      -0.01709500      -0.05223800
Cu      11.26364000       8.76061000      10.00000000  F      -0.00433700      -0.01588100      -0.07153800
Cu       1.25152000      11.26364000      10.00000000  F      -0.00446400       0.00383200      -0.01534800
Cu       3.75455000      11.26364000      10.00000000  F      -0.00749700       0.00621700      -0.06959600
Cu       6.25758000      11.26364000      10.00000000  F       0.00353000       0.00963700      -0.06894000
Cu       8.76061000      11.26364000      10.00000000  F      -0.00666000       0.00589900      -0.07060300
Cu      11.26364000      11.26364000      10.00000000  F       0.01366400       0.00658100      -0.06901300
Cu       0.00000000       0.00000000      11.76991000  F      -0.02017200       0.04057800       0.08518700
Cu       2.50303000       0.00000000      11.76991000  F       0.03506100       0.01353700       0.07093000
Cu       5.00606000       0.00000000      11.76991000  F       0.06958900       0.06834600       0.10465600
Cu       7.50909000       0.00000000      11.76991000  F       0.01325700       0.06510300       0.07726300
Cu      10.01212000       0.00000000      11.76991000  F      -0.05713400       0.06630200       0.12270200
Cu       0.00000000       2.50303000      11.76991000  F      -0.08978800       0.02631600       0.05891300
Cu       2.50303000       2.50303000      11.76991000  F       0.06579900       0.03139100       0.05847400
Cu       5.00606000       2.50303000      11.76991000  F       0.01963600      -0.01506200       0.13261300
Cu       7.50909000       2.50303000      11.76991000  F      -0.02266000      -0.01154200       0.22563200
Cu      10.01212000       2.50303000      11.76991000  F      -0.00413000      -0.02279700       0.11872800
Cu       0.00000000       5.00606000      11.76991000  F      -0.07739300       0.03928900       0.04364200
Cu       2.50303000       5.00606000      11.76991000  F       0.03781500       0.01602900       0.04913900
Cu       5.00606000       5.00606000      11.76991000  F       0.00864200      -0.02796300       0.15400200
Cu       7.50909000       5.00606000      11.76991000  F      -0.05683700      -0.03580400       0.18299200
Cu      10.01212000       5.00606000      11.76991000  F      -0.02065700      -0.01958600       0.10878400
Cu       0.00000000       7.50909000      11.76991000  F      -0.06060000      -0.00016100       0.08200200
Cu       2.50303000       7.50909000      11.76991000  F       0.04549900       0.04661100       0.03875900
Cu       5.00606000       7.50909000      11.76991000  F      -0.00890700       0.07270500       0.05341000
Cu       7.50909000       7.50909000      11.76991000  F      -0.04039200       0.04775100       0.08099100
Cu      10.01212000       7.50909000      11.76991000  F       0.06593500       0.09642000       0.02445500
Cu       0.00000000      10.01212000      11.76991000  F      -0.00484000      -0.04121500       0.10298400
Cu       2.50303000      10.01212000      11.76991000  F       0.03327700      -0.04115200       0.10871100
Cu       5.00606000      10.01212000      11.76991000  F       0.08799200      -0.03275900       0.13982400
Cu       7.50909000      10.01212000      11.76991000  F       0.01834600      -0.03090800       0.12484700
Cu      10.01212000      10.01212000      11.76991000  F      -0.07072900      -0.02675000       0.14830600
Cu       1.25870000       1.23500000      13.57700000  T       0.00102800       0.00254400      -0.02149600
Cu       3.77150000       1.26939000      13.59224000  T       0.00291800       0.00373800      -0.01998800
Cu       6.29298000       1.26601000      13.63164000  T       0.00606400      -0.00014000      -0.00784800
Cu       8.74538000       1.26843000      13.62921000  T      -0.00474100      -0.00179300      -0.01042500
Cu      11.26171000       1.27542000      13.59532000  T      -0.00069100       0.00128500      -0.02354500
Cu       1.23646000       3.74619000      13.56335000  T      -0.00078800      -0.00019200      -0.02053400
Cu       3.75398000       3.77494000      13.59792000  T       0.00238300       0.00541100      -0.01285400
Cu       6.27573000       3.75589000      13.60510000  T      -0.00153700      -0.00094900      -0.00804200
Cu       8.72361000       3.75691000      13.59752000  T      -0.00387400      -0.00508700      -0.00732400
Cu      11.22727000       3.78533000      13.59681000  T      -0.00199500       0.00271700      -0.01757800
Cu       1.24218000       6.26053000      13.57086000  T      -0.00016200      -0.00170700      -0.02048500
Cu       3.75061000       6.29266000      13.57999000  T       0.00550400      -0.00033100      -0.00913500
Cu       6.26575000       6.25071000      13.57753000  T      -0.00083000      -0.00046000      -0.00902200
Cu       8.74058000       6.25872000      13.54958000  T      -0.00047000      -0.00329500      -0.00752900
Cu      11.23762000       6.28445000      13.60128000  T      -0.00389200       0.00185500      -0.01290400
Cu       1.26585000       8.76458000      13.59039000  T       0.00057500      -0.00408700      -0.01963300
Cu       3.78575000       8.76783000      13.61515000  T       0.00354300       0.00172000      -0.01539000
Cu       6.27917000       8.73481000      13.61314000  T      -0.00113500      -0.00227300      -0.01483200
Cu       8.76437000       8.73823000      13.61416000  T       0.00161600      -0.00519200      -0.01412400
Cu      11.26358000       8.76673000      13.60822000  T      -0.00241800       0.00064300      -0.01680400
Cu       1.25050000      11.25495000      13.60416000  T      -0.00036000      -0.00116500      -0.02416700
Cu       3.74514000      11.27098000      13.57916000  T       0.00433900       0.00169400      -0.01803200
Cu       6.26851000      11.28144000      13.59239000  T       0.00241300       0.00286100      -0.01540000
Cu       8.75059000      11.28168000      13.59719000  T      -0.00455100       0.00107100      -0.01653600
Cu      11.27458000      11.27293000      13.57986000  T      -0.00531700      -0.00007500      -0.01996300
Cu       0.00909000       0.00187000      15.38360000  T      -0.00466800       0.00422800      -0.03700000
Cu       2.50254000       0.00013000      15.38029000  T      -0.00003000       0.00044700      -0.03808300
Cu       4.97799000       0.02120000      15.35480000  T       0.00329100       0.00479500      -0.02498700
Cu       7.51101000      12.41690000      15.49364000  T      -0.00236900      -0.00991800       0.00037900
Cu      10.04899000       0.01842000      15.35322000  T      -0.00778600       0.00105800      -0.02685800
Cu       0.04742000       2.49936000      15.35790000  T       0.00193000       0.00412300      -0.02801200
Cu       2.49261000       2.49922000      15.35713000  T       0.00212100      -0.00076200      -0.02771200
Cu       4.94947000       2.47913000      15.41149000  T       0.00862500       0.00996700      -0.02246000
Cu       7.53698000       2.35782000      15.62054000  T       0.00158800      -0.02487300       0.03532100
Cu      10.10833000       2.49219000      15.41129000  T       0.00035600      -0.00060500      -0.02885800
Cu      12.48892000       5.00304000      15.33902000  T      -0.00154100       0.00054700      -0.02842100
Cu       2.38623000       4.99728000      15.36280000  T       0.00912600      -0.00250700      -0.02523100
Pd       4.88161000       5.11399000      15.51540000  T       0.01937800      -0.00357400      -0.02212500
Y        7.51724000       4.98790000      17.26288000  T       0.00322200       0.00102200      -0.02818300
Cu      10.01346000       5.13396000      15.41557000  T      -0.01684900      -0.00759200      -0.01328500
Cu       0.05414000       7.50282000      15.37251000  T       0.00319700      -0.00149900      -0.02600100
Cu       2.53648000       7.48813000      15.37162000  T       0.00196000      -0.00280500      -0.02673400
Cu       5.01621000       7.66771000      15.50424000  T       0.01004000      -0.00345900      -0.01349900
Cu       7.54683000       7.48808000      15.48780000  T       0.00090200      -0.03381200       0.00049700
Cu      10.09194000       7.62673000      15.47561000  T      -0.00131500      -0.00304000      -0.01395000
Cu      12.50982000      10.00174000      15.38780000  T      -0.00303900      -0.00013500      -0.03375000
Cu       2.51040000       9.99741000      15.38746000  T       0.00108600      -0.00155700      -0.03468700
Cu       5.01201000      10.09817000      15.37077000  T       0.00272300       0.00277600      -0.02038200
Cu       7.50590000       9.98310000      15.35158000  T      -0.00003800      -0.00750900      -0.02610200
Cu      10.00943000      10.07932000      15.36506000  T      -0.00286000       0.00369700      -0.02234300
O        6.03292000       3.61932000      16.50663000  T       0.00912100      -0.00820900      -0.00308400
O        6.13614000       6.60665000      16.68467000  T      -0.00733200      -0.00021100      -0.00193500
O        8.97728000       6.52847000      16.59046000  T       0.00889800       0.00415900       0.00548500
O        9.02698000       3.74779000      16.36632000  T      -0.01142700      -0.00767500      -0.01763200
C        7.59159000       1.52630000      17.44634000  T      -0.00886300      -0.04607200       0.05498700
O        7.66032000       2.54509000      18.43916000  T      -0.00574800      -0.07568700       0.00937200
O        7.50311000       0.36905000      17.85586000  T      -0.00123100      -0.04339600       0.01315900
H        7.58145000       2.09757000      19.31336000  T       0.02234200      -0.07803100       0.02701600
108
Lattice="12.515153631 0.0 0.0 0.0 12.515153631 0.0 0.0 0.0 25.30973" Properties=species:S:1:pos:R:3:move_mask:L:1:forces:R:3 stress="0.007879699301626459 -2.9628443820567826e-05 -5.5181182181933885e-05 -2.9628443820567826e-05 0.007584032772824243 0.00044778458921824256 -5.5181182181933885e-05 0.00044778458921824256 0.0021983656197912234" free_energy=-444.58832641 energy=-444.58624311 pbc="T T T"
Cu       1.25152000       1.25152000      10.00000000  F      -0.00040500      -0.01788700      -0.07881500
Cu       3.75455000       1.25152000      10.00000000  F       0.00774400       0.00079100      -0.07156100
Cu       6.25758000       1.25152000      10.00000000  F      -0.01461400       0.01205100      -0.04924000
Cu       8.76061000       1.25152000      10.00000000  F       0.01207800       0.00416900      -0.04206300
Cu      11.26364000       1.25152000      10.00000000  F      -0.00573000      -0.00273700      -0.07414200
Cu       1.25152000       3.75455000      10.00000000  F      -0.00045800       0.00094300      -0.06884800
Cu       3.75455000       3.75455000      10.00000000  F       0.01803200      -0.00602800      -0.05953300
Cu       6.25758000       3.75455000      10.00000000  F      -0.02151600      -0.00800700      -0.08221700
Cu       8.76061000       3.75455000      10.00000000  F       0.02172700      -0.00476000      -0.08126400
Cu      11.26364000       3.75455000      10.00000000  F      -0.01562400       0.00871100      -0.05773900
Cu       1.25152000       6.25758000      10.00000000  F      -0.00143800       0.00118600      -0.07559700
Cu       3.75455000       6.25758000      10.00000000  F       0.01830800       0.01592400      -0.06767200
Cu       6.25758000       6.25758000      10.00000000  F      -0.02140600       0.01531300      -0.08997100
Cu       8.76061000       6.25758000      10.00000000  F       0.02185000       0.01606300      -0.08478400
Cu      11.26364000       6.25758000      10.00000000  F      -0.01473100       0.00250900      -0.07172700
Cu       1.25152000       8.76061000      10.00000000  F      -0.00149500       0.00730200      -0.07548900
Cu       3.75455000       8.76061000      10.00000000  F       0.00231700      -0.01772800      -0.06969300
Cu       6.25758000       8.76061000      10.00000000  F      -0.00662900      -0.02217300      -0.05959600
Cu       8.76061000       8.76061000      10.00000000  F       0.00859100      -0.01657600      -0.05286300
Cu      11.26364000       8.76061000      10.00000000  F      -0.00364800      -0.01548000      -0.07178300
Cu       1.25152000      11.26364000      10.00000000  F      -0.00449800       0.00357600      -0.01509800
Cu       3.75455000      11.26364000      10.00000000  F      -0.00794400       0.00618000      -0.06931900
Cu       6.25758000      11.26364000      10.00000000  F       0.00295900       0.00959000      -0.06983300
Cu       8.76061000      11.26364000      10.00000000  F      -0.00616000       0.00581700      -0.07138700
Cu      11.26364000      11.26364000      10.00000000  F       0.01426500       0.00656300      -0.06878000
Cu       0.00000000       0.00000000      11.76991000  F      -0.01994800       0.03934600       0.05893700
Cu       2.50303000       0.00000000      11.76991000  F       0.03654300       0.01273800       0.04676000
Cu       5.00606000       0.00000000      11.76991000  F       0.07280300       0.07034000       0.08755500
Cu       7.50909000       0.00000000      11.76991000  F       0.01290400       0.06742000       0.05968300
Cu      10.01212000       0.00000000      11.76991000  F      -0.06080900       0.06653100       0.10430500
Cu       0.00000000       2.50303000      11.76991000  F      -0.09079500       0.02811300       0.03500200
Cu       2.50303000       2.50303000      11.76991000  F       0.06841700       0.03413700       0.03647800
Cu       5.00606000       2.50303000      11.76991000  F       0.02330600      -0.01390700       0.11915300
Cu       7.50909000       2.50303000      11.76991000  F      -0.02408400      -0.01289400       0.21385000
Cu      10.01212000       2.50303000      11.76991000  F      -0.00907100      -0.02265800       0.10352100
Cu       0.00000000       5.00606000      11.76991000  F      -0.08093200       0.04134800       0.02432200
Cu       2.50303000       5.00606000      11.76991000  F       0.04116900       0.01803400       0.03079500
Cu       5.00606000       5.00606000      11.76991000  F       0.00768300      -0.02715600       0.13863700
Cu       7.50909000       5.00606000      11.76991000  F      -0.05817400      -0.03916100       0.16874900
Cu      10.01212000       5.00606000      11.76991000  F      -0.02249900      -0.01973200       0.09296400
Cu       0.00000000       7.50909000      11.76991000  F      -0.06143800       0.00088800       0.06149400
Cu       2.50303000       7.50909000      11.76991000  F       0.04768000       0.04723300       0.01956900
Cu       5.00606000       7.50909000      11.76991000  F      -0.00978200       0.07303400       0.03441900
Cu       7.50909000       7.50909000      11.76991000  F      -0.04044600       0.04880000       0.06399900
Cu      10.01212000       7.50909000      11.76991000  F       0.06585200       0.09717800       0.00478700
Cu       0.00000000      10.01212000      11.76991000  F      -0.00533700      -0.04291900       0.07926200
Cu       2.50303000      10.01212000      11.76991000  F       0.03520300      -0.04205200       0.08653200
Cu       5.00606000      10.01212000      11.76991000  F       0.08962800      -0.03193800       0.12115700
Cu       7.50909000      10.01212000      11.76991000  F       0.01838200      -0.03333900       0.11043100
Cu      10.01212000      10.01212000      11.76991000  F      -0.07286500      -0.02701300       0.12981100
Cu       1.25883000       1.23502000      13.57147000  T       0.00190200       0.00682700      -0.01404500
Cu       3.77165000       1.27002000      13.58652000  T       0.00899100       0.00734000      -0.00600300
Cu       6.29478000       1.26577000      13.62969000  T       0.00290600       0.00479300      -0.00225700
Cu       8.74411000       1.26764000      13.62674000  T      -0.00550000       0.00312300      -0.00443800
Cu      11.26218000       1.27524000      13.58885000  T      -0.00709800       0.00522800      -0.00835200
Cu       1.23631000       3.74604000      13.55804000  T       0.00265700       0.00316500      -0.00950300
Cu       3.75393000       3.77625000      13.59427000  T       0.00694000       0.00105700      -0.00876200
Cu       6.27544000       3.75528000      13.60203000  T       0.00215100       0.00217200       0.00135000
Cu       8.72253000       3.75525000      13.59474000  T      -0.00454200      -0.00034600       0.00416900
Cu      11.22676000       3.78588000      13.59237000  T      -0.00234800       0.00283500      -0.01037000
Cu       1.24197000       6.26029000      13.56572000  T       0.00417700      -0.00388100      -0.01023800
Cu       3.75110000       6.29341000      13.57683000  T       0.01099200      -0.00599400      -0.00160700
Cu       6.26546000       6.25085000      13.57334000  T       0.00462800      -0.00226200       0.00746400
Cu       8.74063000       6.25792000      13.54583000  T      -0.00448700      -0.00354900       0.00901300
Cu      11.23688000       6.28546000      13.59762000  T      -0.00551400      -0.00453900      -0.00332000
Cu       1.26595000       8.76413000      13.58548000  T       0.00087400      -0.00715700      -0.01394100
Cu       3.78608000       8.76875000      13.61045000  T       0.00792200      -0.00676100      -0.00432800
Cu       6.27864000       8.73443000      13.60911000  T       0.00387300      -0.00655900      -0.00501500
Cu       8.76503000       8.73719000      13.61044000  T      -0.00437900      -0.00937800      -0.00412400
Cu      11.26361000       8.76730000      13.60346000  T      -0.00730200      -0.00532600      -0.00649100
Cu       1.25012000      11.25458000      13.59784000  T       0.00134500      -0.00042000      -0.01446000
Cu       3.74565000      11.27150000      13.57459000  T       0.00775900       0.00035200      -0.01252100
Cu       6.26899000      11.28200000      13.58840000  T       0.00199400       0.00110300      -0.00708800
Cu       8.74968000      11.28175000      13.59315000  T      -0.00561800      -0.00062300      -0.01076600
Cu      11.27392000      11.27306000      13.57496000  T      -0.00852300      -0.00048300      -0.01405700
Cu       0.00761000       0.00314000      15.37224000  T      -0.00025500       0.00043400      -0.01545700
Cu       2.50263000       0.00022000      15.36888000  T      -0.00190600      -0.00088300      -0.01457700
Cu       4.97915000       0.02250000      15.34756000  T      -0.00249200       0.00462000      -0.01093200
Cu       7.51040000      12.41461000      15.49364000  T      -0.00187000      -0.01692700       0.00135000
Cu      10.04673000       0.01894000      15.34519000  T      -0.00201000      -0.00034500      -0.01048800
Cu       0.04827000       2.50052000      15.34989000  T      -0.00215100       0.00145500      -0.01690900
Cu       2.49261000       2.49933000      15.34919000  T       0.00791400      -0.00341600      -0.01559400
Cu       4.95097000       2.48030000      15.40401000  T       0.00931100       0.01221600      -0.00434000
Cu       7.53775000       2.35109000      15.62875000  T      -0.00172500      -0.03154200       0.03393100
Cu      10.10913000       2.49096000      15.40241000  T      -0.00739200       0.00871000      -0.00882400
Cu      12.48901000       5.00321000      15.33078000  T      -0.00209100       0.00133100      -0.01239400
Cu       2.38754000       4.99630000      15.35549000  T       0.01333800       0.00179800      -0.01497900
Pd       4.88587000       5.11332000      15.51010000  T       0.00895000      -0.00617400      -0.00647800
Y        7.51856000       4.98955000      17.25657000  T      -0.00343500      -0.00367000      -0.00463200
Cu      10.01033000       5.13213000      15.41032000  T      -0.00861800      -0.00182700      -0.00457000
Cu       0.05535000       7.50187000      15.36485000  T      -0.00165400       0.00577800      -0.01263700
Cu       2.53657000       7.48683000      15.36369000  T       0.00574900       0.00523700      -0.01146400
Cu       5.01839000       7.66780000      15.49933000  T       0.00312800      -0.00485800      -0.00554700
Cu       7.54736000       7.48155000      15.48459000  T       0.00092900      -0.01829100       0.00647400
Cu      10.09227000       7.62678000      15.47078000  T      -0.00348700      -0.00746400      -0.00364300
Cu      12.50892000      10.00175000      15.37735000  T       0.00114200       0.00294300      -0.01268800
Cu       2.51060000       9.99702000      15.37686000  T      -0.00120600       0.00047400      -0.01283200
Cu       5.01322000      10.09971000      15.36485000  T      -0.00295100      -0.00577900      -0.01212500
Cu       7.50592000       9.98113000      15.34359000  T       0.00072400      -0.01628900      -0.00727400
Cu      10.00827000      10.08095000      15.35846000  T       0.00191700      -0.00672400      -0.01204600
O        6.03397000       3.61557000      16.50610000  T       0.01324900      -0.00040300      -0.00392800
O        6.13102000       6.60588000      16.68734000  T       0.02183300       0.00168400      -0.02901000
O        8.98329000       6.53058000      16.59443000  T      -0.01704200      -0.01115300      -0.01994800
O        9.02526000       3.74321000      16.36146000  T      -0.01586100      -0.00296900      -0.00932300
C        7.58944000       1.51365000      17.45566000  T      -0.00692500      -0.06095500       0.00123100
O        7.65877000       2.52725000      18.44722000  T      -0.00229000      -0.04943900       0.03105200
O        7.50254000       0.35467000      17.86187000  T      -0.00227800      -0.05719300      -0.00190500
H        7.58758000       2.07540000      19.32053000  T       0.02069200      -0.05877900       0.01703400
108
Lattice="12.515153631 0.0 0.0 0.0 12.515153631 0.0 0.0 0.0 25.30973" Properties=species:S:1:pos:R:3:move_mask:L:1:forces:R:3 stress="0.007689907492126601 -2.916033063612658e-05 -5.0587431465283805e-05 -2.916033063612658e-05 0.007384117235522202 0.00043680577466581393 -5.0587431465283805e-05 0.00043680577466581393 0.0019061007134626143" free_energy=-444.59190926 energy=-444.58982689 pbc="T T T"
Cu       1.25152000       1.25152000      10.00000000  F      -0.00097000      -0.01753000      -0.07951600
Cu       3.75455000       1.25152000      10.00000000  F       0.00812600       0.00104800      -0.07213900
Cu       6.25758000       1.25152000      10.00000000  F      -0.01385600       0.01212100      -0.04969200
Cu       8.76061000       1.25152000      10.00000000  F       0.01224000       0.00434900      -0.04213000
Cu      11.26364000       1.25152000      10.00000000  F      -0.00644800      -0.00250800      -0.07403000
Cu       1.25152000       3.75455000      10.00000000  F      -0.00098000       0.00053900      -0.06984100
Cu       3.75455000       3.75455000      10.00000000  F       0.01817000      -0.00656800      -0.06007800
Cu       6.25758000       3.75455000      10.00000000  F      -0.02062500      -0.00854200      -0.08242900
Cu       8.76061000       3.75455000      10.00000000  F       0.02184500      -0.00528300      -0.08109100
Cu      11.26364000       3.75455000      10.00000000  F      -0.01623100       0.00824700      -0.05752400
Cu       1.25152000       6.25758000      10.00000000  F      -0.00203000       0.00017600      -0.07646500
Cu       3.75455000       6.25758000      10.00000000  F       0.01842100       0.01508400      -0.06850500
Cu       6.25758000       6.25758000      10.00000000  F      -0.02062200       0.01436200      -0.08993200
Cu       8.76061000       6.25758000      10.00000000  F       0.02198900       0.01511900      -0.08426500
Cu      11.26364000       6.25758000      10.00000000  F      -0.01518400       0.00160700      -0.07170900
Cu       1.25152000       8.76061000      10.00000000  F      -0.00212700       0.00646000      -0.07609000
Cu       3.75455000       8.76061000      10.00000000  F       0.00264300      -0.01857800      -0.07100600
Cu       6.25758000       8.76061000      10.00000000  F      -0.00598400      -0.02276400      -0.06024300
Cu       8.76061000       8.76061000      10.00000000  F       0.00882100      -0.01718500      -0.05298400
Cu      11.26364000       8.76061000      10.00000000  F      -0.00422800      -0.01625000      -0.07237600
Cu       1.25152000      11.26364000      10.00000000  F      -0.00514900       0.00362500      -0.01589100
Cu       3.75455000      11.26364000      10.00000000  F      -0.00743500       0.00635600      -0.07026400
Cu       6.25758000      11.26364000      10.00000000  F       0.00359900       0.00978300      -0.07042600
Cu       8.76061000      11.26364000      10.00000000  F      -0.00597700       0.00597900      -0.07149000
Cu      11.26364000      11.26364000      10.00000000  F       0.01358000       0.00673200      -0.06904700
Cu       0.00000000       0.00000000      11.76991000  F      -0.02240800       0.04019600       0.04107800
Cu       2.50303000       0.00000000      11.76991000  F       0.03919600       0.01378900       0.02977800
Cu       5.00606000       0.00000000      11.76991000  F       0.07799200       0.07315800       0.07367900
Cu       7.50909000       0.00000000      11.76991000  F       0.01275100       0.07050300       0.04589600
Cu      10.01212000       0.00000000      11.76991000  F      -0.06595800       0.06856800       0.08971900
Cu       0.00000000       2.50303000      11.76991000  F      -0.09413300       0.03003400       0.01724300
Cu       2.50303000       2.50303000      11.76991000  F       0.07165000       0.03624700       0.01912200
Cu       5.00606000       2.50303000      11.76991000  F       0.02974200      -0.01270300       0.10642000
Cu       7.50909000       2.50303000      11.76991000  F      -0.02379500      -0.01247200       0.20486800
Cu      10.01212000       2.50303000      11.76991000  F      -0.01552800      -0.02131500       0.09135500
Cu       0.00000000       5.00606000      11.76991000  F      -0.08539800       0.04202300       0.00896800
Cu       2.50303000       5.00606000      11.76991000  F       0.04478400       0.01834500       0.01560400
Cu       5.00606000       5.00606000      11.76991000  F       0.01199600      -0.02672500       0.12631400
Cu       7.50909000       5.00606000      11.76991000  F      -0.05702800      -0.04187900       0.15975200
Cu      10.01212000       5.00606000      11.76991000  F      -0.02793200      -0.01988600       0.08183200
Cu       0.00000000       7.50909000      11.76991000  F      -0.06552500      -0.00139100       0.04704800
Cu       2.50303000       7.50909000      11.76991000  F       0.05199900       0.04462900       0.00569900
Cu       5.00606000       7.50909000      11.76991000  F      -0.00649400       0.06998300       0.02056100
Cu       7.50909000       7.50909000      11.76991000  F      -0.03891400       0.04507600       0.05174500
Cu      10.01212000       7.50909000      11.76991000  F       0.06271800       0.09344900      -0.00836600
Cu       0.00000000      10.01212000      11.76991000  F      -0.00832800      -0.04558500       0.06298000
Cu       2.50303000      10.01212000      11.76991000  F       0.03805200      -0.04400300       0.07086400
Cu       5.00606000      10.01212000      11.76991000  F       0.09384900      -0.03306300       0.10719000
Cu       7.50909000      10.01212000      11.76991000  F       0.01884500      -0.03616200       0.09858400
Cu      10.01212000      10.01212000      11.76991000  F      -0.07727800      -0.02948200       0.11573300
Cu       1.25907000       1.23582000      13.56698000  T       0.00050100       0.00368900      -0.00302100
Cu       3.77285000       1.27120000      13.58281000  T       0.00748700       0.00351100       0.00209900
Cu       6.29615000       1.26624000      13.62842000  T       0.00190500       0.00416500       0.00209900
Cu       8.74275000       1.26760000      13.62497000  T      -0.00400600       0.00278000       0.00168300
Cu      11.26147000       1.27578000      13.58457000  T      -0.00810500       0.00387400       0.00283800
Cu       1.23654000       3.74634000      13.55423000  T       0.00279200       0.00304800       0.00087600
Cu       3.75477000       3.77694000      13.59122000  T       0.00718500      -0.00265900      -0.00379100
Cu       6.27575000       3.75515000      13.60043000  T       0.00564000       0.00141300       0.00338400
Cu       8.72140000       3.75430000      13.59371000  T      -0.00318500       0.00090600       0.00653800
Cu      11.22611000       3.78646000      13.58886000  T      -0.00294800       0.00073600      -0.00162200
Cu       1.24232000       6.25966000      13.56194000  T       0.00313600      -0.00192600       0.00103500
Cu       3.75266000       6.29306000      13.57486000  T       0.00823000      -0.00564400       0.00028300
Cu       6.26603000       6.25058000      13.57181000  T       0.00680500      -0.00380600       0.00680100
Cu       8.74013000       6.25694000      13.54473000  T      -0.00312200      -0.00465000       0.00690600
Cu      11.23577000       6.28538000      13.59530000  T      -0.00366500      -0.00532700       0.00105900
Cu       1.26605000       8.76308000      13.58132000  T      -0.00030700      -0.00355400      -0.00379700
Cu       3.78719000       8.76840000      13.60742000  T       0.00495500      -0.00663700       0.00048200
Cu       6.27892000       8.73338000      13.60639000  T       0.00438500      -0.00607200       0.00031300
Cu       8.76484000       8.73544000      13.60802000  T      -0.00352700      -0.00801000       0.00094100
Cu      11.26270000       8.76689000      13.60023000  T      -0.00573300      -0.00587900       0.00060000
Cu       1.25001000      11.25437000      13.59291000  T       0.00012600       0.00012200      -0.00242900
Cu       3.74685000      11.27183000      13.57076000  T       0.00440300      -0.00078900      -0.00298300
Cu       6.26953000      11.28237000      13.58557000  T       0.00160000      -0.00164200       0.00172200
Cu       8.74854000      11.28164000      13.58988000  T      -0.00289600      -0.00340300      -0.00080000
Cu      11.27254000      11.27309000      13.57083000  T      -0.00571400      -0.00062000      -0.00314400
Cu       0.00671000       0.00389000      15.36427000  T       0.00012100      -0.00066800      -0.00292900
Cu       2.50243000       0.00014000      15.36112000  T      -0.00200000      -0.00153400       0.00080500
Cu       4.97947000       0.02373000      15.34246000  T      -0.00309400       0.00196900       0.00044500
Cu       7.50988000      12.41102000      15.49356000  T      -0.00073100      -0.02116900      -0.00301700
Cu      10.04528000       0.01920000      15.33965000  T       0.00035000      -0.00056200       0.00023600
Cu       0.04841000       2.50129000      15.34355000  T      -0.00318700      -0.00013300      -0.00615200
Cu       2.49353000       2.49899000      15.34312000  T       0.00584200      -0.00207000      -0.00358500
Cu       4.95280000       2.48209000      15.39950000  T       0.00488300       0.00315900       0.00484000
Cu       7.53799000       2.34338000      15.63708000  T      -0.00234300      -0.02935000       0.01914100
Cu      10.10865000       2.49135000      15.39665000  T      -0.00651700       0.00666400       0.00214000
Cu      12.48885000       5.00346000      15.32499000  T       0.00060400       0.00150200       0.00116400
Cu       2.38967000       4.99598000      15.34984000  T       0.00653700       0.00241700      -0.00362500
Pd       4.88909000       5.11225000      15.50646000  T      -0.00311200      -0.00194900       0.00597900
Y        7.51894000       4.98987000      17.25295000  T      -0.00309200      -0.00713600       0.00879300
Cu      10.00787000       5.13076000      15.40693000  T       0.00113800      -0.00457800       0.00113300
Cu       0.05571000       7.50203000      15.35929000  T      -0.00314000       0.00566800      -0.00229000
Cu       2.53723000       7.48675000      15.35819000  T       0.00286300       0.00502200       0.00060200
Cu       5.01974000       7.66739000      15.49592000  T      -0.00280300      -0.00322200      -0.00168200
Cu       7.54786000       7.47652000      15.48308000  T       0.00252500       0.00488000      -0.00439000
Cu      10.09211000       7.62594000      15.46769000  T      -0.00156200      -0.00646500       0.00096000
Cu      12.50857000      10.00217000      15.37030000  T       0.00194800       0.00383300      -0.00023400
Cu       2.51053000       9.99692000      15.36975000  T      -0.00160100       0.00139000       0.00080600
Cu       5.01357000      10.09991000      15.36026000  T      -0.00245500      -0.00457200      -0.00376100
Cu       7.50604000       9.97797000      15.33854000  T       0.00089000      -0.01550600       0.00489700
Cu      10.00784000      10.08096000      15.35348000  T       0.00170600      -0.00828900      -0.00373100
O        6.03621000       3.61327000      16.50544000  T       0.01268100      -0.00266200       0.00148500
O        6.13114000       6.60562000      16.68530000  T       0.02527700       0.00023100      -0.02583900
O        8.98460000       6.53007000      16.59388000  T      -0.01530100      -0.01828200      -0.02505100
O        9.02248000       3.74020000      16.35777000  T      -0.01429700      -0.00366800       0.00067700
C        7.58751000       1.49968000      17.46132000  T      -0.00196900      -0.03362400       0.00433900
O        7.65778000       2.51097000      18.45460000  T       0.00086800      -0.05266100       0.01321100
O        7.50197000       0.33959000      17.86476000  T      -0.00046000      -0.05163500      -0.00838700
H        7.59356000       2.05549000      19.32687000  T       0.01704700      -0.04834100       0.01044700
108
Lattice="12.515153631 0.0 0.0 0.0 12.515153631 0.0 0.0 0.0 25.30973" Properties=species:S:1:pos:R:3:move_mask:L:1:forces:R:3 stress="0.00770441900084428 -2.9853138149099623e-05 -4.92829560579742e-05 -2.9853138149099623e-05 0.007405868894825906 0.0004274934430499961 -4.92829560579742e-05 0.0004274934430499961 0.0018968507969380549" free_energy=-444.59550831 energy=-444.59340021 pbc="T T T"
Cu       1.25152000       1.25152000      10.00000000  F      -0.00062200      -0.01787400      -0.07945000
Cu       3.75455000       1.25152000      10.00000000  F       0.00859500       0.00061100      -0.07169500
Cu       6.25758000       1.25152000      10.00000000  F      -0.01388200       0.01156400      -0.04923300
Cu       8.76061000       1.25152000      10.00000000  F       0.01164400       0.00390100      -0.04192500
Cu      11.26364000       1.25152000      10.00000000  F      -0.00676000      -0.00283400      -0.07392900
Cu       1.25152000       3.75455000      10.00000000  F      -0.00066900       0.00027700      -0.06971100
Cu       3.75455000       3.75455000      10.00000000  F       0.01851300      -0.00689500      -0.05960200
Cu       6.25758000       3.75455000      10.00000000  F      -0.02060700      -0.00883800      -0.08206800
Cu       8.76061000       3.75455000      10.00000000  F       0.02129000      -0.00555800      -0.08088100
Cu      11.26364000       3.75455000      10.00000000  F      -0.01650500       0.00794600      -0.05726800
Cu       1.25152000       6.25758000      10.00000000  F      -0.00170200      -0.00006500      -0.07625000
Cu       3.75455000       6.25758000      10.00000000  F       0.01882200       0.01499400      -0.06799900
Cu       6.25758000       6.25758000      10.00000000  F      -0.02059900       0.01428900      -0.08933800
Cu       8.76061000       6.25758000      10.00000000  F       0.02135400       0.01499000      -0.08389500
Cu      11.26364000       6.25758000      10.00000000  F      -0.01545700       0.00144800      -0.07150600
Cu       1.25152000       8.76061000      10.00000000  F      -0.00177400       0.00618800      -0.07593500
Cu       3.75455000       8.76061000      10.00000000  F       0.00317700      -0.01879400      -0.07063100
Cu       6.25758000       8.76061000      10.00000000  F      -0.00606700      -0.02292000      -0.05969200
Cu       8.76061000       8.76061000      10.00000000  F       0.00823000      -0.01742100      -0.05270700
Cu      11.26364000       8.76061000      10.00000000  F      -0.00457800      -0.01654800      -0.07250100
Cu       1.25152000      11.26364000      10.00000000  F      -0.00478700       0.00333100      -0.01587400
Cu       3.75455000      11.26364000      10.00000000  F      -0.00686700       0.00605000      -0.06996800
Cu       6.25758000      11.26364000      10.00000000  F       0.00353700       0.00945700      -0.06986700
Cu       8.76061000      11.26364000      10.00000000  F      -0.00668100       0.00569200      -0.07120200
Cu      11.26364000      11.26364000      10.00000000  F       0.01324900       0.00645700      -0.06919300
Cu       0.00000000       0.00000000      11.76991000  F      -0.02334000       0.04077700       0.03760400
Cu       2.50303000       0.00000000      11.76991000  F       0.04100100       0.01428400       0.02618400
Cu       5.00606000       0.00000000      11.76991000  F       0.08009600       0.07378300       0.07017700
Cu       7.50909000       0.00000000      11.76991000  F       0.01178200       0.07107400       0.04264500
Cu      10.01212000       0.00000000      11.76991000  F      -0.06845200       0.06923500       0.08611700
Cu       0.00000000       2.50303000      11.76991000  F      -0.09486400       0.03084400       0.01323100
Cu       2.50303000       2.50303000      11.76991000  F       0.07331300       0.03664700       0.01437100
Cu       5.00606000       2.50303000      11.76991000  F       0.03250200      -0.01266700       0.10204100
Cu       7.50909000       2.50303000      11.76991000  F      -0.02403200      -0.01222000       0.20280500
Cu      10.01212000       2.50303000      11.76991000  F      -0.01847300      -0.02085200       0.08803000
Cu       0.00000000       5.00606000      11.76991000  F      -0.08608500       0.04212000       0.00510400
Cu       2.50303000       5.00606000      11.76991000  F       0.04667400       0.01834300       0.01138000
Cu       5.00606000       5.00606000      11.76991000  F       0.01446600      -0.02635200       0.12239900
Cu       7.50909000       5.00606000      11.76991000  F      -0.05673700      -0.04286100       0.15721000
Cu      10.01212000       5.00606000      11.76991000  F      -0.03069700      -0.01986500       0.07880200
Cu       0.00000000       7.50909000      11.76991000  F      -0.06675600      -0.00320200       0.04412600
Cu       2.50303000       7.50909000      11.76991000  F       0.05450500       0.04279200       0.00261900
Cu       5.00606000       7.50909000      11.76991000  F      -0.00452000       0.06812700       0.01700500
Cu       7.50909000       7.50909000      11.76991000  F      -0.03873200       0.04254700       0.04815100
Cu      10.01212000       7.50909000      11.76991000  F       0.06079800       0.09099100      -0.01136200
Cu       0.00000000      10.01212000      11.76991000  F      -0.00937700      -0.04697900       0.05973000
Cu       2.50303000      10.01212000      11.76991000  F       0.03986100      -0.04508900       0.06756000
Cu       5.00606000      10.01212000      11.76991000  F       0.09568800      -0.03422200       0.10396300
Cu       7.50909000      10.01212000      11.76991000  F       0.01820800      -0.03759100       0.09545800
Cu      10.01212000      10.01212000      11.76991000  F      -0.07963400      -0.03133800       0.11236700
Cu       1.25920000       1.23636000      13.56540000  T       0.00018600      -0.00001100       0.00158500
Cu       3.77381000       1.27182000      13.58186000  T       0.00236800      -0.00096800       0.00276800
Cu       6.29670000       1.26669000      13.62820000  T       0.00020600       0.00007700       0.00227600
Cu       8.74200000       1.26779000      13.62458000  T      -0.00171300      -0.00058300       0.00271100
Cu      11.26061000       1.27626000      13.58351000  T      -0.00362600       0.00048000       0.00379800
Cu       1.23684000       3.74667000      13.55316000  T       0.00174500       0.00120100       0.00313800
Cu       3.75560000       3.77692000      13.58999000  T       0.00346800      -0.00275400      -0.00034000
Cu       6.27628000       3.75522000      13.60017000  T       0.00300100      -0.00019200       0.00179500
Cu       8.72081000       3.75408000      13.59390000  T      -0.00083900      -0.00005500       0.00335900
Cu      11.22568000       3.78669000      13.58769000  T      -0.00072600      -0.00059400       0.00186800
Cu       1.24267000       6.25933000      13.56091000  T       0.00129600       0.00064500       0.00372700
Cu       3.75378000       6.29251000      13.57427000  T       0.00271400      -0.00225600       0.00049300
Cu       6.26675000       6.25018000      13.57184000  T       0.00316900      -0.00268400       0.00161300
Cu       8.73973000       6.25626000      13.54489000  T      -0.00005600      -0.00327400       0.00100200
Cu      11.23516000       6.28493000      13.59468000  T      -0.00008000      -0.00257700       0.00141600
Cu       1.26607000       8.76249000      13.57977000  T      -0.00010500      -0.00001800       0.00113100
Cu       3.78792000       8.76777000      13.60653000  T       0.00056900      -0.00238700       0.00065800
Cu       6.27933000       8.73259000      13.60557000  T       0.00070400      -0.00247000       0.00027000
Cu       8.76450000       8.73426000      13.60735000  T      -0.00029100      -0.00343200       0.00026300
Cu      11.26197000       8.76629000      13.59930000  T      -0.00122000      -0.00258600       0.00163700
Cu       1.25000000      11.25432000      13.59125000  T       0.00007600      -0.00013700       0.00171600
Cu       3.74756000      11.27188000      13.56938000  T       0.00038600      -0.00112500       0.00144600
Cu       6.26980000      11.28234000      13.58487000  T       0.00004100      -0.00271100       0.00286500
Cu       8.74795000      11.28131000      13.58885000  T      -0.00042700      -0.00389500       0.00242400
Cu      11.27166000      11.27306000      13.56936000  T      -0.00132300      -0.00085100       0.00153000
Cu       0.00645000       0.00407000      15.36154000  T       0.00023300      -0.00072500      -0.00006900
Cu       2.50221000      -0.00003000      15.35874000  T      -0.00116600      -0.00163600       0.00244600
Cu       4.97932000       0.02425000      15.34090000  T      -0.00186000      -0.00094200       0.00272900
Cu       7.50964000      12.40810000      15.49332000  T      -0.00058900      -0.01652100      -0.00105800
Cu      10.04484000       0.01922000      15.33795000  T       0.00012300      -0.00135100       0.00243500
Cu       0.04819000       2.50152000      15.34106000  T      -0.00136500      -0.00052700      -0.00111500
Cu       2.49428000       2.49871000      15.34092000  T       0.00210400      -0.00096500       0.00028900
Cu       4.95374000       2.48285000      15.39852000  T       0.00170300      -0.00159400       0.00547100
Cu       7.53789000       2.33860000      15.64120000  T      -0.00109000      -0.01833200       0.00869200
Cu      10.10796000       2.49200000      15.39507000  T      -0.00282400       0.00152300       0.00407400
Cu      12.48886000       5.00366000      15.32329000  T       0.00216600       0.00120300       0.00382100
Cu       2.39084000       4.99608000      15.34777000  T       0.00213700       0.00118600       0.00034000
Pd       4.89023000       5.11158000      15.50542000  T       0.00081300      -0.00266200       0.00038900
Y        7.51879000       4.98927000      17.25263000  T      -0.00164300      -0.00829400       0.00804900
Cu      10.00721000       5.12990000      15.40600000  T       0.00267600      -0.00684500       0.00319200
Cu       0.05557000       7.50256000      15.35737000  T      -0.00135500       0.00312200       0.00056600
Cu       2.53765000       7.48715000      15.35651000  T      -0.00003900       0.00261700       0.00212800
Cu       5.01991000       7.66703000      15.49471000  T      -0.00232000      -0.00218900      -0.00020900
Cu       7.54823000       7.47544000      15.48217000  T       0.00208200       0.00801900      -0.00696900
Cu      10.09195000       7.62517000      15.46679000  T      -0.00001900      -0.00407500       0.00140600
Cu      12.50863000      10.00263000      15.36807000  T       0.00128200       0.00216200       0.00104500
Cu       2.51038000       9.99701000      15.36757000  T      -0.00060800       0.00068300       0.00179500
Cu       5.01347000      10.09961000      15.35851000  T      -0.00111900      -0.00185900      -0.00057000
Cu       7.50614000       9.97572000      15.33736000  T       0.00004200      -0.00908400       0.00516900
Cu      10.00782000      10.08028000      15.35164000  T       0.00056700      -0.00502900      -0.00047700
O        6.03787000       3.61230000      16.50538000  T       0.00620000      -0.00472900       0.00575900
O        6.13316000       6.60548000      16.68264000  T       0.01277400      -0.00291800      -0.01210300
O        8.98383000       6.52837000      16.59171000  T      -0.00523100      -0.01547700      -0.01474700
O        9.02049000       3.73892000      16.35674000  T      -0.00921200      -0.00521200       0.00678800
C        7.58671000       1.49200000      17.46366000  T      -0.00121200      -0.03564800       0.00545000
O        7.65758000       2.50151000      18.45767000  T       0.00243400      -0.04847800       0.00657700
O        7.50177000       0.33081000      17.86482000  T       0.00059900      -0.04167700      -0.00833800
H        7.59691000       2.04499000      19.32982000  T       0.01614600      -0.04836100       0.00649400
108
Lattice="12.515153631 0.0 0.0 0.0 12.515153631 0.0 0.0 0.0 25.30973" Properties=species:S:1:pos:R:3:move_mask:L:1:forces:R:3 stress="0.007694064337204439 -2.9990451349869056e-05 -4.826559007045524e-05 -2.9990451349869056e-05 0.007393928887868092 0.00042325545835352136 -4.826559007045524e-05 0.00042325545835352136 0.001895240487583577" free_energy=-444.59475551 energy=-444.59263771 pbc="T T T"
Cu       1.25152000       1.25152000      10.00000000  F      -0.00080200      -0.01735000      -0.07942100
Cu       3.75455000       1.25152000      10.00000000  F       0.00835800       0.00117900      -0.07171700
Cu       6.25758000       1.25152000      10.00000000  F      -0.01399200       0.01213800      -0.04925400
Cu       8.76061000       1.25152000      10.00000000  F       0.01151200       0.00447500      -0.04193900
Cu      11.26364000       1.25152000      10.00000000  F      -0.00683200      -0.00226700      -0.07397000
Cu       1.25152000       3.75455000      10.00000000  F      -0.00086100       0.00070300      -0.06971800
Cu       3.75455000       3.75455000      10.00000000  F       0.01833700      -0.00644800      -0.05961900
Cu       6.25758000       3.75455000      10.00000000  F      -0.02072100      -0.00833700      -0.08208600
Cu       8.76061000       3.75455000      10.00000000  F       0.02118600      -0.00503500      -0.08092300
Cu      11.26364000       3.75455000      10.00000000  F      -0.01665700       0.00842500      -0.05729200
Cu       1.25152000       6.25758000      10.00000000  F      -0.00188700       0.00042500      -0.07637000
Cu       3.75455000       6.25758000      10.00000000  F       0.01867600       0.01549100      -0.06812600
Cu       6.25758000       6.25758000      10.00000000  F      -0.02067700       0.01477600      -0.08945400
Cu       8.76061000       6.25758000      10.00000000  F       0.02123300       0.01547700      -0.08406200
Cu      11.26364000       6.25758000      10.00000000  F      -0.01566100       0.00193800      -0.07158900
Cu       1.25152000       8.76061000      10.00000000  F      -0.00196900       0.00682200      -0.07610700
Cu       3.75455000       8.76061000      10.00000000  F       0.00298300      -0.01815800      -0.07088200
Cu       6.25758000       8.76061000      10.00000000  F      -0.00619900      -0.02234400      -0.05982200
Cu       8.76061000       8.76061000      10.00000000  F       0.00815500      -0.01687200      -0.05283200
Cu      11.26364000       8.76061000      10.00000000  F      -0.00472200      -0.01593000      -0.07265200
Cu       1.25152000      11.26364000      10.00000000  F      -0.00497900       0.00401800      -0.01594500
Cu       3.75455000      11.26364000      10.00000000  F      -0.00709500       0.00668400      -0.07008900
Cu       6.25758000      11.26364000      10.00000000  F       0.00341200       0.01009300      -0.06989000
Cu       8.76061000      11.26364000      10.00000000  F      -0.00678400       0.00634100      -0.07125400
Cu      11.26364000      11.26364000      10.00000000  F       0.01316500       0.00707400      -0.06932300
Cu       0.00000000       0.00000000      11.76991000  F      -0.02368900       0.04151300       0.04026200
Cu       2.50303000       0.00000000      11.76991000  F       0.04072400       0.01484400       0.02834800
Cu       5.00606000       0.00000000      11.76991000  F       0.07984900       0.07384700       0.07204400
Cu       7.50909000       0.00000000      11.76991000  F       0.01165900       0.07100800       0.04504000
Cu      10.01212000       0.00000000      11.76991000  F      -0.06852500       0.06958600       0.08840200
Cu       0.00000000       2.50303000      11.76991000  F      -0.09480400       0.03127600       0.01613700
Cu       2.50303000       2.50303000      11.76991000  F       0.07283300       0.03677500       0.01656800
Cu       5.00606000       2.50303000      11.76991000  F       0.03231800      -0.01262900       0.10325600
Cu       7.50909000       2.50303000      11.76991000  F      -0.02398100      -0.01190200       0.20440800
Cu      10.01212000       2.50303000      11.76991000  F      -0.01836500      -0.02059000       0.08991300
Cu       0.00000000       5.00606000      11.76991000  F      -0.08558200       0.04233300       0.00755600
Cu       2.50303000       5.00606000      11.76991000  F       0.04615100       0.01869100       0.01343100
Cu       5.00606000       5.00606000      11.76991000  F       0.01445400      -0.02607600       0.12337300
Cu       7.50909000       5.00606000      11.76991000  F      -0.05663500      -0.04266800       0.15785700
Cu      10.01212000       5.00606000      11.76991000  F      -0.03038400      -0.01980400       0.08017600
Cu       0.00000000       7.50909000      11.76991000  F      -0.06662500      -0.00290200       0.04629100
Cu       2.50303000       7.50909000      11.76991000  F       0.05400000       0.04309900       0.00447000
Cu       5.00606000       7.50909000      11.76991000  F      -0.00447200       0.06846900       0.01841800
Cu       7.50909000       7.50909000      11.76991000  F      -0.03882300       0.04280900       0.04930900
Cu      10.01212000       7.50909000      11.76991000  F       0.06094300       0.09121200      -0.00968200
Cu       0.00000000      10.01212000      11.76991000  F      -0.00950100      -0.04621800       0.06194400
Cu       2.50303000      10.01212000      11.76991000  F       0.03944700      -0.04427200       0.06937800
Cu       5.00606000      10.01212000      11.76991000  F       0.09535900      -0.03356300       0.10563900
Cu       7.50909000      10.01212000      11.76991000  F       0.01803900      -0.03680700       0.09681900
Cu      10.01212000      10.01212000      11.76991000  F      -0.07953900      -0.03076700       0.11419900
Cu       1.25922000       1.23630000      13.56588000  T      -0.00011500       0.00150900      -0.00083600
Cu       3.77393000       1.27166000      13.58237000  T       0.00278900      -0.00007900       0.00151400
Cu       6.29662000       1.26666000      13.62853000  T       0.00054000      -0.00018000       0.00229000
Cu       8.74191000       1.26774000      13.62498000  T      -0.00257000      -0.00091800       0.00251500
Cu      11.26035000       1.27626000      13.58414000  T      -0.00459800       0.00133700       0.00184100
Cu       1.23700000       3.74676000      13.55373000  T       0.00137600       0.00187200       0.00089900
Cu       3.75585000       3.77665000      13.59022000  T       0.00386400      -0.00277500      -0.00148400
Cu       6.27648000       3.75521000      13.60046000  T       0.00351100      -0.00125200       0.00182400
Cu       8.72078000       3.75413000      13.59428000  T      -0.00091000      -0.00112000       0.00404000
Cu      11.22566000       3.78661000      13.58813000  T      -0.00087500       0.00013600       0.00131000
Cu       1.24278000       6.25943000      13.56152000  T       0.00112300       0.00124600       0.00154100
Cu       3.75391000       6.29235000      13.57449000  T       0.00336500      -0.00218500       0.00060700
Cu       6.26695000       6.24995000      13.57209000  T       0.00374300      -0.00218700       0.00081000
Cu       8.73974000       6.25603000      13.54505000  T       0.00100000      -0.00420300       0.00178900
Cu      11.23523000       6.28473000      13.59499000  T      -0.00079000      -0.00307500       0.00143800
Cu       1.26608000       8.76256000      13.58019000  T      -0.00046800       0.00026600      -0.00100100
Cu       3.78789000       8.76761000      13.60681000  T       0.00067000      -0.00209700      -0.00030900
Cu       6.27933000       8.73245000      13.60581000  T       0.00024600      -0.00239500      -0.00149800
Cu       8.76448000       8.73409000      13.60757000  T       0.00004800      -0.00400200      -0.00148000
Cu      11.26194000       8.76611000      13.59969000  T      -0.00178400      -0.00241200       0.00047100
Cu       1.25003000      11.25432000      13.59176000  T      -0.00016800       0.00064100      -0.00116400
Cu       3.74752000      11.27177000      13.56982000  T       0.00091300      -0.00041600      -0.00072000
Cu       6.26975000      11.28210000      13.58535000  T       0.00022400      -0.00231100       0.00103900
Cu       8.74795000      11.28099000      13.58934000  T      -0.00101900      -0.00384100       0.00039700
Cu      11.27164000      11.27300000      13.56982000  T      -0.00262800      -0.00024200      -0.00043700
Cu       0.00652000       0.00397000      15.36202000  T      -0.00078400       0.00049600      -0.00196200
Cu       2.50214000      -0.00015000      15.35942000  T      -0.00167400      -0.00106700       0.00111600
Cu       4.97915000       0.02410000      15.34145000  T      -0.00229700      -0.00037900       0.00238600
Cu       7.50960000      12.40690000      15.49328000  T      -0.00121100      -0.02088400       0.00165100
Cu      10.04490000       0.01910000      15.33852000  T      -0.00086400      -0.00150700       0.00175000
Cu       0.04808000       2.50144000      15.34138000  T      -0.00207200       0.00063700      -0.00287200
Cu       2.49441000       2.49867000      15.34132000  T       0.00262600      -0.00072100      -0.00119100
Cu       4.95378000       2.48262000      15.39928000  T       0.00319900      -0.00062700       0.00626800
Cu       7.53777000       2.33755000      15.64147000  T      -0.00127900      -0.02435900       0.01625200
Cu      10.10775000       2.49208000      15.39579000  T      -0.00503100       0.00354200       0.00452200
Cu      12.48907000       5.00376000      15.32400000  T       0.00190100       0.00210000       0.00299600
Cu       2.39090000       4.99619000      15.34816000  T       0.00632200       0.00198400      -0.00071700
Pd       4.89054000       5.11125000      15.50535000  T       0.01404600      -0.01047700      -0.00547700
Y        7.51864000       4.98858000      17.25357000  T      -0.00301300      -0.00484500       0.00492600
Cu      10.00758000       5.12936000      15.40652000  T       0.00004400      -0.01019400       0.00438200
Cu       0.05545000       7.50280000      15.35779000  T      -0.00200100       0.00477400      -0.00020700
Cu       2.53761000       7.48736000      15.35704000  T      -0.00014500       0.00381800       0.00119100
Cu       5.01963000       7.66687000      15.49492000  T      -0.00053600      -0.00431500      -0.00012200
Cu       7.54836000       7.47645000      15.48166000  T       0.00208900       0.00152000      -0.00456700
Cu      10.09196000       7.62489000      15.46714000  T      -0.00093700      -0.00649500       0.00098100
Cu      12.50876000      10.00279000      15.36860000  T       0.00066000       0.00340700      -0.00014100
Cu       2.51035000       9.99707000      15.36816000  T      -0.00054500       0.00118700       0.00061700
Cu       5.01337000      10.09947000      15.35875000  T      -0.00133300      -0.00278300      -0.00119000
Cu       7.50611000       9.97515000      15.33813000  T      -0.00016300      -0.01259600       0.00456300
Cu      10.00787000      10.07987000      15.35193000  T       0.00031800      -0.00606500      -0.00132400
O        6.03812000       3.61209000      16.50596000  T       0.00469000      -0.00640900       0.00706300
O        6.13404000       6.60516000      16.68194000  T       0.01056800      -0.00159400      -0.01246300
O        8.98339000       6.52713000      16.59069000  T      -0.00368100      -0.01200300      -0.01403100
O        9.01993000       3.73868000      16.35774000  T      -0.00522200      -0.00857500       0.00485400
C        7.58675000       1.49005000      17.46370000  T      -0.00180200      -0.03371300      -0.00436200
O        7.65787000       2.49882000      18.45751000  T       0.00285200      -0.04451900       0.00865500
O        7.50185000       0.32854000      17.86391000  T      -0.00023000      -0.05153100      -0.00455300
H        7.59780000       2.04252000      19.32982000  T       0.01598800      -0.04970500       0.00638900
108
Lattice="12.515153631 0.0 0.0 0.0 12.515153631 0.0 0.0 0.0 25.30973" Properties=species:S:1:pos:R:3:move_mask:L:1:forces:R:3 stress="0.007699219823742419 -2.9784481548714906e-05 -4.8596390054127046e-05 -2.9784481548714906e-05 0.007398759815931525 0.000416589526607078 -4.8596390054127046e-05 0.000416589526607078 0.0019008516042877464" free_energy=-444.59696325 energy=-444.59483843 pbc="T T T"
Cu       1.25152000       1.25152000      10.00000000  F      -0.00069900      -0.01832600      -0.07945100
Cu       3.75455000       1.25152000      10.00000000  F       0.00854200       0.00023200      -0.07174100
Cu       6.25758000       1.25152000      10.00000000  F      -0.01374600       0.01118300      -0.04919200
Cu       8.76061000       1.25152000      10.00000000  F       0.01167800       0.00352300      -0.04182000
Cu      11.26364000       1.25152000      10.00000000  F      -0.00673200      -0.00322500      -0.07386400
Cu       1.25152000       3.75455000      10.00000000  F      -0.00074000       0.00005900      -0.06965400
Cu       3.75455000       3.75455000      10.00000000  F       0.01849400      -0.00714900      -0.05956600
Cu       6.25758000       3.75455000      10.00000000  F      -0.02049700      -0.00908700      -0.08201100
Cu       8.76061000       3.75455000      10.00000000  F       0.02136700      -0.00579500      -0.08080200
Cu      11.26364000       3.75455000      10.00000000  F      -0.01654800       0.00773700      -0.05713200
Cu       1.25152000       6.25758000      10.00000000  F      -0.00176800      -0.00020400      -0.07605000
Cu       3.75455000       6.25758000      10.00000000  F       0.01876600       0.01483700      -0.06789500
Cu       6.25758000       6.25758000      10.00000000  F      -0.02050500       0.01405400      -0.08927800
Cu       8.76061000       6.25758000      10.00000000  F       0.02145900       0.01476100      -0.08385100
Cu      11.26364000       6.25758000      10.00000000  F      -0.01546500       0.00126800      -0.07125100
Cu       1.25152000       8.76061000      10.00000000  F      -0.00187000       0.00591000      -0.07567400
Cu       3.75455000       8.76061000      10.00000000  F       0.00304000      -0.01907700      -0.07060800
Cu       6.25758000       8.76061000      10.00000000  F      -0.00602700      -0.02321700      -0.05963100
Cu       8.76061000       8.76061000      10.00000000  F       0.00839300      -0.01773700      -0.05258400
Cu      11.26364000       8.76061000      10.00000000  F      -0.00450200      -0.01682400      -0.07227600
Cu       1.25152000      11.26364000      10.00000000  F      -0.00488500       0.00290800      -0.01575200
Cu       3.75455000      11.26364000      10.00000000  F      -0.00694900       0.00562400      -0.06999000
Cu       6.25758000      11.26364000      10.00000000  F       0.00363000       0.00910600      -0.06969600
Cu       8.76061000      11.26364000      10.00000000  F      -0.00659400       0.00535900      -0.07100200
Cu      11.26364000      11.26364000      10.00000000  F       0.01332100       0.00601900      -0.06911000
Cu       0.00000000       0.00000000      11.76991000  F      -0.02385600       0.04055700       0.04100200
Cu       2.50303000       0.00000000      11.76991000  F       0.04101600       0.01385900       0.02892400
Cu       5.00606000       0.00000000      11.76991000  F       0.08027000       0.07273400       0.07257600
Cu       7.50909000       0.00000000      11.76991000  F       0.01178700       0.06988900       0.04589000
Cu      10.01212000       0.00000000      11.76991000  F      -0.06870100       0.06854800       0.08897200
Cu       0.00000000       2.50303000      11.76991000  F      -0.09482700       0.03061200       0.01707600
Cu       2.50303000       2.50303000      11.76991000  F       0.07315600       0.03591200       0.01719500
Cu       5.00606000       2.50303000      11.76991000  F       0.03298500      -0.01371000       0.10373500
Cu       7.50909000       2.50303000      11.76991000  F      -0.02371100      -0.01297500       0.20536300
Cu      10.01212000       2.50303000      11.76991000  F      -0.01859700      -0.02149600       0.09065300
Cu       0.00000000       5.00606000      11.76991000  F      -0.08528700       0.04171100       0.00828200
Cu       2.50303000       5.00606000      11.76991000  F       0.04648000       0.01812600       0.01417500
Cu       5.00606000       5.00606000      11.76991000  F       0.01492100      -0.02695200       0.12375600
Cu       7.50909000       5.00606000      11.76991000  F      -0.05619000      -0.04396400       0.15819300
Cu      10.01212000       5.00606000      11.76991000  F      -0.03021100      -0.02088500       0.08055600
Cu       0.00000000       7.50909000      11.76991000  F      -0.06651300      -0.00398700       0.04686100
Cu       2.50303000       7.50909000      11.76991000  F       0.05426400       0.04198500       0.00501400
Cu       5.00606000       7.50909000      11.76991000  F      -0.00434400       0.06728400       0.01860300
Cu       7.50909000       7.50909000      11.76991000  F      -0.03840800       0.04141300       0.04933300
Cu      10.01212000       7.50909000      11.76991000  F       0.06138600       0.08984200      -0.00944800
Cu       0.00000000      10.01212000      11.76991000  F      -0.00953000      -0.04740600       0.06239200
Cu       2.50303000      10.01212000      11.76991000  F       0.03962400      -0.04542800       0.06969300
Cu       5.00606000      10.01212000      11.76991000  F       0.09546600      -0.03469000       0.10586800
Cu       7.50909000      10.01212000      11.76991000  F       0.01817800      -0.03787800       0.09677000
Cu      10.01212000      10.01212000      11.76991000  F      -0.07930700      -0.03200300       0.11431500
Cu       1.25923000       1.23636000      13.56585000  T      -0.00034600      -0.00011400      -0.00014800
Cu       3.77409000       1.27162000      13.58246000  T       0.00094800      -0.00087100       0.00089600
Cu       6.29664000       1.26661000      13.62867000  T       0.00047100      -0.00120000       0.00157500
Cu       8.74176000       1.26764000      13.62513000  T      -0.00079600      -0.00154100       0.00160800
Cu      11.26011000       1.27631000      13.58424000  T      -0.00185700      -0.00027000       0.00088900
Cu       1.23709000       3.74683000      13.55378000  T       0.00046300       0.00070000       0.00065200
Cu       3.75607000       3.77647000      13.59016000  T       0.00157400      -0.00161800      -0.00005600
Cu       6.27666000       3.75509000      13.60055000  T       0.00164700      -0.00136300       0.00135500
Cu       8.72073000       3.75401000      13.59448000  T       0.00011300      -0.00137300       0.00198200
Cu      11.22562000       3.78658000      13.58821000  T      -0.00019400      -0.00036800       0.00103000
Cu       1.24285000       6.25946000      13.56161000  T       0.00026900       0.00059300       0.00081200
Cu       3.75410000       6.29220000      13.57453000  T       0.00103900      -0.00096500       0.00043800
Cu       6.26713000       6.24979000      13.57210000  T       0.00158900      -0.00140600      -0.00001400
Cu       8.73981000       6.25575000      13.54512000  T       0.00131200      -0.00239600       0.00048200
Cu      11.23521000       6.28452000      13.59508000  T       0.00013400      -0.00158500       0.00080100
Cu       1.26607000       8.76255000      13.58015000  T      -0.00048700      -0.00003800      -0.00045700
Cu       3.78793000       8.76747000      13.60680000  T      -0.00031600      -0.00124200      -0.00015100
Cu       6.27933000       8.73230000      13.60572000  T       0.00003800      -0.00145400      -0.00085600
Cu       8.76448000       8.73384000      13.60748000  T       0.00066100      -0.00222800      -0.00082900
Cu      11.26186000       8.76596000      13.59971000  T      -0.00019900      -0.00142800       0.00007500
Cu       1.25004000      11.25434000      13.59170000  T      -0.00035200      -0.00055200      -0.00058800
Cu       3.74758000      11.27173000      13.56979000  T       0.00003900      -0.00094300      -0.00014700
Cu       6.26976000      11.28194000      13.58541000  T       0.00024100      -0.00177700       0.00051200
Cu       8.74790000      11.28076000      13.58936000  T       0.00005300      -0.00250100       0.00024700
Cu      11.27152000      11.27296000      13.56980000  T      -0.00086500      -0.00087500      -0.00013400
Cu       0.00648000       0.00399000      15.36192000  T      -0.00049100      -0.00025400      -0.00114500
Cu       2.50206000      -0.00022000      15.35946000  T      -0.00089300      -0.00103700       0.00031200
Cu       4.97904000       0.02405000      15.34157000  T      -0.00096400      -0.00092800       0.00113300
Cu       7.50953000      12.40573000      15.49340000  T      -0.00037900      -0.01031100       0.00111500
Cu      10.04485000       0.01899000      15.33861000  T      -0.00024200      -0.00131700       0.00047500
Cu       0.04798000       2.50145000      15.34124000  T      -0.00090700      -0.00010500      -0.00109100
Cu       2.49455000       2.49862000      15.34126000  T       0.00094000      -0.00065700      -0.00022500
Cu       4.95396000       2.48254000      15.39961000  T       0.00167900      -0.00096500       0.00315700
Cu       7.53770000       2.33607000      15.64243000  T      -0.00054000      -0.01343300       0.01003600
Cu      10.10752000       2.49217000      15.39601000  T      -0.00173700       0.00014600       0.00174700
Cu      12.48920000       5.00384000      15.32416000  T       0.00116000       0.00069500       0.00109600
Cu       2.39126000       4.99626000      15.34812000  T       0.00268700       0.00045000      -0.00028100
Pd       4.89093000       5.11092000      15.50522000  T       0.00488500      -0.00481000      -0.00115200
Y        7.51850000       4.98826000      17.25380000  T      -0.00152800      -0.00556500       0.00284900
Cu      10.00759000       5.12872000      15.40675000  T       0.00009900      -0.00645600       0.00187100
Cu       0.05537000       7.50302000      15.35779000  T      -0.00057500       0.00170300      -0.00048900
Cu       2.53760000       7.48752000      15.35710000  T      -0.00041300       0.00120300       0.00020800
Cu       5.01960000       7.66661000      15.49488000  T      -0.00066600      -0.00175600      -0.00092200
Cu       7.54848000       7.47647000      15.48136000  T       0.00131200      -0.00012900      -0.00323300
Cu      10.09194000       7.62451000      15.46716000  T       0.00052500      -0.00323600      -0.00067500
Cu      12.50880000      10.00294000      15.36859000  T       0.00025500       0.00094900      -0.00071000
Cu       2.51034000       9.99711000      15.36818000  T      -0.00040000      -0.00003900      -0.00020900
Cu       5.01331000      10.09929000      15.35869000  T      -0.00054100      -0.00175100      -0.00042900
Cu       7.50610000       9.97443000      15.33834000  T       0.00012800      -0.00657600       0.00144500
Cu      10.00788000      10.07953000      15.35187000  T       0.00044500      -0.00316400      -0.00087400
O        6.03849000       3.61149000      16.50652000  T       0.00271100      -0.00620600       0.00522700
O        6.13479000       6.60497000      16.68109000  T       0.00550600      -0.00323300      -0.00679600
O        8.98314000       6.52611000      16.58969000  T      -0.00161600      -0.01018200      -0.00809900
O        9.01945000       3.73795000      16.35816000  T      -0.00477600      -0.00791900       0.00463600
C        7.58662000       1.48686000      17.46382000  T      -0.00056000      -0.02447000      -0.00184500
O        7.65814000       2.49496000      18.45827000  T       0.00312800      -0.04189100       0.00675600
O        7.50195000       0.32505000      17.86322000  T       0.00039300      -0.04484400      -0.00486100
H        7.59912000       2.03814000      19.33040000  T       0.01498400      -0.05013500       0.00512600
108
Lattice="12.515153631 0.0 0.0 0.0 12.515153631 0.0 0.0 0.0 25.30973" Properties=species:S:1:pos:R:3:move_mask:L:1:forces:R:3 stress="0.007724017339499553 -3.0252594733156157e-05 -4.0488669699604694e-05 -3.0252594733156157e-05 0.007430229504944229 0.0003927219957097005 -4.0488669699604694e-05 0.0003927219957097005 0.0019467017303264847" free_energy=-444.59947735 energy=-444.59732871 pbc="T T T"
Cu       1.25152000       1.25152000      10.00000000  F      -0.00088900      -0.01827800      -0.07968300
Cu       3.75455000       1.25152000      10.00000000  F       0.00876200       0.00027800      -0.07190200
Cu       6.25758000       1.25152000      10.00000000  F      -0.01330400       0.01109400      -0.04909100
Cu       8.76061000       1.25152000      10.00000000  F       0.01141800       0.00352900      -0.04162800
Cu      11.26364000       1.25152000      10.00000000  F      -0.00704400      -0.00313700      -0.07374600
Cu       1.25152000       3.75455000      10.00000000  F      -0.00090400       0.00013900      -0.06986500
Cu       3.75455000       3.75455000      10.00000000  F       0.01864900      -0.00709200      -0.05963100
Cu       6.25758000       3.75455000      10.00000000  F      -0.02014900      -0.00906400      -0.08194800
Cu       8.76061000       3.75455000      10.00000000  F       0.02127700      -0.00577800      -0.08057900
Cu      11.26364000       3.75455000      10.00000000  F      -0.01691300       0.00777800      -0.05695600
Cu       1.25152000       6.25758000      10.00000000  F      -0.00188600      -0.00025800      -0.07629900
Cu       3.75455000       6.25758000      10.00000000  F       0.01898000       0.01481400      -0.06802900
Cu       6.25758000       6.25758000      10.00000000  F      -0.02020100       0.01402900      -0.08914600
Cu       8.76061000       6.25758000      10.00000000  F       0.02130600       0.01469200      -0.08369700
Cu      11.26364000       6.25758000      10.00000000  F      -0.01582900       0.00118300      -0.07104400
Cu       1.25152000       8.76061000      10.00000000  F      -0.00205800       0.00580500      -0.07582900
Cu       3.75455000       8.76061000      10.00000000  F       0.00324400      -0.01914700      -0.07096200
Cu       6.25758000       8.76061000      10.00000000  F      -0.00576800      -0.02320800      -0.05957700
Cu       8.76061000       8.76061000      10.00000000  F       0.00826400      -0.01778300      -0.05244800
Cu      11.26364000       8.76061000      10.00000000  F      -0.00476600      -0.01687300      -0.07244200
Cu       1.25152000      11.26364000      10.00000000  F      -0.00507800       0.00294300      -0.01610900
Cu       3.75455000      11.26364000      10.00000000  F      -0.00663500       0.00565100      -0.07035500
Cu       6.25758000      11.26364000      10.00000000  F       0.00397800       0.00916100      -0.06940400
Cu       8.76061000      11.26364000      10.00000000  F      -0.00687400       0.00550200      -0.07057600
Cu      11.26364000      11.26364000      10.00000000  F       0.01304100       0.00605000      -0.06930800
Cu       0.00000000       0.00000000      11.76991000  F      -0.02531000       0.04107200       0.04235700
Cu       2.50303000       0.00000000      11.76991000  F       0.04163300       0.01424000       0.02960900
Cu       5.00606000       0.00000000      11.76991000  F       0.08152600       0.07208000       0.07305800
Cu       7.50909000       0.00000000      11.76991000  F       0.01168700       0.06906500       0.04757500
Cu      10.01212000       0.00000000      11.76991000  F      -0.07014200       0.06819300       0.08983300
Cu       0.00000000       2.50303000      11.76991000  F      -0.09560600       0.03101400       0.01887800
Cu       2.50303000       2.50303000      11.76991000  F       0.07360600       0.03554400       0.01792700
Cu       5.00606000       2.50303000      11.76991000  F       0.03473500      -0.01501000       0.10363400
Cu       7.50909000       2.50303000      11.76991000  F      -0.02314200      -0.01441800       0.20708300
Cu      10.01212000       2.50303000      11.76991000  F      -0.01991600      -0.02208100       0.09180300
Cu       0.00000000       5.00606000      11.76991000  F      -0.08524400       0.04125200       0.00957300
Cu       2.50303000       5.00606000      11.76991000  F       0.04716200       0.01791900       0.01522400
Cu       5.00606000       5.00606000      11.76991000  F       0.01616800      -0.02783100       0.12360900
Cu       7.50909000       5.00606000      11.76991000  F      -0.05493100      -0.04614300       0.15811000
Cu      10.01212000       5.00606000      11.76991000  F      -0.03014500      -0.02252600       0.08074600
Cu       0.00000000       7.50909000      11.76991000  F      -0.06742600      -0.00534700       0.04784200
Cu       2.50303000       7.50909000      11.76991000  F       0.05512700       0.04043500       0.00592200
Cu       5.00606000       7.50909000      11.76991000  F      -0.00375000       0.06583600       0.01816000
Cu       7.50909000       7.50909000      11.76991000  F      -0.03719300       0.03933100       0.04882500
Cu      10.01212000       7.50909000      11.76991000  F       0.06174700       0.08750300      -0.00910100
Cu       0.00000000      10.01212000      11.76991000  F      -0.01055400      -0.04792500       0.06299200
Cu       2.50303000      10.01212000      11.76991000  F       0.03998100      -0.04566200       0.06963300
Cu       5.00606000      10.01212000      11.76991000  F       0.09595600      -0.03511500       0.10569500
Cu       7.50909000      10.01212000      11.76991000  F       0.01817500      -0.03855800       0.09589900
Cu      10.01212000      10.01212000      11.76991000  F      -0.07979200      -0.03290200       0.11403600
Cu       1.25924000       1.23648000      13.56575000  T      -0.00062300      -0.00021200       0.00031800
Cu       3.77462000       1.27139000      13.58280000  T      -0.00041600      -0.00086700       0.00020800
Cu       6.29675000       1.26618000      13.62921000  T       0.00039800      -0.00270900       0.00111900
Cu       8.74124000       1.26706000      13.62569000  T      -0.00043500      -0.00298800       0.00083300
Cu      11.25928000       1.27633000      13.58458000  T       0.00002300      -0.00107900      -0.00068400
Cu       1.23745000       3.74707000      13.55401000  T      -0.00012200       0.00039700       0.00013100
Cu       3.75688000       3.77572000      13.59000000  T       0.00025000      -0.00028000       0.00134800
Cu       6.27730000       3.75445000      13.60093000  T      -0.00005400      -0.00198400       0.00111400
Cu       8.72059000       3.75334000      13.59516000  T       0.00054800      -0.00300300      -0.00046500
Cu      11.22554000       3.78636000      13.58854000  T       0.00030500      -0.00062700       0.00078900
Cu       1.24312000       6.25955000      13.56194000  T      -0.00038400       0.00064700       0.00001100
Cu       3.75474000       6.29159000      13.57472000  T      -0.00004800      -0.00007300       0.00096800
Cu       6.26778000       6.24909000      13.57199000  T      -0.00043400      -0.00136000      -0.00178300
Cu       8.74018000       6.25461000      13.54530000  T       0.00194000      -0.00191700      -0.00126000
Cu      11.23519000       6.28367000      13.59543000  T       0.00051000      -0.00079400       0.00094500
Cu       1.26603000       8.76251000      13.58000000  T      -0.00032400       0.00070500       0.00019700
Cu       3.78798000       8.76692000      13.60674000  T      -0.00097500       0.00052100      -0.00018900
Cu       6.27928000       8.73164000      13.60535000  T      -0.00060400      -0.00013900      -0.00103500
Cu       8.76456000       8.73283000      13.60712000  T       0.00081500      -0.00079000      -0.00079400
Cu      11.26167000       8.76532000      13.59978000  T       0.00079000       0.00008700      -0.00030200
Cu       1.25004000      11.25431000      13.59149000  T      -0.00053500      -0.00000000      -0.00007200
Cu       3.74776000      11.27149000      13.56973000  T      -0.00021600      -0.00034700       0.00057100
Cu       6.26979000      11.28125000      13.58561000  T       0.00023100      -0.00138900      -0.00012200
Cu       8.74771000      11.27975000      13.58947000  T       0.00015300      -0.00162700       0.00021600
Cu      11.27108000      11.27275000      13.56977000  T      -0.00017100      -0.00039600       0.00034200
Cu       0.00631000       0.00401000      15.36151000  T      -0.00107400       0.00063000      -0.00077100
Cu       2.50178000      -0.00055000      15.35959000  T      -0.00053400      -0.00021100      -0.00052600
Cu       4.97866000       0.02367000      15.34200000  T      -0.00036700      -0.00204500      -0.00025000
Cu       7.50926000      12.40109000      15.49394000  T      -0.00058100      -0.00745800       0.00246100
Cu      10.04464000       0.01845000      15.33892000  T      -0.00031600      -0.00210300      -0.00075100
Cu       0.04767000       2.50145000      15.34075000  T       0.00007500       0.00036400       0.00021400
Cu       2.49504000       2.49836000      15.34105000  T      -0.00057400       0.00021100       0.00018800
Cu       4.95465000       2.48211000      15.40087000  T       0.00077800      -0.00097900       0.00141000
Cu       7.53740000       2.32999000      15.64651000  T      -0.00044900      -0.00924700       0.00959900
Cu      10.10684000       2.49214000      15.39670000  T       0.00198600      -0.00483200      -0.00141800
Cu      12.48980000       5.00407000      15.32469000  T       0.00129800       0.00044700       0.00006100
Cu       2.39252000       4.99638000      15.34795000  T       0.00012000      -0.00059300      -0.00026300
Pd       4.89195000       5.10983000      15.50510000  T       0.00666600      -0.00755200      -0.00021600
Y        7.51800000       4.98679000      17.25451000  T      -0.00038900      -0.00358100      -0.00496300
Cu      10.00758000       5.12582000      15.40761000  T      -0.00090400      -0.00988300      -0.00008000
Cu       0.05516000       7.50370000      15.35776000  T       0.00050400       0.00015600      -0.00013900
Cu       2.53755000       7.48798000      15.35727000  T      -0.00058800      -0.00049900      -0.00032800
Cu       5.01947000       7.66564000      15.49457000  T       0.00040500      -0.00066800      -0.00292200
Cu       7.54900000       7.47628000      15.48004000  T       0.00172600      -0.00334200      -0.00589400
Cu      10.09202000       7.62296000      15.46704000  T       0.00145900      -0.00222300      -0.00360000
Cu      12.50893000      10.00342000      15.36850000  T      -0.00067100       0.00024500      -0.00084600
Cu       2.51031000       9.99716000      15.36822000  T       0.00018300      -0.00023500      -0.00061700
Cu       5.01315000      10.09856000      15.35851000  T       0.00074300      -0.00117400      -0.00006000
Cu       7.50606000       9.97156000      15.33897000  T      -0.00002200      -0.00531900      -0.00248500
Cu      10.00791000      10.07819000      15.35166000  T      -0.00066300      -0.00180500      -0.00045300
O        6.04005000       3.60860000      16.50922000  T      -0.00134200      -0.00470900       0.00781000
O        6.13781000       6.60393000      16.67770000  T      -0.00323700      -0.00324900       0.00471000
O        8.98236000       6.52146000      16.58545000  T       0.00555400      -0.00452700       0.00361700
O        9.01729000       3.73444000      16.36023000  T      -0.00194500      -0.00757400       0.00794900
C        7.58619000       1.47271000      17.46480000  T       0.00170100      -0.01794100       0.00636800
O        7.65948000       2.47654000      18.46178000  T       0.00135300      -0.04986100       0.00821200
O        7.50249000       0.30866000      17.85968000  T       0.00062400      -0.03614100      -0.00995200
H        7.60536000       2.01681000      19.33306000  T       0.01288500      -0.04607200      -0.00713800
108
Lattice="12.515153631 0.0 0.0 0.0 12.515153631 0.0 0.0 0.0 25.30973" Properties=species:S:1:pos:R:3:move_mask:L:1:forces:R:3 stress="0.007675857855084239 -3.052097962556913e-05 -4.150603568712367e-05 -3.052097962556913e-05 0.0073795422093329305 0.0003807258151697529 -4.150603568712367e-05 0.0003807258151697529 0.0018959707441513058" free_energy=-444.60078759 energy=-444.59865035 pbc="T T T"
Cu       1.25152000       1.25152000      10.00000000  F      -0.00111400      -0.01834800      -0.07935200
Cu       3.75455000       1.25152000      10.00000000  F       0.00807500       0.00027200      -0.07196000
Cu       6.25758000       1.25152000      10.00000000  F      -0.01339600       0.01104700      -0.04959200
Cu       8.76061000       1.25152000      10.00000000  F       0.01184300       0.00340900      -0.04203800
Cu      11.26364000       1.25152000      10.00000000  F      -0.00653200      -0.00330800      -0.07363300
Cu       1.25152000       3.75455000      10.00000000  F      -0.00100200       0.00022500      -0.06994900
Cu       3.75455000       3.75455000      10.00000000  F       0.01802100      -0.00690700      -0.05986200
Cu       6.25758000       3.75455000      10.00000000  F      -0.02036400      -0.00889700      -0.08258700
Cu       8.76061000       3.75455000      10.00000000  F       0.02164800      -0.00571200      -0.08124600
Cu      11.26364000       3.75455000      10.00000000  F      -0.01641100       0.00783700      -0.05723200
Cu       1.25152000       6.25758000      10.00000000  F      -0.00192100       0.00024600      -0.07632400
Cu       3.75455000       6.25758000      10.00000000  F       0.01840700       0.01529200      -0.06821900
Cu       6.25758000       6.25758000      10.00000000  F      -0.02050600       0.01450300      -0.08978000
Cu       8.76061000       6.25758000      10.00000000  F       0.02166600       0.01519200      -0.08442300
Cu      11.26364000       6.25758000      10.00000000  F      -0.01534000       0.00166000      -0.07132400
Cu       1.25152000       8.76061000      10.00000000  F      -0.00221000       0.00639600      -0.07533900
Cu       3.75455000       8.76061000      10.00000000  F       0.00260100      -0.01866400      -0.07097000
Cu       6.25758000       8.76061000      10.00000000  F      -0.00598800      -0.02269100      -0.06009900
Cu       8.76061000       8.76061000      10.00000000  F       0.00870200      -0.01714800      -0.05293200
Cu      11.26364000       8.76061000      10.00000000  F      -0.00425900      -0.01616400      -0.07241700
Cu       1.25152000      11.26364000      10.00000000  F      -0.00535900       0.00318500      -0.01564800
Cu       3.75455000      11.26364000      10.00000000  F      -0.00727500       0.00587000      -0.07022300
Cu       6.25758000      11.26364000      10.00000000  F       0.00384500       0.00941000      -0.06974600
Cu       8.76061000      11.26364000      10.00000000  F      -0.00636700       0.00581600      -0.07080700
Cu      11.26364000      11.26364000      10.00000000  F       0.01353100       0.00633900      -0.06895800
Cu       0.00000000       0.00000000      11.76991000  F      -0.02524700       0.04115100       0.04226400
Cu       2.50303000       0.00000000      11.76991000  F       0.04118500       0.01436000       0.02950000
Cu       5.00606000       0.00000000      11.76991000  F       0.08096000       0.07196800       0.07311000
Cu       7.50909000       0.00000000      11.76991000  F       0.01172700       0.06886000       0.04789700
Cu      10.01212000       0.00000000      11.76991000  F      -0.06966900       0.06799500       0.08976200
Cu       0.00000000       2.50303000      11.76991000  F      -0.09526700       0.03084200       0.01918000
Cu       2.50303000       2.50303000      11.76991000  F       0.07332700       0.03526800       0.01811300
Cu       5.00606000       2.50303000      11.76991000  F       0.03451200      -0.01551600       0.10391500
Cu       7.50909000       2.50303000      11.76991000  F      -0.02313600      -0.01521400       0.20776300
Cu      10.01212000       2.50303000      11.76991000  F      -0.01958900      -0.02271900       0.09201800
Cu       0.00000000       5.00606000      11.76991000  F      -0.08460600       0.04131600       0.00977300
Cu       2.50303000       5.00606000      11.76991000  F       0.04715300       0.01814000       0.01572500
Cu       5.00606000       5.00606000      11.76991000  F       0.01557500      -0.02802200       0.12374600
Cu       7.50909000       5.00606000      11.76991000  F      -0.05479200      -0.04690100       0.15803400
Cu      10.01212000       5.00606000      11.76991000  F      -0.02922200      -0.02301600       0.08047500
Cu       0.00000000       7.50909000      11.76991000  F      -0.06704400      -0.00493800       0.04792400
Cu       2.50303000       7.50909000      11.76991000  F       0.05497200       0.04068900       0.00619300
Cu       5.00606000       7.50909000      11.76991000  F      -0.00462100       0.06594100       0.01792000
Cu       7.50909000       7.50909000      11.76991000  F      -0.03692200       0.03928700       0.04830000
Cu      10.01212000       7.50909000      11.76991000  F       0.06282900       0.08753900      -0.00948700
Cu       0.00000000      10.01212000      11.76991000  F      -0.01035300      -0.04739100       0.06270800
Cu       2.50303000      10.01212000      11.76991000  F       0.03950700      -0.04515900       0.06930400
Cu       5.00606000      10.01212000      11.76991000  F       0.09506700      -0.03475500       0.10536500
Cu       7.50909000      10.01212000      11.76991000  F       0.01823200      -0.03825300       0.09506500
Cu      10.01212000      10.01212000      11.76991000  F      -0.07894000      -0.03248900       0.11347400
Cu       1.25924000       1.23652000      13.56569000  T      -0.00075500      -0.00026100       0.00052200
Cu       3.77475000       1.27130000      13.58287000  T      -0.00120600      -0.00075200       0.00059500
Cu       6.29677000       1.26597000      13.62939000  T       0.00028500      -0.00302800       0.00224500
Cu       8.74105000       1.26679000      13.62588000  T      -0.00046400      -0.00360100       0.00147700
Cu      11.25906000       1.27631000      13.58463000  T       0.00089200      -0.00159500      -0.00102400
Cu       1.23758000       3.74716000      13.55404000  T       0.00000900       0.00037500       0.00014200
Cu       3.75713000       3.77549000      13.58997000  T      -0.00028800       0.00008600       0.00239800
Cu       6.27746000       3.75419000      13.60104000  T      -0.00091500      -0.00234300       0.00251100
Cu       8.72055000       3.75304000      13.59532000  T       0.00066500      -0.00397600      -0.00029300
Cu      11.22554000       3.78628000      13.58864000  T       0.00101100      -0.00098500       0.00090600
Cu       1.24321000       6.25960000      13.56201000  T      -0.00015600       0.00125800      -0.00014900
Cu       3.75493000       6.29140000      13.57478000  T      -0.00094700       0.00054900       0.00128100
Cu       6.26793000       6.24882000      13.57186000  T      -0.00153300      -0.00141000      -0.00128800
Cu       8.74035000       6.25418000      13.54528000  T       0.00229600      -0.00203000      -0.00120700
Cu      11.23522000       6.28338000      13.59556000  T       0.00137400      -0.00056400       0.00093300
Cu       1.26603000       8.76252000      13.57994000  T      -0.00022300       0.00160100       0.00018800
Cu       3.78795000       8.76678000      13.60669000  T      -0.00197100       0.00122200      -0.00011700
Cu       6.27922000       8.73143000      13.60517000  T      -0.00133100       0.00027000      -0.00105700
Cu       8.76461000       8.73249000      13.60697000  T       0.00126900      -0.00017800      -0.00110500
Cu      11.26168000       8.76514000      13.59977000  T       0.00187800       0.00107900      -0.00072900
Cu       1.25004000      11.25432000      13.59140000  T      -0.00069600       0.00041900      -0.00014700
Cu       3.74778000      11.27142000      13.56970000  T      -0.00102600       0.00001600       0.00094100
Cu       6.26978000      11.28101000      13.58565000  T      -0.00010300      -0.00096900       0.00002500
Cu       8.74766000      11.27939000      13.58949000  T       0.00049000      -0.00119700       0.00028400
Cu      11.27097000      11.27268000      13.56976000  T       0.00055500       0.00002400       0.00025800
Cu       0.00625000       0.00405000      15.36135000  T      -0.00096300       0.00115300      -0.00138200
Cu       2.50167000      -0.00065000      15.35960000  T      -0.00075000       0.00031500      -0.00129700
Cu       4.97850000       0.02350000      15.34212000  T      -0.00058900      -0.00185700      -0.00047000
Cu       7.50915000      12.39943000      15.49424000  T      -0.00089300      -0.00692100       0.00531400
Cu      10.04458000       0.01821000      15.33900000  T      -0.00024700      -0.00231300      -0.00129100
Cu       0.04760000       2.50146000      15.34061000  T       0.00082700       0.00053400       0.00016100
Cu       2.49517000       2.49829000      15.34098000  T      -0.00072500       0.00061900       0.00002300
Cu       4.95486000       2.48194000      15.40128000  T       0.00121700       0.00008900       0.00185900
Cu       7.53729000       2.32785000      15.64808000  T      -0.00073000      -0.00914500       0.01017500
Cu      10.10672000       2.49195000      15.39686000  T       0.00129300      -0.00504000      -0.00116300
Cu      12.49004000       5.00417000      15.32485000  T       0.00201000       0.00053200      -0.00028100
Cu       2.39292000       4.99640000      15.34787000  T      -0.00057300      -0.00071900      -0.00045000
Pd       4.89222000       5.10954000      15.50512000  T       0.01196900      -0.01463000       0.00025000
Y        7.51786000       4.98628000      17.25435000  T      -0.00127300      -0.00393200      -0.00113200
Cu      10.00755000       5.12463000      15.40787000  T      -0.00078800      -0.01035000      -0.00015400
Cu       0.05515000       7.50391000      15.35775000  T       0.00172900       0.00048800      -0.00036300
Cu       2.53751000       7.48811000      15.35730000  T      -0.00063000      -0.00062900      -0.00083000
Cu       5.01944000       7.66531000      15.49437000  T       0.00110000      -0.00071600      -0.00281400
Cu       7.54921000       7.47603000      15.47948000  T       0.00103200      -0.00563200      -0.00496600
Cu      10.09210000       7.62241000      15.46689000  T       0.00175700      -0.00257600      -0.00402300
Cu      12.50897000      10.00358000      15.36842000  T      -0.00034400       0.00079200      -0.00143900
Cu       2.51030000       9.99717000      15.36820000  T       0.00003300       0.00011900      -0.00125800
Cu       5.01310000      10.09830000      15.35845000  T       0.00052100      -0.00081600      -0.00001200
Cu       7.50603000       9.97048000      15.33908000  T      -0.00038300      -0.00489500      -0.00307100
Cu      10.00791000      10.07772000      15.35159000  T      -0.00053100      -0.00097100      -0.00068500
O        6.04035000       3.60760000      16.51045000  T      -0.00424400      -0.00639400       0.00720600
O        6.13835000       6.60348000      16.67720000  T      -0.00512100      -0.00234700       0.00476600
O        8.98253000       6.52009000      16.58468000  T       0.00525100      -0.00377200       0.00491800
O        9.01669000       3.73314000      16.36129000  T       0.00000700      -0.01044200       0.00834000
C        7.58618000       1.46820000      17.46537000  T       0.00052300      -0.02850200      -0.00190800
O        7.65990000       2.46968000      18.46277000  T       0.00199500      -0.03912200       0.00412600
O        7.50266000       0.30304000      17.85805000  T       0.00180400      -0.03388100      -0.01425300
H        7.60748000       2.00907000      19.33342000  T       0.01067600      -0.05089700       0.00513100
108
Lattice="12.515153631 0.0 0.0 0.0 12.515153631 0.0 0.0 0.0 25.30973" Properties=species:S:1:pos:R:3:move_mask:L:1:forces:R:3 stress="0.0077662224242087755 -3.050225509819148e-05 -3.177552295987167e-05 -3.050225509819148e-05 0.007463827548568858 0.0003472338772002633 -3.177552295987167e-05 0.0003472338772002633 0.001997051984444985" free_energy=-444.60557335 energy=-444.60344404 pbc="T T T"
Cu       1.25152000       1.25152000      10.00000000  F      -0.00106200      -0.01843000      -0.07935600
Cu       3.75455000       1.25152000      10.00000000  F       0.00798300       0.00024900      -0.07187800
Cu       6.25758000       1.25152000      10.00000000  F      -0.01327600       0.01107800      -0.04965200
Cu       8.76061000       1.25152000      10.00000000  F       0.01148100       0.00351600      -0.04217500
Cu      11.26364000       1.25152000      10.00000000  F      -0.00643200      -0.00330900      -0.07359800
Cu       1.25152000       3.75455000      10.00000000  F      -0.00098800       0.00041300      -0.07044900
Cu       3.75455000       3.75455000      10.00000000  F       0.01813300      -0.00656800      -0.05993200
Cu       6.25758000       3.75455000      10.00000000  F      -0.02022200      -0.00838800      -0.08250500
Cu       8.76061000       3.75455000      10.00000000  F       0.02140500      -0.00515200      -0.08113200
Cu      11.26364000       3.75455000      10.00000000  F      -0.01662800       0.00829300      -0.05723300
Cu       1.25152000       6.25758000      10.00000000  F      -0.00192700       0.00085600      -0.07649500
Cu       3.75455000       6.25758000      10.00000000  F       0.01863900       0.01575400      -0.06825400
Cu       6.25758000       6.25758000      10.00000000  F      -0.02039900       0.01489000      -0.08931400
Cu       8.76061000       6.25758000      10.00000000  F       0.02147900       0.01559800      -0.08394700
Cu      11.26364000       6.25758000      10.00000000  F      -0.01568700       0.00213100      -0.07096600
Cu       1.25152000       8.76061000      10.00000000  F      -0.00230600       0.00691800      -0.07479600
Cu       3.75455000       8.76061000      10.00000000  F       0.00260300      -0.01825300      -0.07070100
Cu       6.25758000       8.76061000      10.00000000  F      -0.00597800      -0.02237000      -0.05973000
Cu       8.76061000       8.76061000      10.00000000  F       0.00858400      -0.01692600      -0.05248000
Cu      11.26364000       8.76061000      10.00000000  F      -0.00427000      -0.01575400      -0.07195400
Cu       1.25152000      11.26364000      10.00000000  F      -0.00540100       0.00320300      -0.01543700
Cu       3.75455000      11.26364000      10.00000000  F      -0.00730400       0.00597900      -0.07000500
Cu       6.25758000      11.26364000      10.00000000  F       0.00378100       0.00943500      -0.06932500
Cu       8.76061000      11.26364000      10.00000000  F      -0.00659600       0.00585600      -0.07032900
Cu      11.26364000      11.26364000      10.00000000  F       0.01367500       0.00630000      -0.06880300
Cu       0.00000000       0.00000000      11.76991000  F      -0.02598200       0.04096600       0.04286100
Cu       2.50303000       0.00000000      11.76991000  F       0.04152800       0.01435900       0.02982300
Cu       5.00606000       0.00000000      11.76991000  F       0.08139600       0.07109100       0.07362400
Cu       7.50909000       0.00000000      11.76991000  F       0.01140900       0.06763100       0.04960600
Cu      10.01212000       0.00000000      11.76991000  F      -0.07071100       0.06686300       0.09055900
Cu       0.00000000       2.50303000      11.76991000  F      -0.09566700       0.03136800       0.02067000
Cu       2.50303000       2.50303000      11.76991000  F       0.07394500       0.03508100       0.01891000
Cu       5.00606000       2.50303000      11.76991000  F       0.03597700      -0.01693300       0.10465100
Cu       7.50909000       2.50303000      11.76991000  F      -0.02329700      -0.01705200       0.21050300
Cu      10.01212000       2.50303000      11.76991000  F      -0.02079500      -0.02366600       0.09360400
Cu       0.00000000       5.00606000      11.76991000  F      -0.08485500       0.04166300       0.01150500
Cu       2.50303000       5.00606000      11.76991000  F       0.04826500       0.01862900       0.01734600
Cu       5.00606000       5.00606000      11.76991000  F       0.01607600      -0.02886900       0.12379800
Cu       7.50909000       5.00606000      11.76991000  F      -0.05378200      -0.04915300       0.15835100
Cu      10.01212000       5.00606000      11.76991000  F      -0.02840700      -0.02438900       0.08103100
Cu       0.00000000       7.50909000      11.76991000  F      -0.06780100      -0.00531000       0.04914200
Cu       2.50303000       7.50909000      11.76991000  F       0.05562700       0.04013100       0.00737700
Cu       5.00606000       7.50909000      11.76991000  F      -0.00498300       0.06501400       0.01746400
Cu       7.50909000       7.50909000      11.76991000  F      -0.03556300       0.03724300       0.04815000
Cu      10.01212000       7.50909000      11.76991000  F       0.06402000       0.08559100      -0.00865700
Cu       0.00000000      10.01212000      11.76991000  F      -0.01082300      -0.04760600       0.06286600
Cu       2.50303000      10.01212000      11.76991000  F       0.03948600      -0.04484800       0.06887500
Cu       5.00606000      10.01212000      11.76991000  F       0.09461000      -0.03483200       0.10482300
Cu       7.50909000      10.01212000      11.76991000  F       0.01826000      -0.03938400       0.09406200
Cu      10.01212000      10.01212000      11.76991000  F      -0.07874800      -0.03333100       0.11329900
Cu       1.25922000       1.23663000      13.56556000  T      -0.00093800      -0.00016800       0.00036900
Cu       3.77506000       1.27101000      13.58313000  T      -0.00147800      -0.00002200       0.00004100
Cu       6.29686000       1.26510000      13.63013000  T       0.00087700      -0.00315700       0.00218100
Cu       8.74043000       1.26570000      13.62656000  T      -0.00048300      -0.00401200       0.00128600
Cu      11.25849000       1.27614000      13.58467000  T       0.00158500      -0.00177400      -0.00173800
Cu       1.23794000       3.74744000      13.55416000  T      -0.00092400       0.00050100      -0.00053600
Cu       3.75784000       3.77481000      13.59005000  T      -0.00104900       0.00126200       0.00218000
Cu       6.27790000       3.75321000      13.60156000  T      -0.00047600      -0.00234900       0.00133700
Cu       8.72050000       3.75180000      13.59578000  T       0.00074300      -0.00411300      -0.00113900
Cu      11.22563000       3.78594000      13.58903000  T       0.00058500      -0.00071300       0.00051100
Cu       1.24345000       6.25983000      13.56222000  T      -0.00092300       0.00189400      -0.00096600
Cu       3.75544000       6.29086000      13.57511000  T      -0.00015600       0.00075000       0.00297100
Cu       6.26828000       6.24789000      13.57140000  T      -0.00137700      -0.00042200      -0.00093300
Cu       8.74103000       6.25272000      13.54520000  T       0.00202400      -0.00144000      -0.00026300
Cu      11.23541000       6.28246000      13.59602000  T       0.00045000       0.00046900       0.00124900
Cu       1.26603000       8.76268000      13.57979000  T      -0.00051600       0.00194000       0.00024800
Cu       3.78772000       8.76645000      13.60652000  T      -0.00174400       0.00192400      -0.00027900
Cu       6.27892000       8.73079000      13.60455000  T      -0.00104100      -0.00014900      -0.00138000
Cu       8.76485000       8.73141000      13.60643000  T       0.00161600      -0.00055300      -0.00091500
Cu      11.26182000       8.76464000      13.59967000  T       0.00162800       0.00129200      -0.00080500
Cu       1.25001000      11.25437000      13.59111000  T      -0.00101700       0.00047700      -0.00004400
Cu       3.74780000      11.27121000      13.56969000  T      -0.00105100       0.00002100       0.00061200
Cu       6.26975000      11.28021000      13.58577000  T       0.00057100      -0.00069500      -0.00022200
Cu       8.74750000      11.27825000      13.58961000  T       0.00010900      -0.00094300       0.00019700
Cu      11.27070000      11.27246000      13.56973000  T       0.00048100      -0.00061400       0.00010100
Cu       0.00599000       0.00425000      15.36080000  T      -0.00112800       0.00140700      -0.00067100
Cu       2.50130000      -0.00091000      15.35950000  T      -0.00113200       0.00071800      -0.00151000
Cu       4.97796000       0.02284000      15.34239000  T      -0.00127200      -0.00208000      -0.00165000
Cu       7.50872000      12.39393000      15.49572000  T      -0.00115000      -0.00544800       0.00810000
Cu      10.04441000       0.01730000      15.33911000  T       0.00071200      -0.00345000      -0.00274500
Cu       0.04749000       2.50157000      15.34019000  T       0.00111200       0.00128000       0.00112800
Cu       2.49549000       2.49812000      15.34075000  T      -0.00153500       0.00083200       0.00083100
Cu       4.95555000       2.48136000      15.40262000  T      -0.00037300      -0.00271800       0.00035100
Cu       7.53693000       2.32090000      15.65342000  T       0.00048100      -0.00121500       0.00244800
Cu      10.10638000       2.49105000      15.39730000  T       0.00063000      -0.00521400      -0.00097700
Cu      12.49087000       5.00448000      15.32531000  T       0.00004800       0.00122300      -0.00061900
Cu       2.39405000       4.99642000      15.34761000  T      -0.00031900       0.00009900       0.00034800
Pd       4.89396000       5.10756000      15.50521000  T       0.01137600      -0.01185600      -0.00055400
Y        7.51736000       4.98468000      17.25398000  T       0.00017800       0.00116900       0.00024300
Cu      10.00732000       5.12032000      15.40869000  T      -0.00359300      -0.00759800       0.00061600
Cu       0.05526000       7.50458000      15.35768000  T       0.00197500       0.00050200      -0.00060500
Cu       2.53734000       7.48844000      15.35732000  T      -0.00086000      -0.00033500      -0.00114900
Cu       5.01952000       7.66418000      15.49362000  T       0.00349800      -0.00314700      -0.00208800
Cu       7.54989000       7.47464000      15.47760000  T       0.00104300      -0.01280500      -0.00011700
Cu      10.09241000       7.62043000      15.46617000  T      -0.00034800      -0.00531300      -0.00349500
Cu      12.50907000      10.00412000      15.36811000  T      -0.00087500       0.00039900      -0.00156900
Cu       2.51028000       9.99722000      15.36803000  T      -0.00035800       0.00029600      -0.00138800
Cu       5.01300000      10.09746000      15.35824000  T       0.00080300      -0.00101400      -0.00051900
Cu       7.50591000       9.96689000      15.33914000  T      -0.00012000      -0.00513500      -0.00616000
Cu      10.00788000      10.07623000      15.35131000  T      -0.00049000      -0.00143000      -0.00142700
O        6.04092000       3.60396000      16.51482000  T      -0.00289200      -0.00971500       0.01283900
O        6.13961000       6.60205000      16.67587000  T      -0.00541000       0.00068300       0.00405200
O        8.98341000       6.51572000      16.58252000  T       0.00559600       0.00044100       0.00252300
O        9.01511000       3.72825000      16.36507000  T       0.00467900      -0.01209600       0.00917600
C        7.58607000       1.45178000      17.46616000  T      -0.00121500      -0.02358600      -0.01482400
O        7.66134000       2.44660000      18.46615000  T       0.00326800      -0.04427500       0.01282000
O        7.50334000       0.28353000      17.85186000  T       0.00282400      -0.04065200      -0.01710900
H        7.61469000       1.98164000      19.33523000  T       0.00887600      -0.04494800      -0.00415900
108
Lattice="12.515153631 0.0 0.0 0.0 12.515153631 0.0 0.0 0.0 25.30973" Properties=species:S:1:pos:R:3:move_mask:L:1:forces:R:3 stress="0.007702434200942249 -3.0183938132771437e-05 -3.7399122682292485e-05 -3.0183938132771437e-05 0.007395832548151486 0.0003501985940350579 -3.7399122682292485e-05 0.0003501985940350579 0.0019202002825779842" free_energy=-444.6053005 energy=-444.6031554 pbc="T T T"
Cu       1.25152000       1.25152000      10.00000000  F      -0.00063700      -0.01737400      -0.07948800
Cu       3.75455000       1.25152000      10.00000000  F       0.00839600       0.00119000      -0.07159300
Cu       6.25758000       1.25152000      10.00000000  F      -0.01349000       0.01182200      -0.04915600
Cu       8.76061000       1.25152000      10.00000000  F       0.01084400       0.00422200      -0.04189300
Cu      11.26364000       1.25152000      10.00000000  F      -0.00669700      -0.00241100      -0.07370400
Cu       1.25152000       3.75455000      10.00000000  F      -0.00051900       0.00073100      -0.06995500
Cu       3.75455000       3.75455000      10.00000000  F       0.01837600      -0.00628900      -0.05927200
Cu       6.25758000       3.75455000      10.00000000  F      -0.02058700      -0.00821700      -0.08193900
Cu       8.76061000       3.75455000      10.00000000  F       0.02081000      -0.00502500      -0.08088600
Cu      11.26364000       3.75455000      10.00000000  F      -0.01667900       0.00852700      -0.05706900
Cu       1.25152000       6.25758000      10.00000000  F      -0.00143100       0.00053700      -0.07643800
Cu       3.75455000       6.25758000      10.00000000  F       0.01889800       0.01552500      -0.06790400
Cu       6.25758000       6.25758000      10.00000000  F      -0.02078700       0.01475600      -0.08905900
Cu       8.76061000       6.25758000      10.00000000  F       0.02086700       0.01545800      -0.08405000
Cu      11.26364000       6.25758000      10.00000000  F      -0.01574100       0.00186900      -0.07120400
Cu       1.25152000       8.76061000      10.00000000  F      -0.00182200       0.00681700      -0.07555200
Cu       3.75455000       8.76061000      10.00000000  F       0.00305300      -0.01822200      -0.07099100
Cu       6.25758000       8.76061000      10.00000000  F      -0.00623900      -0.02213000      -0.05978800
Cu       8.76061000       8.76061000      10.00000000  F       0.00789700      -0.01662600      -0.05282700
Cu      11.26364000       8.76061000      10.00000000  F      -0.00453800      -0.01566200      -0.07275800
Cu       1.25152000      11.26364000      10.00000000  F      -0.00497700       0.00403800      -0.01604700
Cu       3.75455000      11.26364000      10.00000000  F      -0.00673700       0.00678700      -0.07031400
Cu       6.25758000      11.26364000      10.00000000  F       0.00364100       0.01025400      -0.06921600
Cu       8.76061000      11.26364000      10.00000000  F      -0.00731200       0.00670100      -0.07048100
Cu      11.26364000      11.26364000      10.00000000  F       0.01326400       0.00717200      -0.06944300
Cu       0.00000000       0.00000000      11.76991000  F      -0.02585400       0.04231700       0.04234100
Cu       2.50303000       0.00000000      11.76991000  F       0.04229400       0.01566900       0.02955600
Cu       5.00606000       0.00000000      11.76991000  F       0.08174400       0.07232300       0.07350200
Cu       7.50909000       0.00000000      11.76991000  F       0.01079300       0.06866000       0.04922400
Cu      10.01212000       0.00000000      11.76991000  F      -0.07154000       0.06810400       0.09005100
Cu       0.00000000       2.50303000      11.76991000  F      -0.09532100       0.03230400       0.01997800
Cu       2.50303000       2.50303000      11.76991000  F       0.07453700       0.03608200       0.01849300
Cu       5.00606000       2.50303000      11.76991000  F       0.03592200      -0.01612800       0.10444700
Cu       7.50909000       2.50303000      11.76991000  F      -0.02410100      -0.01647100       0.20995200
Cu      10.01212000       2.50303000      11.76991000  F      -0.02123900      -0.02307100       0.09286600
Cu       0.00000000       5.00606000      11.76991000  F      -0.08438300       0.04139100       0.01060300
Cu       2.50303000       5.00606000      11.76991000  F       0.04886700       0.01840300       0.01684700
Cu       5.00606000       5.00606000      11.76991000  F       0.01584800      -0.02900100       0.12351900
Cu       7.50909000       5.00606000      11.76991000  F      -0.05471600      -0.04918600       0.15783200
Cu      10.01212000       5.00606000      11.76991000  F      -0.02883600      -0.02456300       0.08016200
Cu       0.00000000       7.50909000      11.76991000  F      -0.06748300      -0.00589900       0.04836100
Cu       2.50303000       7.50909000      11.76991000  F       0.05638400       0.03959400       0.00682700
Cu       5.00606000       7.50909000      11.76991000  F      -0.00492600       0.06477300       0.01722500
Cu       7.50909000       7.50909000      11.76991000  F      -0.03646300       0.03734500       0.04770000
Cu      10.01212000       7.50909000      11.76991000  F       0.06332500       0.08555000      -0.00949700
Cu       0.00000000      10.01212000      11.76991000  F      -0.01071000      -0.04707300       0.06233700
Cu       2.50303000      10.01212000      11.76991000  F       0.04035100      -0.04439600       0.06858200
Cu       5.00606000      10.01212000      11.76991000  F       0.09506400      -0.03424500       0.10472100
Cu       7.50909000      10.01212000      11.76991000  F       0.01757400      -0.03852900       0.09383300
Cu      10.01212000      10.01212000      11.76991000  F      -0.07973400      -0.03257700       0.11280200
Cu       1.25921000       1.23663000      13.56557000  T      -0.00016600       0.00123700       0.00012400
Cu       3.77503000       1.27102000      13.58312000  T      -0.00052300       0.00105300       0.00009200
Cu       6.29686000       1.26511000      13.63011000  T       0.00044700      -0.00274000       0.00241600
Cu       8.74046000       1.26571000      13.62654000  T      -0.00184500      -0.00372700       0.00141200
Cu      11.25854000       1.27613000      13.58465000  T       0.00076800      -0.00070800      -0.00173000
Cu       1.23791000       3.74743000      13.55415000  T       0.00024100       0.00090500      -0.00061100
Cu       3.75778000       3.77486000      13.59007000  T      -0.00026900       0.00095000       0.00198700
Cu       6.27787000       3.75324000      13.60154000  T      -0.00066500      -0.00301300       0.00148500
Cu       8.72052000       3.75183000      13.59574000  T      -0.00043400      -0.00498100      -0.00130700
Cu      11.22564000       3.78595000      13.58902000  T       0.00067700      -0.00080500       0.00032600
Cu       1.24343000       6.25984000      13.56220000  T       0.00029000       0.00129200      -0.00102200
Cu       3.75540000       6.29090000      13.57512000  T       0.00081000      -0.00014600       0.00331700
Cu       6.26824000       6.24793000      13.57141000  T      -0.00180000      -0.00128700      -0.00116200
Cu       8.74102000       6.25278000      13.54520000  T       0.00134500      -0.00257100      -0.00077600
Cu      11.23541000       6.28251000      13.59601000  T       0.00033200      -0.00060800       0.00132800
Cu       1.26602000       8.76269000      13.57980000  T       0.00034100       0.00182000      -0.00005700
Cu       3.78771000       8.76649000      13.60652000  T      -0.00092300       0.00145700      -0.00033900
Cu       6.27893000       8.73082000      13.60456000  T      -0.00160900      -0.00037000      -0.00167200
Cu       8.76485000       8.73146000      13.60644000  T       0.00052800      -0.00079800      -0.00141100
Cu      11.26184000       8.76468000      13.59967000  T       0.00116400       0.00104400      -0.00092400
Cu       1.25000000      11.25437000      13.59113000  T      -0.00036000       0.00156800      -0.00017400
Cu       3.74779000      11.27122000      13.56969000  T      -0.00001200       0.00091000       0.00052800
Cu       6.26975000      11.28024000      13.58576000  T       0.00025700      -0.00016500      -0.00010800
Cu       8.74751000      11.27830000      13.58960000  T      -0.00111900      -0.00055600       0.00024300
Cu      11.27072000      11.27246000      13.56973000  T      -0.00023200       0.00039000      -0.00011900
Cu       0.00599000       0.00426000      15.36081000  T      -0.00116200       0.00251800      -0.00018600
Cu       2.50131000      -0.00089000      15.35949000  T      -0.00064400       0.00147800      -0.00088600
Cu       4.97797000       0.02285000      15.34236000  T      -0.00139600      -0.00181600      -0.00113900
Cu       7.50873000      12.39416000      15.49572000  T      -0.00204400      -0.00951900       0.00807800
Cu      10.04443000       0.01731000      15.33908000  T      -0.00028700      -0.00346600      -0.00179900
Cu       0.04751000       2.50158000      15.34022000  T       0.00142800       0.00174500       0.00096200
Cu       2.49546000       2.49814000      15.34077000  T      -0.00034200       0.00131500       0.00052900
Cu       4.95551000       2.48136000      15.40255000  T       0.00040100      -0.00224800       0.00111500
Cu       7.53696000       2.32125000      15.65317000  T      -0.00062200      -0.00491800       0.00555600
Cu      10.10641000       2.49105000      15.39727000  T       0.00041400      -0.00592700      -0.00098100
Cu      12.49083000       5.00448000      15.32527000  T       0.00142900       0.00135200       0.00002700
Cu       2.39398000       4.99642000      15.34763000  T       0.00204600       0.00012900       0.00004400
Pd       4.89400000       5.10751000      15.50519000  T       0.02419300      -0.02547000      -0.00017200
Y        7.51738000       4.98476000      17.25401000  T      -0.00167900      -0.00512400       0.00081200
Cu      10.00730000       5.12046000      15.40865000  T      -0.00367500      -0.01145200       0.00108200
Cu       0.05527000       7.50455000      15.35767000  T       0.00239300       0.00106500       0.00032200
Cu       2.53734000       7.48842000      15.35730000  T       0.00004300      -0.00017200      -0.00054400
Cu       5.01955000       7.66421000      15.49363000  T       0.00343700      -0.00404600      -0.00200600
Cu       7.54987000       7.47459000      15.47769000  T       0.00058600      -0.01211400      -0.00113100
Cu      10.09240000       7.62048000      15.46617000  T      -0.00003100      -0.00547800      -0.00331100
Cu      12.50906000      10.00410000      15.36811000  T      -0.00058500       0.00159600      -0.00040400
Cu       2.51028000       9.99722000      15.36802000  T       0.00049600       0.00090300      -0.00045300
Cu       5.01301000      10.09749000      15.35825000  T       0.00101500      -0.00101600      -0.00010600
Cu       7.50592000       9.96702000      15.33907000  T      -0.00100400      -0.00699600      -0.00514300
Cu      10.00788000      10.07629000      15.35131000  T      -0.00132000      -0.00175100      -0.00054200
O        6.04086000       3.60407000      16.51471000  T      -0.00679500      -0.00500200       0.00564100
O        6.13948000       6.60213000      16.67600000  T      -0.00755900       0.00122400       0.00492600
O        8.98343000       6.51597000      16.58267000  T       0.00161200       0.00412300       0.00691400
O        9.01526000       3.72840000      16.36495000  T       0.00543300      -0.00585700       0.00533600
C        7.58606000       1.45236000      17.46598000  T      -0.00080300      -0.02284900      -0.01061400
O        7.66130000       2.44744000      18.46606000  T       0.00260300      -0.04568400       0.00570000
O        7.50333000       0.28423000      17.85202000  T       0.00113400      -0.04454700      -0.00908800
H        7.61439000       1.98262000      19.33512000  T       0.00878800      -0.04797100      -0.00161800
108
Lattice="12.515153631 0.0 0.0 0.0 12.515153631 0.0 0.0 0.0 25.30973" Properties=species:S:1:pos:R:3:move_mask:L:1:forces:R:3 stress="0.007757359481250023 -2.997172682249141e-05 -2.596467796367435e-05 -2.997172682249141e-05 0.007441963542100889 0.0002837265218444011 -2.596467796367435e-05 0.0002837265218444011 0.0019814045210663957" free_energy=-444.61294739 energy=-444.61082298 pbc="T T T"
Cu       1.25152000       1.25152000      10.00000000  F      -0.00088900      -0.01752800      -0.07943400
Cu       3.75455000       1.25152000      10.00000000  F       0.00780800       0.00086700      -0.07153500
Cu       6.25758000       1.25152000      10.00000000  F      -0.01274600       0.01133600      -0.04956500
Cu       8.76061000       1.25152000      10.00000000  F       0.01094500       0.00396000      -0.04222700
Cu      11.26364000       1.25152000      10.00000000  F      -0.00620000      -0.00264000      -0.07340100
Cu       1.25152000       3.75455000      10.00000000  F      -0.00077100       0.00018400      -0.07006100
Cu       3.75455000       3.75455000      10.00000000  F       0.01789200      -0.00659700      -0.05906400
Cu       6.25758000       3.75455000      10.00000000  F      -0.02005900      -0.00847500      -0.08190900
Cu       8.76061000       3.75455000      10.00000000  F       0.02126500      -0.00533800      -0.08071000
Cu      11.26364000       3.75455000      10.00000000  F      -0.01644000       0.00831200      -0.05659400
Cu       1.25152000       6.25758000      10.00000000  F      -0.00159200      -0.00003700      -0.07640300
Cu       3.75455000       6.25758000      10.00000000  F       0.01861700       0.01473300      -0.06798300
Cu       6.25758000       6.25758000      10.00000000  F      -0.02058500       0.01383200      -0.08882100
Cu       8.76061000       6.25758000      10.00000000  F       0.02145900       0.01448700      -0.08382800
Cu      11.26364000       6.25758000      10.00000000  F      -0.01562500       0.00090500      -0.07061000
Cu       1.25152000       8.76061000      10.00000000  F      -0.00211200       0.00610700      -0.07505000
Cu       3.75455000       8.76061000      10.00000000  F       0.00253900      -0.01891900      -0.07122000
Cu       6.25758000       8.76061000      10.00000000  F      -0.00602200      -0.02259500      -0.06024200
Cu       8.76061000       8.76061000      10.00000000  F       0.00841500      -0.01722500      -0.05308300
Cu      11.26364000       8.76061000      10.00000000  F      -0.00401200      -0.01631000      -0.07275300
Cu       1.25152000      11.26364000      10.00000000  F      -0.00533300       0.00354000      -0.01621900
Cu       3.75455000      11.26364000      10.00000000  F      -0.00697000       0.00650500      -0.07066600
Cu       6.25758000      11.26364000      10.00000000  F       0.00396000       0.00994800      -0.06928800
Cu       8.76061000      11.26364000      10.00000000  F      -0.00708000       0.00654500      -0.07031600
Cu      11.26364000      11.26364000      10.00000000  F       0.01371300       0.00684600      -0.06966400
Cu       0.00000000       0.00000000      11.76991000  F      -0.02687100       0.04226200       0.04316000
Cu       2.50303000       0.00000000      11.76991000  F       0.04256100       0.01599500       0.03035000
Cu       5.00606000       0.00000000      11.76991000  F       0.08252000       0.07091500       0.07477900
Cu       7.50909000       0.00000000      11.76991000  F       0.01065100       0.06644100       0.05224500
Cu      10.01212000       0.00000000      11.76991000  F      -0.07312100       0.06608200       0.09159600
Cu       0.00000000       2.50303000      11.76991000  F      -0.09572700       0.03308600       0.02224700
Cu       2.50303000       2.50303000      11.76991000  F       0.07520600       0.03570900       0.01990900
Cu       5.00606000       2.50303000      11.76991000  F       0.03844000      -0.01953200       0.10650000
Cu       7.50909000       2.50303000      11.76991000  F      -0.02431800      -0.02189600       0.21486800
Cu      10.01212000       2.50303000      11.76991000  F      -0.02260500      -0.02631200       0.09562600
Cu       0.00000000       5.00606000      11.76991000  F      -0.08467500       0.04000500       0.01315700
Cu       2.50303000       5.00606000      11.76991000  F       0.05096500       0.01771700       0.01981400
Cu       5.00606000       5.00606000      11.76991000  F       0.01565600      -0.03280000       0.12389300
Cu       7.50909000       5.00606000      11.76991000  F      -0.05269400      -0.05589500       0.15827800
Cu      10.01212000       5.00606000      11.76991000  F      -0.02584500      -0.02968200       0.08073900
Cu       0.00000000       7.50909000      11.76991000  F      -0.06846500      -0.00900600       0.04994300
Cu       2.50303000       7.50909000      11.76991000  F       0.05786200       0.03601300       0.00905100
Cu       5.00606000       7.50909000      11.76991000  F      -0.00690100       0.06067300       0.01601400
Cu       7.50909000       7.50909000      11.76991000  F      -0.03353000       0.03121800       0.04693600
Cu      10.01212000       7.50909000      11.76991000  F       0.06669600       0.07952400      -0.00868000
Cu       0.00000000      10.01212000      11.76991000  F      -0.01119700      -0.04810500       0.06232200
Cu       2.50303000      10.01212000      11.76991000  F       0.04016900      -0.04434400       0.06758800
Cu       5.00606000      10.01212000      11.76991000  F       0.09401100      -0.03477700       0.10343900
Cu       7.50909000      10.01212000      11.76991000  F       0.01801500      -0.04117500       0.09148600
Cu      10.01212000      10.01212000      11.76991000  F      -0.07896900      -0.03450500       0.11221900
Cu       1.25916000       1.23695000      13.56537000  T      -0.00066000       0.00112900       0.00024100
Cu       3.77553000       1.27063000      13.58357000  T      -0.00095800       0.00187300      -0.00052100
Cu       6.29714000       1.26315000      13.63174000  T       0.00100800      -0.00138900       0.00141000
Cu       8.73917000       1.26321000      13.62795000  T       0.00004000      -0.00238600       0.00057300
Cu      11.25765000       1.27569000      13.58455000  T       0.00146700      -0.00030000      -0.00128700
Cu       1.23854000       3.74796000      13.55425000  T      -0.00114400       0.00000600      -0.00046400
Cu       3.75897000       3.77371000      13.59041000  T      -0.00138100       0.00093800       0.00116000
Cu       6.27860000       3.75107000      13.60255000  T       0.00014500      -0.00245100       0.00018800
Cu       8.72044000       3.74897000      13.59639000  T       0.00034500      -0.00399800      -0.00183600
Cu      11.22582000       3.78517000      13.58977000  T      -0.00004900      -0.00115700      -0.00014900
Cu       1.24388000       6.26027000      13.56240000  T      -0.00047500      -0.00020900      -0.00115400
Cu       3.75646000       6.28978000      13.57617000  T       0.00064900      -0.00087900       0.00309600
Cu       6.26870000       6.24604000      13.57051000  T      -0.00074900      -0.00137900      -0.00021100
Cu       8.74234000       6.24974000      13.54507000  T       0.00042300      -0.00249600       0.00013400
Cu      11.23575000       6.28068000      13.59699000  T      -0.00060100      -0.00086800       0.00082200
Cu       1.26606000       8.76305000      13.57953000  T      -0.00021100       0.00068800       0.00008700
Cu       3.78723000       8.76594000      13.60621000  T      -0.00042900       0.00039000       0.00020700
Cu       6.27826000       8.72942000      13.60327000  T      -0.00019300      -0.00186700      -0.00099600
Cu       8.76537000       8.72920000      13.60538000  T       0.00093100      -0.00212200      -0.00038200
Cu      11.26221000       8.76373000      13.59945000  T       0.00068000      -0.00015700      -0.00015400
Cu       1.24990000      11.25458000      13.59065000  T      -0.00086400       0.00126900       0.00050700
Cu       3.74785000      11.27087000      13.56972000  T      -0.00054600       0.00077400      -0.00007000
Cu       6.26979000      11.27874000      13.58600000  T       0.00079500       0.00069100      -0.00023700
Cu       8.74705000      11.27614000      13.58988000  T      -0.00033200       0.00033800      -0.00004000
Cu      11.27021000      11.27198000      13.56967000  T       0.00040700      -0.00016900      -0.00050500
Cu       0.00542000       0.00487000      15.35991000  T      -0.00065300       0.00212400       0.00080200
Cu       2.50057000      -0.00121000      15.35923000  T      -0.00097500       0.00185600      -0.00063400
Cu       4.97680000       0.02140000      15.34260000  T      -0.00167400      -0.00140200      -0.00174900
Cu       7.50774000      12.38337000      15.49949000  T      -0.00105900      -0.00450300       0.00558000
Cu      10.04422000       0.01516000      15.33894000  T       0.00135200      -0.00336500      -0.00282800
Cu       0.04747000       2.50195000      15.33967000  T       0.00077100       0.00152800       0.00110700
Cu       2.49596000       2.49794000      15.34050000  T      -0.00096300       0.00101600       0.00101000
Cu       4.95679000       2.47984000      15.40510000  T       0.00012300      -0.00230800       0.00024400
Cu       7.53635000       2.30858000      15.66295000  T       0.00088300       0.00497700      -0.00261100
Cu      10.10577000       2.48871000      15.39805000  T       0.00008300      -0.00453900      -0.00117200
Cu      12.49227000       5.00510000      15.32604000  T      -0.00137800       0.00036500      -0.00119100
Cu       2.39624000       4.99640000      15.34723000  T       0.00061000      -0.00007000       0.00070400
Pd       4.89773000       5.10336000      15.50541000  T       0.00771600      -0.00947100      -0.00010100
Y        7.51657000       4.98201000      17.25333000  T      -0.00142500      -0.00306500      -0.00164400
Cu      10.00622000       5.11156000      15.41036000  T      -0.00520600      -0.00643900       0.00083400
Cu       0.05577000       7.50571000      15.35759000  T       0.00173900      -0.00054900      -0.00003000
Cu       2.53708000       7.48890000      15.35725000  T       0.00032800      -0.00044400      -0.00034200
Cu       5.02021000       7.66151000      15.49203000  T       0.00233000      -0.00355400      -0.00147300
Cu       7.55114000       7.47005000      15.47455000  T       0.00016000      -0.01188000       0.00243800
Cu      10.09287000       7.61599000      15.46451000  T      -0.00015000      -0.00515500      -0.00250900
Cu      12.50915000      10.00511000      15.36757000  T      -0.00077200       0.00053500       0.00019200
Cu       2.51028000       9.99734000      15.36770000  T      -0.00025000       0.00075400       0.00006900
Cu       5.01297000      10.09574000      15.35782000  T       0.00091100      -0.00137400      -0.00001700
Cu       7.50565000       9.95967000      15.33838000  T       0.00022800      -0.00474700      -0.00503900
Cu      10.00769000      10.07326000      15.35072000  T      -0.00053500      -0.00205300      -0.00079800
O        6.04165000       3.59568000      16.52489000  T      -0.00559200      -0.00522600       0.00679000
O        6.14130000       6.59941000      16.67381000  T      -0.00505200       0.00079700       0.00783000
O        8.98540000       6.50756000      16.57885000  T      -0.00022400       0.00398900       0.00760200
O        9.01290000       3.71771000      16.37362000  T       0.00938700      -0.00198900       0.00567300
C        7.58570000       1.41822000      17.46587000  T       0.00167400      -0.01448700      -0.00836700
O        7.66475000       2.39849000      18.47343000  T       0.00477200      -0.03861300      -0.00047500
O        7.50525000       0.24333000      17.83694000  T       0.00354700      -0.02314000      -0.02089100
H        7.62904000       1.92430000      19.33826000  T       0.00298500      -0.04589100      -0.00625300
108
Lattice="12.515153631 0.0 0.0 0.0 12.515153631 0.0 0.0 0.0 25.30973" Properties=species:S:1:pos:R:3:move_mask:L:1:forces:R:3 stress="0.00777484194831162 -2.9728307966581958e-05 -2.7874579756194632e-05 -2.9728307966581958e-05 0.007460269888367105 0.00027907035603649225 -2.7874579756194632e-05 0.00027907035603649225 0.00199464900343152" free_energy=-444.61466181 energy=-444.61254023 pbc="T T T"
Cu       1.25152000       1.25152000      10.00000000  F      -0.00089200      -0.01713200      -0.07942700
Cu       3.75455000       1.25152000      10.00000000  F       0.00779100       0.00127100      -0.07135400
Cu       6.25758000       1.25152000      10.00000000  F      -0.01295800       0.01175500      -0.04934300
Cu       8.76061000       1.25152000      10.00000000  F       0.01059800       0.00438600      -0.04212500
Cu      11.26364000       1.25152000      10.00000000  F      -0.00643700      -0.00222200      -0.07343500
Cu       1.25152000       3.75455000      10.00000000  F      -0.00077400       0.00081300      -0.07000300
Cu       3.75455000       3.75455000      10.00000000  F       0.01789100      -0.00596100      -0.05884900
Cu       6.25758000       3.75455000      10.00000000  F      -0.02027300      -0.00784100      -0.08165500
Cu       8.76061000       3.75455000      10.00000000  F       0.02091300      -0.00471100      -0.08060800
Cu      11.26364000       3.75455000      10.00000000  F      -0.01668100       0.00895800      -0.05659100
Cu       1.25152000       6.25758000      10.00000000  F      -0.00159300       0.00063400      -0.07618500
Cu       3.75455000       6.25758000      10.00000000  F       0.01858500       0.01538000      -0.06758300
Cu       6.25758000       6.25758000      10.00000000  F      -0.02081900       0.01443500      -0.08844700
Cu       8.76061000       6.25758000      10.00000000  F       0.02112800       0.01508700      -0.08359800
Cu      11.26364000       6.25758000      10.00000000  F      -0.01583900       0.00153500      -0.07047300
Cu       1.25152000       8.76061000      10.00000000  F      -0.00210600       0.00654800      -0.07475200
Cu       3.75455000       8.76061000      10.00000000  F       0.00248000      -0.01847900      -0.07076200
Cu       6.25758000       8.76061000      10.00000000  F      -0.00625300      -0.02214300      -0.05983600
Cu       8.76061000       8.76061000      10.00000000  F       0.00807400      -0.01678000      -0.05282900
Cu      11.26364000       8.76061000      10.00000000  F      -0.00419800      -0.01588100      -0.07254400
Cu       1.25152000      11.26364000      10.00000000  F      -0.00533600       0.00380400      -0.01602800
Cu       3.75455000      11.26364000      10.00000000  F      -0.00700500       0.00678100      -0.07036400
Cu       6.25758000      11.26364000      10.00000000  F       0.00373800       0.01025500      -0.06894900
Cu       8.76061000      11.26364000      10.00000000  F      -0.00742500       0.00685100      -0.07012300
Cu      11.26364000      11.26364000      10.00000000  F       0.01350300       0.00714300      -0.06958300
Cu       0.00000000       0.00000000      11.76991000  F      -0.02685800       0.04253300       0.04298000
Cu       2.50303000       0.00000000      11.76991000  F       0.04270600       0.01626500       0.03025700
Cu       5.00606000       0.00000000      11.76991000  F       0.08241300       0.07125600       0.07475000
Cu       7.50909000       0.00000000      11.76991000  F       0.01021900       0.06680500       0.05219200
Cu      10.01212000       0.00000000      11.76991000  F      -0.07354000       0.06638800       0.09144900
Cu       0.00000000       2.50303000      11.76991000  F      -0.09576900       0.03362300       0.02205700
Cu       2.50303000       2.50303000      11.76991000  F       0.07538100       0.03625100       0.01983100
Cu       5.00606000       2.50303000      11.76991000  F       0.03840500      -0.01901900       0.10652600
Cu       7.50909000       2.50303000      11.76991000  F      -0.02483700      -0.02143600       0.21476500
Cu      10.01212000       2.50303000      11.76991000  F      -0.02303600      -0.02584300       0.09546600
Cu       0.00000000       5.00606000      11.76991000  F      -0.08478400       0.04073100       0.01301800
Cu       2.50303000       5.00606000      11.76991000  F       0.05118000       0.01844400       0.01979000
Cu       5.00606000       5.00606000      11.76991000  F       0.01555300      -0.03216500       0.12391100
Cu       7.50909000       5.00606000      11.76991000  F      -0.05317000      -0.05525900       0.15818400
Cu      10.01212000       5.00606000      11.76991000  F      -0.02624800      -0.02904200       0.08061100
Cu       0.00000000       7.50909000      11.76991000  F      -0.06849900      -0.00845200       0.04980900
Cu       2.50303000       7.50909000      11.76991000  F       0.05803600       0.03658100       0.00901800
Cu       5.00606000       7.50909000      11.76991000  F      -0.00710200       0.06118500       0.01598700
Cu       7.50909000       7.50909000      11.76991000  F      -0.03394400       0.03166200       0.04687800
Cu      10.01212000       7.50909000      11.76991000  F       0.06634800       0.08003000      -0.00882600
Cu       0.00000000      10.01212000      11.76991000  F      -0.01119100      -0.04778400       0.06218500
Cu       2.50303000      10.01212000      11.76991000  F       0.04030900      -0.04398700       0.06750600
Cu       5.00606000      10.01212000      11.76991000  F       0.09388900      -0.03439800       0.10338900
Cu       7.50909000      10.01212000      11.76991000  F       0.01757300      -0.04087500       0.09138100
Cu      10.01212000      10.01212000      11.76991000  F      -0.07935000      -0.03416400       0.11209600
Cu       1.25915000       1.23697000      13.56537000  T      -0.00054600       0.00176300       0.00022000
Cu       3.77551000       1.27067000      13.58355000  T      -0.00111600       0.00287400      -0.00093400
Cu       6.29716000       1.26312000      13.63176000  T       0.00091100      -0.00143400       0.00147500
Cu       8.73917000       1.26316000      13.62795000  T      -0.00044600      -0.00273300       0.00045600
Cu      11.25769000       1.27568000      13.58451000  T       0.00177100      -0.00000800      -0.00178500
Cu       1.23852000       3.74795000      13.55424000  T      -0.00127400       0.00060900      -0.00064300
Cu       3.75894000       3.77373000      13.59044000  T      -0.00182500       0.00197200       0.00130300
Cu       6.27860000       3.75102000      13.60255000  T      -0.00019500      -0.00250700      -0.00004200
Cu       8.72044000       3.74889000      13.59634000  T      -0.00023800      -0.00455300      -0.00278000
Cu      11.22582000       3.78515000      13.58977000  T      -0.00040500      -0.00083200      -0.00040200
Cu       1.24388000       6.26026000      13.56237000  T      -0.00034600       0.00033200      -0.00161200
Cu       3.75647000       6.28976000      13.57624000  T       0.00113500      -0.00052600       0.00420800
Cu       6.26868000       6.24601000      13.57051000  T      -0.00151600      -0.00112500      -0.00020900
Cu       8.74234000       6.24969000      13.54508000  T      -0.00033000      -0.00253700       0.00008700
Cu      11.23573000       6.28067000      13.59700000  T      -0.00121900      -0.00036200       0.00096700
Cu       1.26606000       8.76306000      13.57953000  T       0.00000800       0.00128300       0.00001100
Cu       3.78723000       8.76595000      13.60621000  T      -0.00037900       0.00090100       0.00012200
Cu       6.27826000       8.72938000      13.60324000  T      -0.00060900      -0.00201100      -0.00142900
Cu       8.76539000       8.72916000      13.60537000  T       0.00054500      -0.00225600      -0.00067300
Cu      11.26222000       8.76373000      13.59944000  T       0.00063500       0.00018200      -0.00027700
Cu       1.24989000      11.25461000      13.59066000  T      -0.00085700       0.00179400       0.00061400
Cu       3.74784000      11.27088000      13.56971000  T      -0.00055000       0.00122600      -0.00029400
Cu       6.26981000      11.27876000      13.58599000  T       0.00065000       0.00130100      -0.00049700
Cu       8.74703000      11.27615000      13.58988000  T      -0.00112800       0.00089300      -0.00021800
Cu      11.27022000      11.27197000      13.56966000  T       0.00039100      -0.00010900      -0.00083200
Cu       0.00541000       0.00491000      15.35994000  T      -0.00089400       0.00322300       0.00186000
Cu       2.50055000      -0.00117000      15.35922000  T      -0.00112200       0.00296500      -0.00055700
Cu       4.97676000       0.02136000      15.34256000  T      -0.00254000      -0.00148100      -0.00252200
Cu       7.50771000      12.38328000      15.49960000  T      -0.00187500      -0.00489600       0.00796900
Cu      10.04425000       0.01508000      15.33888000  T       0.00172900      -0.00419100      -0.00368500
Cu       0.04749000       2.50198000      15.33970000  T       0.00105500       0.00252600       0.00230500
Cu       2.49595000       2.49797000      15.34052000  T      -0.00119800       0.00195000       0.00190200
Cu       4.95679000       2.47980000      15.40510000  T      -0.00051100      -0.00306600      -0.00000000
Cu       7.53637000       2.30872000      15.66287000  T       0.00072400       0.00762800      -0.00414800
Cu      10.10578000       2.48861000      15.39802000  T       0.00009500      -0.00577100      -0.00146700
Cu      12.49224000       5.00511000      15.32601000  T      -0.00204600       0.00104100      -0.00131500
Cu       2.39625000       4.99640000      15.34724000  T       0.00107300       0.00062300       0.00132300
Pd       4.89795000       5.10309000      15.50542000  T       0.03300500      -0.03974100       0.00070200
Y        7.51653000       4.98192000      17.25329000  T      -0.00244000      -0.00442600      -0.00249200
Cu      10.00610000       5.11142000      15.41038000  T      -0.00639800      -0.00639400       0.00078000
Cu       0.05581000       7.50569000      15.35760000  T       0.00235900      -0.00041100       0.00023600
Cu       2.53709000       7.48888000      15.35725000  T       0.00057800      -0.00013500      -0.00037800
Cu       5.02027000       7.66143000      15.49200000  T       0.00284300      -0.00445000      -0.00152900
Cu       7.55114000       7.46979000      15.47461000  T      -0.00059000      -0.01434800       0.00367300
Cu      10.09286000       7.61588000      15.46446000  T      -0.00050500      -0.00590300      -0.00279700
Cu      12.50913000      10.00512000      15.36758000  T      -0.00113900       0.00097800       0.00069800
Cu       2.51028000       9.99735000      15.36771000  T      -0.00023100       0.00141500       0.00022700
Cu       5.01299000      10.09571000      15.35782000  T       0.00112600      -0.00133500      -0.00021600
Cu       7.50566000       9.95958000      15.33826000  T      -0.00013200      -0.00549600      -0.00699400
Cu      10.00768000      10.07322000      15.35071000  T      -0.00105700      -0.00220100      -0.00094100
O        6.04150000       3.59560000      16.52502000  T      -0.00394300      -0.00420900       0.00781100
O        6.14117000       6.59943000      16.67399000  T      -0.00461200      -0.00004700       0.00764700
O        8.98539000       6.50768000      16.57903000  T      -0.00224300       0.00389300       0.00825700
O        9.01313000       3.71771000      16.37373000  T       0.00624600      -0.00041000       0.00762700
C        7.58574000       1.41791000      17.46568000  T       0.00136900      -0.01672900      -0.01076400
O        7.66485000       2.39767000      18.47342000  T       0.00354000      -0.03671700      -0.00195700
O        7.50533000       0.24289000      17.83651000  T       0.00156100      -0.02489200      -0.02154300
H        7.62910000       1.92328000      19.33812000  T       0.00330700      -0.04694400      -0.00631400
108
Lattice="12.515153631 0.0 0.0 0.0 12.515153631 0.0 0.0 0.0 25.30973" Properties=species:S:1:pos:R:3:move_mask:L:1:forces:R:3 stress="0.007769374386317348 -2.957851174756076e-05 -2.5534013833988408e-05 -2.957851174756076e-05 0.00745010247000104 0.0002778969523208262 -2.5534013833988408e-05 0.0002778969523208262 0.0019919401884708867" free_energy=-444.61391799 energy=-444.61181218 pbc="T T T"
Cu       1.25152000       1.25152000      10.00000000  F      -0.00065500      -0.01766300      -0.07938500
Cu       3.75455000       1.25152000      10.00000000  F       0.00790300       0.00068000      -0.07130900
Cu       6.25758000       1.25152000      10.00000000  F      -0.01289900       0.01113700      -0.04944800
Cu       8.76061000       1.25152000      10.00000000  F       0.01067400       0.00378000      -0.04228800
Cu      11.26364000       1.25152000      10.00000000  F      -0.00618000      -0.00282800      -0.07351700
Cu       1.25152000       3.75455000      10.00000000  F      -0.00053200       0.00002200      -0.07020200
Cu       3.75455000       3.75455000      10.00000000  F       0.01801100      -0.00669800      -0.05896700
Cu       6.25758000       3.75455000      10.00000000  F      -0.02023500      -0.00855900      -0.08176100
Cu       8.76061000       3.75455000      10.00000000  F       0.02100400      -0.00544000      -0.08078900
Cu      11.26364000       3.75455000      10.00000000  F      -0.01642700       0.00820500      -0.05680900
Cu       1.25152000       6.25758000      10.00000000  F      -0.00134400      -0.00013300      -0.07649300
Cu       3.75455000       6.25758000      10.00000000  F       0.01876000       0.01460100      -0.06784100
Cu       6.25758000       6.25758000      10.00000000  F      -0.02078000       0.01370900      -0.08859700
Cu       8.76061000       6.25758000      10.00000000  F       0.02121000       0.01437000      -0.08378800
Cu      11.26364000       6.25758000      10.00000000  F      -0.01565300       0.00078400      -0.07074000
Cu       1.25152000       8.76061000      10.00000000  F      -0.00188800       0.00596500      -0.07497300
Cu       3.75455000       8.76061000      10.00000000  F       0.00269000      -0.01905600      -0.07091900
Cu       6.25758000       8.76061000      10.00000000  F      -0.00617500      -0.02267800      -0.05999500
Cu       8.76061000       8.76061000      10.00000000  F       0.00811900      -0.01731200      -0.05301100
Cu      11.26364000       8.76061000      10.00000000  F      -0.00401700      -0.01643700      -0.07278100
Cu       1.25152000      11.26364000      10.00000000  F      -0.00511600       0.00335100      -0.01613100
Cu       3.75455000      11.26364000      10.00000000  F      -0.00681200       0.00632300      -0.07034600
Cu       6.25758000      11.26364000      10.00000000  F       0.00379300       0.00971600      -0.06901900
Cu       8.76061000      11.26364000      10.00000000  F      -0.00735200       0.00631100      -0.07022400
Cu      11.26364000      11.26364000      10.00000000  F       0.01368800       0.00666600      -0.06965900
Cu       0.00000000       0.00000000      11.76991000  F      -0.02641600       0.04200900       0.04250000
Cu       2.50303000       0.00000000      11.76991000  F       0.04274200       0.01589100       0.03016900
Cu       5.00606000       0.00000000      11.76991000  F       0.08241500       0.07084600       0.07469600
Cu       7.50909000       0.00000000      11.76991000  F       0.01028300       0.06617200       0.05166900
Cu      10.01212000       0.00000000      11.76991000  F      -0.07334500       0.06569200       0.09108900
Cu       0.00000000       2.50303000      11.76991000  F      -0.09545700       0.03294400       0.02141000
Cu       2.50303000       2.50303000      11.76991000  F       0.07543700       0.03585500       0.01954900
Cu       5.00606000       2.50303000      11.76991000  F       0.03844000      -0.01970400       0.10636500
Cu       7.50909000       2.50303000      11.76991000  F      -0.02498200      -0.02272200       0.21407500
Cu      10.01212000       2.50303000      11.76991000  F      -0.02274000      -0.02697200       0.09486600
Cu       0.00000000       5.00606000      11.76991000  F      -0.08486800       0.03995600       0.01282600
Cu       2.50303000       5.00606000      11.76991000  F       0.05166800       0.01778400       0.01989300
Cu       5.00606000       5.00606000      11.76991000  F       0.01537100      -0.03294600       0.12405200
Cu       7.50909000       5.00606000      11.76991000  F      -0.05325200      -0.05599900       0.15787300
Cu      10.01212000       5.00606000      11.76991000  F      -0.02600200      -0.02985600       0.08032200
Cu       0.00000000       7.50909000      11.76991000  F      -0.06846500      -0.00914600       0.04977400
Cu       2.50303000       7.50909000      11.76991000  F       0.05872300       0.03565700       0.00954500
Cu       5.00606000       7.50909000      11.76991000  F      -0.00737800       0.06014000       0.01616400
Cu       7.50909000       7.50909000      11.76991000  F      -0.03379500       0.03061600       0.04682000
Cu      10.01212000       7.50909000      11.76991000  F       0.06647700       0.07909800      -0.00886600
Cu       0.00000000      10.01212000      11.76991000  F      -0.01083900      -0.04828700       0.06198200
Cu       2.50303000      10.01212000      11.76991000  F       0.04045400      -0.04435500       0.06756200
Cu       5.00606000      10.01212000      11.76991000  F       0.09404500      -0.03489900       0.10346300
Cu       7.50909000      10.01212000      11.76991000  F       0.01766200      -0.04175000       0.09143100
Cu      10.01212000      10.01212000      11.76991000  F      -0.07935700      -0.03479900       0.11207300
Cu       1.25913000       1.23705000      13.56538000  T      -0.00002600       0.00056700       0.00007400
Cu       3.77545000       1.27082000      13.58348000  T      -0.00043200       0.00077000      -0.00040300
Cu       6.29721000       1.26300000      13.63183000  T       0.00036700      -0.00128500       0.00070200
Cu       8.73916000       1.26295000      13.62796000  T      -0.00014900      -0.00193100       0.00033400
Cu      11.25781000       1.27564000      13.58440000  T       0.00077700      -0.00041500      -0.00056800
Cu       1.23845000       3.74796000      13.55421000  T      -0.00023200       0.00013200       0.00002800
Cu       3.75883000       3.77381000      13.59051000  T      -0.00046700       0.00006600       0.00015600
Cu       6.27859000       3.75084000      13.60251000  T       0.00005700      -0.00163400      -0.00050100
Cu       8.72044000       3.74859000      13.59615000  T      -0.00010100      -0.00224600      -0.00120500
Cu      11.22580000       3.78506000      13.58974000  T      -0.00021300      -0.00080400      -0.00014200
Cu       1.24387000       6.26024000      13.56228000  T       0.00033700      -0.00024900      -0.00031700
Cu       3.75657000       6.28969000      13.57652000  T       0.00112600      -0.00089700       0.00218700
Cu       6.26861000       6.24590000      13.57050000  T      -0.00023900      -0.00123900      -0.00014000
Cu       8.74232000       6.24949000      13.54508000  T      -0.00042600      -0.00194900       0.00006100
Cu      11.23565000       6.28061000      13.59707000  T      -0.00063600      -0.00086600       0.00046000
Cu       1.26607000       8.76311000      13.57954000  T       0.00024500       0.00029300       0.00020800
Cu       3.78723000       8.76597000      13.60622000  T       0.00009000      -0.00026000       0.00026600
Cu       6.27823000       8.72920000      13.60315000  T      -0.00026500      -0.00185800      -0.00046500
Cu       8.76542000       8.72895000      13.60533000  T       0.00004400      -0.00220600      -0.00018000
Cu      11.26227000       8.76370000      13.59943000  T       0.00034700      -0.00066700       0.00016800
Cu       1.24985000      11.25469000      13.59070000  T      -0.00019300       0.00056600       0.00047000
Cu       3.74782000      11.27093000      13.56968000  T      -0.00025000       0.00001700      -0.00000600
Cu       6.26985000      11.27879000      13.58595000  T       0.00012100      -0.00041000       0.00007200
Cu       8.74697000      11.27615000      13.58985000  T      -0.00047600      -0.00077500       0.00001500
Cu      11.27026000      11.27193000      13.56960000  T       0.00029300      -0.00064500      -0.00024600
Cu       0.00537000       0.00507000      15.36004000  T      -0.00008500       0.00113000       0.00056000
Cu       2.50049000      -0.00102000      15.35917000  T      -0.00047800       0.00102100      -0.00041200
Cu       4.97660000       0.02122000      15.34239000  T      -0.00160300      -0.00155700      -0.00135700
Cu       7.50761000      12.38297000      15.50003000  T      -0.00087600      -0.00308300       0.00379800
Cu      10.04437000       0.01478000      15.33865000  T       0.00096800      -0.00271200      -0.00171600
Cu       0.04756000       2.50211000      15.33983000  T       0.00046100       0.00081500       0.00072100
Cu       2.49589000       2.49805000      15.34063000  T      -0.00023700       0.00059400       0.00067400
Cu       4.95676000       2.47954000      15.40508000  T      -0.00037000      -0.00309200      -0.00008600
Cu       7.53643000       2.30923000      15.66253000  T       0.00057200       0.00142900      -0.00156200
Cu      10.10580000       2.48821000      15.39792000  T      -0.00014100      -0.00320500      -0.00044400
Cu      12.49212000       5.00514000      15.32593000  T      -0.00058700       0.00027100      -0.00056300
Cu       2.39634000       4.99641000      15.34732000  T       0.00129900       0.00036200       0.00047500
Pd       4.89865000       5.10226000      15.50542000  T       0.00456300      -0.00533500      -0.00100600
Y        7.51646000       4.98171000      17.25319000  T      -0.00095300      -0.00176500      -0.00114800
Cu      10.00569000       5.11102000      15.41041000  T      -0.00188800      -0.00169500      -0.00059900
Cu       0.05595000       7.50564000      15.35761000  T       0.00093200      -0.00022300      -0.00004600
Cu       2.53715000       7.48885000      15.35723000  T       0.00041400       0.00027800      -0.00014600
Cu       5.02046000       7.66107000      15.49189000  T       0.00122300      -0.00363500      -0.00086400
Cu       7.55111000       7.46884000      15.47484000  T      -0.00090500      -0.00570000       0.00080600
Cu      10.09282000       7.61544000      15.46429000  T      -0.00046700      -0.00380300      -0.00091400
Cu      12.50908000      10.00514000      15.36761000  T      -0.00028300       0.00041300       0.00014900
Cu       2.51028000       9.99741000      15.36772000  T       0.00012900       0.00055600      -0.00013000
Cu       5.01307000      10.09557000      15.35780000  T       0.00051600      -0.00177100      -0.00063100
Cu       7.50566000       9.95918000      15.33783000  T      -0.00007200      -0.00418800      -0.00292000
Cu      10.00762000      10.07302000      15.35064000  T      -0.00046800      -0.00235700      -0.00080700
O        6.04107000       3.59517000      16.52571000  T      -0.00048000      -0.00620100       0.00907200
O        6.14071000       6.59944000      16.67472000  T      -0.00214400      -0.00173900       0.00610600
O        8.98530000       6.50809000      16.57978000  T      -0.00120800       0.00139300       0.00568200
O        9.01391000       3.71764000      16.37435000  T       0.00375600      -0.00301800       0.00852900
C        7.58592000       1.41657000      17.46494000  T       0.00271400      -0.01842800      -0.00934200
O        7.66525000       2.39469000      18.47352000  T       0.00368800      -0.02903400       0.00145600
O        7.50564000       0.24096000      17.83460000  T       0.00245100      -0.02128600      -0.02222200
H        7.62931000       1.91927000      19.33765000  T       0.00325200      -0.04654400      -0.00445300
108
Lattice="12.515153631 0.0 0.0 0.0 12.515153631 0.0 0.0 0.0 25.30973" Properties=species:S:1:pos:R:3:move_mask:L:1:forces:R:3 stress="0.007760748620705376 -2.8804564615951236e-05 -2.6332927002101462e-05 -2.8804564615951236e-05 0.007442662591122988 0.0002717428243227053 -2.6332927002101462e-05 0.0002717428243227053 0.001978627049505378" free_energy=-444.61602676 energy=-444.61393842 pbc="T T T"
Cu       1.25152000       1.25152000      10.00000000  F      -0.00061800      -0.01775200      -0.07935700
Cu       3.75455000       1.25152000      10.00000000  F       0.00793000       0.00062300      -0.07128900
Cu       6.25758000       1.25152000      10.00000000  F      -0.01281700       0.01103200      -0.04943600
Cu       8.76061000       1.25152000      10.00000000  F       0.01064400       0.00364900      -0.04218100
Cu      11.26364000       1.25152000      10.00000000  F      -0.00617100      -0.00302200      -0.07340300
Cu       1.25152000       3.75455000      10.00000000  F      -0.00043000       0.00014900      -0.07031700
Cu       3.75455000       3.75455000      10.00000000  F       0.01798600      -0.00660100      -0.05906100
Cu       6.25758000       3.75455000      10.00000000  F      -0.02027000      -0.00860100      -0.08183500
Cu       8.76061000       3.75455000      10.00000000  F       0.02101000      -0.00549800      -0.08087800
Cu      11.26364000       3.75455000      10.00000000  F      -0.01632800       0.00830200      -0.05689100
Cu       1.25152000       6.25758000      10.00000000  F      -0.00127500       0.00028000      -0.07648100
Cu       3.75455000       6.25758000      10.00000000  F       0.01860200       0.01485200      -0.06794900
Cu       6.25758000       6.25758000      10.00000000  F      -0.02090700       0.01387100      -0.08878500
Cu       8.76061000       6.25758000      10.00000000  F       0.02134600       0.01459200      -0.08394300
Cu      11.26364000       6.25758000      10.00000000  F      -0.01543700       0.00112500      -0.07074000
Cu       1.25152000       8.76061000      10.00000000  F      -0.00191300       0.00624400      -0.07472500
Cu       3.75455000       8.76061000      10.00000000  F       0.00248700      -0.01877100      -0.07089300
Cu       6.25758000       8.76061000      10.00000000  F      -0.00621600      -0.02223500      -0.06013500
Cu       8.76061000       8.76061000      10.00000000  F       0.00828000      -0.01683700      -0.05299500
Cu      11.26364000       8.76061000      10.00000000  F      -0.00377600      -0.01604200      -0.07257900
Cu       1.25152000      11.26364000      10.00000000  F      -0.00516500       0.00329300      -0.01597700
Cu       3.75455000      11.26364000      10.00000000  F      -0.00683700       0.00640800      -0.07026800
Cu       6.25758000      11.26364000      10.00000000  F       0.00383000       0.00992000      -0.06890700
Cu       8.76061000      11.26364000      10.00000000  F      -0.00725600       0.00647900      -0.06986000
Cu      11.26364000      11.26364000      10.00000000  F       0.01377000       0.00670400      -0.06935100
Cu       0.00000000       0.00000000      11.76991000  F      -0.02620500       0.04176100       0.04223800
Cu       2.50303000       0.00000000      11.76991000  F       0.04263400       0.01583800       0.03014700
Cu       5.00606000       0.00000000      11.76991000  F       0.08236300       0.07095400       0.07460700
Cu       7.50909000       0.00000000      11.76991000  F       0.01030200       0.06614200       0.05131700
Cu      10.01212000       0.00000000      11.76991000  F      -0.07328400       0.06539000       0.09081100
Cu       0.00000000       2.50303000      11.76991000  F      -0.09527400       0.03295700       0.02121200
Cu       2.50303000       2.50303000      11.76991000  F       0.07542600       0.03609200       0.01947100
Cu       5.00606000       2.50303000      11.76991000  F       0.03856000      -0.01993500       0.10633400
Cu       7.50909000       2.50303000      11.76991000  F      -0.02524000      -0.02357800       0.21356400
Cu      10.01212000       2.50303000      11.76991000  F      -0.02274600      -0.02763800       0.09453700
Cu       0.00000000       5.00606000      11.76991000  F      -0.08484400       0.04029400       0.01293700
Cu       2.50303000       5.00606000      11.76991000  F       0.05198100       0.01819800       0.02022200
Cu       5.00606000       5.00606000      11.76991000  F       0.01500000      -0.03305500       0.12409500
Cu       7.50909000       5.00606000      11.76991000  F      -0.05347700      -0.05628200       0.15727300
Cu      10.01212000       5.00606000      11.76991000  F      -0.02575600      -0.02993300       0.08000000
Cu       0.00000000       7.50909000      11.76991000  F      -0.06830400      -0.00885300       0.04982200
Cu       2.50303000       7.50909000      11.76991000  F       0.05899000       0.03565300       0.01002500
Cu       5.00606000       7.50909000      11.76991000  F      -0.00804800       0.05995000       0.01603900
Cu       7.50909000       7.50909000      11.76991000  F      -0.03369300       0.03036900       0.04631400
Cu      10.01212000       7.50909000      11.76991000  F       0.06689500       0.07916000      -0.00907900
Cu       0.00000000      10.01212000      11.76991000  F      -0.01055300      -0.04825200       0.06182400
Cu       2.50303000      10.01212000      11.76991000  F       0.04021200      -0.04416000       0.06751200
Cu       5.00606000      10.01212000      11.76991000  F       0.09385400      -0.03463100       0.10327200
Cu       7.50909000      10.01212000      11.76991000  F       0.01772200      -0.04174800       0.09104700
Cu      10.01212000      10.01212000      11.76991000  F      -0.07914700      -0.03473800       0.11188800
Cu       1.25912000       1.23714000      13.56539000  T      -0.00003200       0.00073600       0.00016100
Cu       3.77539000       1.27093000      13.58342000  T      -0.00044500       0.00088100      -0.00056600
Cu       6.29728000       1.26282000      13.63192000  T       0.00030700      -0.00155800       0.00049400
Cu       8.73914000       1.26268000      13.62800000  T      -0.00007700      -0.00228100       0.00017800
Cu      11.25791000       1.27558000      13.58431000  T       0.00079500      -0.00050400      -0.00053700
Cu       1.23841000       3.74798000      13.55421000  T      -0.00008800       0.00046500       0.00032500
Cu       3.75877000       3.77383000      13.59054000  T      -0.00031700       0.00006200       0.00049100
Cu       6.27860000       3.75060000      13.60245000  T      -0.00003800      -0.00191900       0.00015500
Cu       8.72043000       3.74827000      13.59598000  T       0.00001600      -0.00250400      -0.00067200
Cu      11.22576000       3.78494000      13.58972000  T      -0.00025100      -0.00081000       0.00023600
Cu       1.24391000       6.26021000      13.56223000  T       0.00037600       0.00030500      -0.00027200
Cu       3.75672000       6.28956000      13.57682000  T       0.00077200      -0.00067600       0.00191400
Cu       6.26858000       6.24571000      13.57047000  T      -0.00029700      -0.00162200       0.00010100
Cu       8.74227000       6.24921000      13.54509000  T      -0.00021200      -0.00215800       0.00038000
Cu      11.23556000       6.28049000      13.59712000  T      -0.00028100      -0.00047900       0.00033900
Cu       1.26610000       8.76315000      13.57956000  T       0.00011700       0.00069700      -0.00002600
Cu       3.78723000       8.76593000      13.60624000  T      -0.00036300      -0.00016600      -0.00011100
Cu       6.27819000       8.72894000      13.60307000  T      -0.00058800      -0.00187300      -0.00095100
Cu       8.76545000       8.72864000      13.60529000  T       0.00062000      -0.00226300      -0.00061000
Cu      11.26232000       8.76360000      13.59944000  T       0.00070200      -0.00056200      -0.00004500
Cu       1.24981000      11.25477000      13.59075000  T      -0.00030300       0.00072500       0.00014600
Cu       3.74778000      11.27093000      13.56967000  T      -0.00050200       0.00019200      -0.00045400
Cu       6.26988000      11.27874000      13.58595000  T       0.00025500      -0.00007200      -0.00026900
Cu       8.74690000      11.27605000      13.58985000  T      -0.00046100      -0.00069300      -0.00028300
Cu      11.27030000      11.27183000      13.56955000  T       0.00049300      -0.00071800      -0.00051400
Cu       0.00535000       0.00523000      15.36013000  T       0.00003000       0.00137100       0.00049000
Cu       2.50043000      -0.00087000      15.35913000  T      -0.00074700       0.00141000      -0.00031700
Cu       4.97638000       0.02100000      15.34221000  T      -0.00245200      -0.00180500      -0.00177000
Cu       7.50749000      12.38252000      15.50054000  T      -0.00094600      -0.00448600       0.00419500
Cu      10.04451000       0.01440000      15.33841000  T       0.00190500      -0.00294300      -0.00240300
Cu       0.04762000       2.50222000      15.33994000  T       0.00040600       0.00094200       0.00080300
Cu       2.49585000       2.49814000      15.34073000  T      -0.00020900       0.00094100       0.00086600
Cu       4.95675000       2.47917000      15.40511000  T       0.00097800      -0.00111200       0.00182600
Cu       7.53652000       2.30947000      15.66230000  T       0.00064200       0.00263800      -0.00135700
Cu      10.10576000       2.48779000      15.39788000  T      -0.00102400      -0.00186500       0.00062500
Cu      12.49203000       5.00518000      15.32585000  T      -0.00013900       0.00054700      -0.00044200
Cu       2.39652000       4.99646000      15.34739000  T       0.00103700       0.00057100       0.00068100
Pd       4.89923000       5.10161000      15.50536000  T       0.00447200      -0.00537000       0.00132400
Y        7.51635000       4.98148000      17.25309000  T       0.00044200       0.00016300       0.00105400
Cu      10.00536000       5.11072000      15.41038000  T      -0.00386400      -0.00353800       0.00169900
Cu       0.05607000       7.50560000      15.35760000  T       0.00092300       0.00011800      -0.00017800
Cu       2.53720000       7.48888000      15.35721000  T       0.00001800       0.00068100       0.00001000
Cu       5.02065000       7.66054000      15.49179000  T       0.00132800      -0.00395900      -0.00034300
Cu       7.55100000       7.46799000      15.47499000  T      -0.00062400      -0.00676200       0.00158900
Cu      10.09274000       7.61489000      15.46417000  T      -0.00068400      -0.00423300      -0.00046700
Cu      12.50903000      10.00519000      15.36764000  T      -0.00017200       0.00075500      -0.00003400
Cu       2.51030000       9.99748000      15.36771000  T      -0.00017700       0.00108000      -0.00013500
Cu       5.01315000      10.09532000      15.35772000  T       0.00014900      -0.00207400      -0.00077400
Cu       7.50565000       9.95860000      15.33742000  T       0.00010100      -0.00432500      -0.00314700
Cu      10.00756000      10.07269000      15.35053000  T       0.00008500      -0.00257000      -0.00133500
O        6.04091000       3.59422000      16.52696000  T      -0.00112500      -0.00838400       0.01025700
O        6.14032000       6.59920000      16.67558000  T      -0.00427100      -0.00276600       0.00505100
O        8.98515000       6.50831000      16.58059000  T      -0.00082100       0.00083600       0.00457500
O        9.01454000       3.71720000      16.37555000  T       0.00428700      -0.00331100       0.01057600
C        7.58634000       1.41416000      17.46362000  T       0.00302900      -0.01564400      -0.00523900
O        7.66579000       2.39014000      18.47381000  T       0.00326400      -0.03702900      -0.00220400
O        7.50602000       0.23769000      17.83131000  T       0.00243200      -0.02200200      -0.02994500
H        7.62979000       1.91266000      19.33686000  T       0.00369400      -0.04320200      -0.00433300
108
Lattice="12.515153631 0.0 0.0 0.0 12.515153631 0.0 0.0 0.0 25.30973" Properties=species:S:1:pos:R:3:move_mask:L:1:forces:R:3 stress="0.0077552436096563464 -2.8898187252839486e-05 -2.0990195190345397e-05 -2.8898187252839486e-05 0.007431484048278531 0.0002612321229547179 -2.0990195190345397e-05 0.0002612321229547179 0.001963815948349657" free_energy=-444.61560939 energy=-444.61355783 pbc="T T T"
Cu       1.25152000       1.25152000      10.00000000  F      -0.00086600      -0.01748500      -0.07913000
Cu       3.75455000       1.25152000      10.00000000  F       0.00755100       0.00073200      -0.07146000
Cu       6.25758000       1.25152000      10.00000000  F      -0.01272800       0.01109300      -0.04998000
Cu       8.76061000       1.25152000      10.00000000  F       0.01083100       0.00383400      -0.04259700
Cu      11.26364000       1.25152000      10.00000000  F      -0.00594900      -0.00278700      -0.07326000
Cu       1.25152000       3.75455000      10.00000000  F      -0.00073100      -0.00011900      -0.07040300
Cu       3.75455000       3.75455000      10.00000000  F       0.01773100      -0.00663700      -0.05940400
Cu       6.25758000       3.75455000      10.00000000  F      -0.02013400      -0.00846000      -0.08222800
Cu       8.76061000       3.75455000      10.00000000  F       0.02128100      -0.00536300      -0.08101500
Cu      11.26364000       3.75455000      10.00000000  F      -0.01627300       0.00828300      -0.05680300
Cu       1.25152000       6.25758000      10.00000000  F      -0.00153000      -0.00002400      -0.07675600
Cu       3.75455000       6.25758000      10.00000000  F       0.01859700       0.01458300      -0.06835100
Cu       6.25758000       6.25758000      10.00000000  F      -0.02075400       0.01371000      -0.08905900
Cu       8.76061000       6.25758000      10.00000000  F       0.02150200       0.01434600      -0.08400000
Cu      11.26364000       6.25758000      10.00000000  F      -0.01561500       0.00074800      -0.07073400
Cu       1.25152000       8.76061000      10.00000000  F      -0.00210400       0.00613900      -0.07476500
Cu       3.75455000       8.76061000      10.00000000  F       0.00248000      -0.01884700      -0.07113900
Cu       6.25758000       8.76061000      10.00000000  F      -0.00606300      -0.02235100      -0.06042800
Cu       8.76061000       8.76061000      10.00000000  F       0.00826200      -0.01699900      -0.05317800
Cu      11.26364000       8.76061000      10.00000000  F      -0.00383500      -0.01620200      -0.07266200
Cu       1.25152000      11.26364000      10.00000000  F      -0.00536100       0.00355200      -0.01600500
Cu       3.75455000      11.26364000      10.00000000  F      -0.00696300       0.00655600      -0.07033500
Cu       6.25758000      11.26364000      10.00000000  F       0.00391600       0.00987700      -0.06930600
Cu       8.76061000      11.26364000      10.00000000  F      -0.00719800       0.00648600      -0.07023000
Cu      11.26364000      11.26364000      10.00000000  F       0.01383000       0.00691000      -0.06931900
Cu       0.00000000       0.00000000      11.76991000  F      -0.02609200       0.04206100       0.04171800
Cu       2.50303000       0.00000000      11.76991000  F       0.04203800       0.01618300       0.02991700
Cu       5.00606000       0.00000000      11.76991000  F       0.08213100       0.07093500       0.07464100
Cu       7.50909000       0.00000000      11.76991000  F       0.01050700       0.06591800       0.05128100
Cu      10.01212000       0.00000000      11.76991000  F      -0.07292900       0.06521000       0.09073300
Cu       0.00000000       2.50303000      11.76991000  F      -0.09534200       0.03306100       0.02064100
Cu       2.50303000       2.50303000      11.76991000  F       0.07466600       0.03634600       0.01896300
Cu       5.00606000       2.50303000      11.76991000  F       0.03856500      -0.02028600       0.10610600
Cu       7.50909000       2.50303000      11.76991000  F      -0.02501300      -0.02456400       0.21300300
Cu      10.01212000       2.50303000      11.76991000  F      -0.02238700      -0.02830500       0.09421200
Cu       0.00000000       5.00606000      11.76991000  F      -0.08555600       0.03980200       0.01300400
Cu       2.50303000       5.00606000      11.76991000  F       0.05203300       0.01802000       0.02031800
Cu       5.00606000       5.00606000      11.76991000  F       0.01477400      -0.03336800       0.12408200
Cu       7.50909000       5.00606000      11.76991000  F      -0.05317700      -0.05665700       0.15666900
Cu      10.01212000       5.00606000      11.76991000  F      -0.02546300      -0.03046000       0.07971200
Cu       0.00000000       7.50909000      11.76991000  F      -0.06880600      -0.00930900       0.04988200
Cu       2.50303000       7.50909000      11.76991000  F       0.05952100       0.03492100       0.01079600
Cu       5.00606000       7.50909000      11.76991000  F      -0.00836900       0.05919700       0.01605200
Cu       7.50909000       7.50909000      11.76991000  F      -0.03322500       0.02935300       0.04612400
Cu      10.01212000       7.50909000      11.76991000  F       0.06683100       0.07825300      -0.00900400
Cu       0.00000000      10.01212000      11.76991000  F      -0.01056100      -0.04820300       0.06171300
Cu       2.50303000      10.01212000      11.76991000  F       0.03995400      -0.04381600       0.06748600
Cu       5.00606000      10.01212000      11.76991000  F       0.09395900      -0.03474400       0.10341600
Cu       7.50909000      10.01212000      11.76991000  F       0.01782500      -0.04267000       0.09118700
Cu      10.01212000      10.01212000      11.76991000  F      -0.07927000      -0.03517900       0.11210200
Cu       1.25910000       1.23726000      13.56540000  T      -0.00036200       0.00074300       0.00026100
Cu       3.77531000       1.27108000      13.58331000  T      -0.00025400       0.00027700       0.00006300
Cu       6.29737000       1.26250000      13.63205000  T       0.00022300      -0.00154800       0.00075300
Cu       8.73912000       1.26223000      13.62806000  T       0.00022900      -0.00178000       0.00074800
Cu      11.25805000       1.27549000      13.58420000  T       0.00014200      -0.00003900       0.00032300
Cu       1.23835000       3.74803000      13.55424000  T      -0.00027100       0.00037200       0.00062100
Cu       3.75871000       3.77382000      13.59059000  T       0.00037200      -0.00053600       0.00050200
Cu       6.27864000       3.75022000      13.60239000  T       0.00042800      -0.00127000       0.00084200
Cu       8.72043000       3.74777000      13.59578000  T       0.00034300      -0.00132600       0.00072500
Cu      11.22567000       3.78477000      13.58973000  T      -0.00053600      -0.00057600       0.00090000
Cu       1.24397000       6.26019000      13.56217000  T      -0.00002100       0.00033100       0.00039300
Cu       3.75694000       6.28938000      13.57722000  T       0.00075300      -0.00055700       0.00088800
Cu       6.26856000       6.24539000      13.57043000  T       0.00055900      -0.00150600       0.00049000
Cu       8.74220000       6.24875000      13.54510000  T       0.00014400      -0.00201200       0.00115100
Cu      11.23543000       6.28030000      13.59720000  T      -0.00053400      -0.00075700       0.00054100
Cu       1.26613000       8.76322000      13.57957000  T      -0.00012500       0.00075400       0.00033300
Cu       3.78723000       8.76584000      13.60626000  T      -0.00020500      -0.00035700       0.00012600
Cu       6.27813000       8.72850000      13.60292000  T      -0.00028700      -0.00167600      -0.00019900
Cu       8.76550000       8.72811000      13.60521000  T       0.00036700      -0.00228200      -0.00003100
Cu      11.26239000       8.76342000      13.59945000  T       0.00018800      -0.00099000       0.00039400
Cu       1.24975000      11.25488000      13.59081000  T      -0.00028600       0.00080600       0.00010400
Cu       3.74772000      11.27091000      13.56962000  T      -0.00054600      -0.00012700      -0.00014100
Cu       6.26994000      11.27864000      13.58594000  T       0.00035700      -0.00073300       0.00034800
Cu       8.74680000      11.27585000      13.58983000  T      -0.00028700      -0.00129000       0.00022200
Cu      11.27036000      11.27166000      13.56947000  T       0.00014400      -0.00055900       0.00008800
Cu       0.00533000       0.00547000      15.36025000  T       0.00007500       0.00093200      -0.00037200
Cu       2.50029000      -0.00064000      15.35906000  T      -0.00091600       0.00097300      -0.00035000
Cu       4.97599000       0.02061000      15.34191000  T      -0.00252100      -0.00192600      -0.00155200
Cu       7.50731000      12.38167000      15.50132000  T      -0.00056500      -0.00540500       0.00362500
Cu      10.04477000       0.01378000      15.33802000  T       0.00207400      -0.00208700      -0.00205500
Cu       0.04767000       2.50240000      15.34009000  T      -0.00057500       0.00060600      -0.00002400
Cu       2.49581000       2.49829000      15.34089000  T      -0.00001800       0.00064000       0.00029100
Cu       4.95685000       2.47870000      15.40531000  T       0.00136800      -0.00043700       0.00253300
Cu       7.53668000       2.30984000      15.66198000  T       0.00093400       0.00065800       0.00031000
Cu      10.10562000       2.48725000      15.39791000  T      -0.00174700       0.00058000       0.00170900
Cu      12.49192000       5.00525000      15.32575000  T      -0.00030400       0.00047200       0.00000600
Cu       2.39676000       4.99655000      15.34752000  T       0.00009500       0.00067300       0.00040100
Pd       4.90005000       5.10063000      15.50538000  T       0.00313300      -0.00443900       0.00151100
Y        7.51625000       4.98120000      17.25310000  T      -0.00004800       0.00196200       0.00074400
Cu      10.00474000       5.11010000      15.41052000  T      -0.00371300      -0.00338300       0.00318100
Cu       0.05623000       7.50556000      15.35758000  T      -0.00039600       0.00041400      -0.00017500
Cu       2.53725000       7.48897000      15.35721000  T      -0.00040000       0.00133700       0.00040700
Cu       5.02094000       7.65971000      15.49169000  T       0.00083200      -0.00270900       0.00028300
Cu       7.55083000       7.46667000      15.47526000  T      -0.00012800      -0.00347900       0.00117700
Cu      10.09262000       7.61403000      15.46403000  T      -0.00121700      -0.00336900       0.00034000
Cu      12.50897000      10.00529000      15.36767000  T      -0.00018800       0.00094600      -0.00019800
Cu       2.51030000       9.99763000      15.36769000  T      -0.00018800       0.00131300      -0.00022800
Cu       5.01325000      10.09486000      15.35758000  T      -0.00002500      -0.00258300      -0.00109900
Cu       7.50567000       9.95766000      15.33682000  T       0.00032900      -0.00412200      -0.00163100
Cu      10.00749000      10.07213000      15.35032000  T       0.00020800      -0.00277800      -0.00160800
O        6.04065000       3.59253000      16.52906000  T       0.00214000      -0.00738300       0.01199600
O        6.13964000       6.59873000      16.67684000  T      -0.00191800      -0.00323700       0.00285000
O        8.98496000       6.50855000      16.58174000  T       0.00027800      -0.00153200       0.00061300
O        9.01561000       3.71646000      16.37762000  T       0.00324200      -0.00314500       0.01165500
C        7.58711000       1.41017000      17.46158000  T       0.00322800      -0.01421500      -0.01033700
O        7.66669000       2.38184000      18.47416000  T       0.00356400      -0.03232500      -0.00151000
O        7.50670000       0.23205000      17.82530000  T       0.00239500      -0.02724600      -0.03265300
H        7.63062000       1.90148000      19.33562000  T       0.00394200      -0.04234900      -0.00249300
108
Lattice="12.515153631 0.0 0.0 0.0 12.515153631 0.0 0.0 0.0 25.30973" Properties=species:S:1:pos:R:3:move_mask:L:1:forces:R:3 stress="0.007786838128851568 -2.8823289143328883e-05 -2.3649078077971667e-05 -2.8823289143328883e-05 0.007458303812992451 0.0002595157079451 -2.3649078077971667e-05 0.0002595157079451 0.002005396882146291" free_energy=-444.61775698 energy=-444.61570687 pbc="T T T"
Cu       1.25152000       1.25152000      10.00000000  F      -0.00098200      -0.01731200      -0.07908600
Cu       3.75455000       1.25152000      10.00000000  F       0.00745200       0.00090400      -0.07133600
Cu       6.25758000       1.25152000      10.00000000  F      -0.01266600       0.01124400      -0.04972200
Cu       8.76061000       1.25152000      10.00000000  F       0.01079200       0.00398100      -0.04230700
Cu      11.26364000       1.25152000      10.00000000  F      -0.00602700      -0.00264300      -0.07312200
Cu       1.25152000       3.75455000      10.00000000  F      -0.00083300       0.00022500      -0.07002500
Cu       3.75455000       3.75455000      10.00000000  F       0.01756500      -0.00635900      -0.05903300
Cu       6.25758000       3.75455000      10.00000000  F      -0.02013900      -0.00828600      -0.08182400
Cu       8.76061000       3.75455000      10.00000000  F       0.02129400      -0.00518300      -0.08061200
Cu      11.26364000       3.75455000      10.00000000  F      -0.01628600       0.00861400      -0.05640400
Cu       1.25152000       6.25758000      10.00000000  F      -0.00166500       0.00004500      -0.07623100
Cu       3.75455000       6.25758000      10.00000000  F       0.01829600       0.01452700      -0.06792400
Cu       6.25758000       6.25758000      10.00000000  F      -0.02083400       0.01357000      -0.08871600
Cu       8.76061000       6.25758000      10.00000000  F       0.02164400       0.01425400      -0.08362300
Cu      11.26364000       6.25758000      10.00000000  F      -0.01551100       0.00074000      -0.07020200
Cu       1.25152000       8.76061000      10.00000000  F      -0.00227200       0.00585700      -0.07444300
Cu       3.75455000       8.76061000      10.00000000  F       0.00214700      -0.01907300      -0.07093100
Cu       6.25758000       8.76061000      10.00000000  F      -0.00610200      -0.02245400      -0.06031200
Cu       8.76061000       8.76061000      10.00000000  F       0.00838900      -0.01711300      -0.05295900
Cu      11.26364000       8.76061000      10.00000000  F      -0.00368900      -0.01643400      -0.07228800
Cu       1.25152000      11.26364000      10.00000000  F      -0.00553500       0.00328500      -0.01597900
Cu       3.75455000      11.26364000      10.00000000  F      -0.00711000       0.00641600      -0.07035200
Cu       6.25758000      11.26364000      10.00000000  F       0.00392600       0.00984200      -0.06911400
Cu       8.76061000      11.26364000      10.00000000  F      -0.00716500       0.00642600      -0.06996400
Cu      11.26364000      11.26364000      10.00000000  F       0.01381700       0.00673100      -0.06920100
Cu       0.00000000       0.00000000      11.76991000  F      -0.02621800       0.04202200       0.04203000
Cu       2.50303000       0.00000000      11.76991000  F       0.04179000       0.01616700       0.03018600
Cu       5.00606000       0.00000000      11.76991000  F       0.08220600       0.07099800       0.07476500
Cu       7.50909000       0.00000000      11.76991000  F       0.01059000       0.06592500       0.05132500
Cu      10.01212000       0.00000000      11.76991000  F      -0.07300500       0.06511100       0.09099200
Cu       0.00000000       2.50303000      11.76991000  F      -0.09546900       0.03359800       0.02099300
Cu       2.50303000       2.50303000      11.76991000  F       0.07437600       0.03688800       0.01915600
Cu       5.00606000       2.50303000      11.76991000  F       0.03879900      -0.02018800       0.10624500
Cu       7.50909000       2.50303000      11.76991000  F      -0.02504900      -0.02483900       0.21301300
Cu      10.01212000       2.50303000      11.76991000  F      -0.02248700      -0.02836000       0.09443500
Cu       0.00000000       5.00606000      11.76991000  F      -0.08575700       0.04007100       0.01351200
Cu       2.50303000       5.00606000      11.76991000  F       0.05192100       0.01836500       0.02084100
Cu       5.00606000       5.00606000      11.76991000  F       0.01458000      -0.03344400       0.12427700
Cu       7.50909000       5.00606000      11.76991000  F      -0.05315000      -0.05688900       0.15655700
Cu      10.01212000       5.00606000      11.76991000  F      -0.02525900      -0.03052100       0.07987900
Cu       0.00000000       7.50909000      11.76991000  F      -0.06890600      -0.00967800       0.05038400
Cu       2.50303000       7.50909000      11.76991000  F       0.05939700       0.03448100       0.01139900
Cu       5.00606000       7.50909000      11.76991000  F      -0.00882500       0.05866100       0.01617900
Cu       7.50909000       7.50909000      11.76991000  F      -0.03302700       0.02873300       0.04608200
Cu      10.01212000       7.50909000      11.76991000  F       0.06716600       0.07775800      -0.00878000
Cu       0.00000000      10.01212000      11.76991000  F      -0.01055400      -0.04866800       0.06205600
Cu       2.50303000      10.01212000      11.76991000  F       0.03956000      -0.04412000       0.06773800
Cu       5.00606000      10.01212000      11.76991000  F       0.09389700      -0.03492200       0.10352900
Cu       7.50909000      10.01212000      11.76991000  F       0.01790800      -0.04303500       0.09118400
Cu      10.01212000      10.01212000      11.76991000  F      -0.07920400      -0.03556600       0.11242600
Cu       1.25909000       1.23733000      13.56541000  T      -0.00091000       0.00095800       0.00013400
Cu       3.77530000       1.27114000      13.58328000  T      -0.00061300       0.00063100       0.00006800
Cu       6.29741000       1.26234000      13.63213000  T       0.00044600      -0.00074900       0.00090100
Cu       8.73910000       1.26202000      13.62810000  T       0.00064900      -0.00093900       0.00095500
Cu      11.25808000       1.27546000      13.58416000  T       0.00010500       0.00045500       0.00038700
Cu       1.23834000       3.74806000      13.55427000  T      -0.00081200       0.00087200       0.00044400
Cu       3.75872000       3.77380000      13.59063000  T      -0.00045000       0.00005100       0.00040600
Cu       6.27867000       3.75004000      13.60239000  T       0.00036300      -0.00100100       0.00042000
Cu       8.72043000       3.74756000      13.59571000  T       0.00097100      -0.00104900       0.00042500
Cu      11.22561000       3.78470000      13.58977000  T       0.00001500       0.00002300       0.00081000
Cu       1.24400000       6.26021000      13.56215000  T      -0.00071500      -0.00003500       0.00034400
Cu       3.75706000       6.28930000      13.57740000  T      -0.00035300      -0.00089100       0.00102700
Cu       6.26857000       6.24523000      13.57042000  T       0.00018400      -0.00144500       0.00012500
Cu       8.74217000       6.24853000      13.54513000  T       0.00108300      -0.00171600       0.00066200
Cu      11.23535000       6.28021000      13.59724000  T       0.00019200      -0.00091900       0.00067900
Cu       1.26614000       8.76327000      13.57958000  T      -0.00083800      -0.00034400       0.00028200
Cu       3.78724000       8.76580000      13.60626000  T      -0.00109500      -0.00085500       0.00016800
Cu       6.27810000       8.72829000      13.60286000  T      -0.00016300      -0.00153800      -0.00006900
Cu       8.76552000       8.72785000      13.60516000  T       0.00105800      -0.00199800       0.00026900
Cu      11.26241000       8.76333000      13.59946000  T       0.00060800      -0.00134400       0.00052800
Cu       1.24973000      11.25495000      13.59082000  T      -0.00082800       0.00016800       0.00012500
Cu       3.74770000      11.27089000      13.56959000  T      -0.00104400      -0.00033500      -0.00015000
Cu       6.26997000      11.27858000      13.58594000  T       0.00036400      -0.00050000       0.00045400
Cu       8.74674000      11.27573000      13.58982000  T       0.00052000      -0.00085300       0.00050600
Cu      11.27038000      11.27158000      13.56943000  T       0.00030300      -0.00065700       0.00019800
Cu       0.00533000       0.00558000      15.36029000  T      -0.00025200       0.00076200      -0.00010800
Cu       2.50022000      -0.00053000      15.35903000  T      -0.00123700       0.00077800       0.00016500
Cu       4.97577000       0.02040000      15.34174000  T      -0.00157600      -0.00139800      -0.00017500
Cu       7.50723000      12.38117000      15.50172000  T      -0.00012900      -0.00430000       0.00128800
Cu      10.04493000       0.01349000      15.33782000  T       0.00130700      -0.00149400      -0.00102900
Cu       0.04766000       2.50248000      15.34016000  T      -0.00078200       0.00091200      -0.00026700
Cu       2.49581000       2.49837000      15.34096000  T      -0.00051600       0.00092100       0.00025800
Cu       4.95694000       2.47852000      15.40547000  T       0.00070400      -0.00061700       0.00186400
Cu       7.53676000       2.30999000      15.66188000  T       0.00112600       0.00038900       0.00003200
Cu      10.10552000       2.48707000      15.39798000  T      -0.00114800       0.00047000       0.00110700
Cu      12.49188000       5.00529000      15.32572000  T      -0.00051400       0.00049400      -0.00085000
Cu       2.39688000       4.99661000      15.34758000  T      -0.00018900       0.00069700      -0.00020100
Pd       4.90048000       5.10013000      15.50545000  T       0.00566600      -0.01004000       0.00053000
Y        7.51621000       4.98115000      17.25313000  T      -0.00029100      -0.00071900       0.00148200
Cu      10.00441000       5.10977000      15.41067000  T      -0.00228500      -0.00300800       0.00233200
Cu       0.05628000       7.50557000      15.35758000  T      -0.00035500      -0.00015500      -0.00085100
Cu       2.53726000       7.48906000      15.35722000  T      -0.00097100       0.00051300      -0.00007400
Cu       5.02108000       7.65932000      15.49166000  T       0.00003500      -0.00238800       0.00045200
Cu       7.55076000       7.46609000      15.47539000  T       0.00001300      -0.00261800       0.00143900
Cu      10.09254000       7.61363000      15.46398000  T      -0.00064800      -0.00292400       0.00036000
Cu      12.50894000      10.00536000      15.36768000  T      -0.00038500       0.00014900      -0.00031600
Cu       2.51030000       9.99773000      15.36768000  T      -0.00072600       0.00049000       0.00005500
Cu       5.01328000      10.09461000      15.35748000  T      -0.00005700      -0.00204300       0.00004600
Cu       7.50568000       9.95718000      15.33655000  T       0.00066900      -0.00318000      -0.00053000
Cu      10.00747000      10.07183000      15.35020000  T       0.00029600      -0.00230800      -0.00083000
O        6.04060000       3.59168000      16.53021000  T       0.00085000      -0.00260800       0.00486000
O        6.13931000       6.59845000      16.67737000  T      -0.00000600      -0.00079600      -0.00074200
O        8.98487000       6.50857000      16.58219000  T       0.00179100      -0.00146400      -0.00297100
O        9.01609000       3.71607000      16.37881000  T       0.00291700      -0.00170400       0.00423200
C        7.58750000       1.40812000      17.46046000  T       0.00366200      -0.01707900      -0.00988400
O        7.66715000       2.37758000      18.47430000  T       0.00377200      -0.03359600      -0.00194100
O        7.50704000       0.22902000      17.82194000  T       0.00276600      -0.02443200      -0.02280500
H        7.63106000       1.89594000      19.33506000  T       0.00366800      -0.04404400      -0.00171600
108
Lattice="12.515153631 0.0 0.0 0.0 12.515153631 0.0 0.0 0.0 25.30973" Properties=species:S:1:pos:R:3:move_mask:L:1:forces:R:3 stress="0.0077809399027276085 -2.8760874052070053e-05 -2.9771998530463138e-05 -2.8760874052070053e-05 0.007450945073733034 0.00025539007041289115 -2.9771998530463138e-05 0.00025539007041289115 0.002002013984200062" free_energy=-444.61783755 energy=-444.61578027 pbc="T T T"
Cu       1.25152000       1.25152000      10.00000000  F      -0.00085800      -0.01743900      -0.07919900
Cu       3.75455000       1.25152000      10.00000000  F       0.00763400       0.00082900      -0.07116200
Cu       6.25758000       1.25152000      10.00000000  F      -0.01259700       0.01119400      -0.04946200
Cu       8.76061000       1.25152000      10.00000000  F       0.01056100       0.00389800      -0.04219600
Cu      11.26364000       1.25152000      10.00000000  F      -0.00622400      -0.00275400      -0.07323600
Cu       1.25152000       3.75455000      10.00000000  F      -0.00066100       0.00007300      -0.07016400
Cu       3.75455000       3.75455000      10.00000000  F       0.01782000      -0.00643200      -0.05885200
Cu       6.25758000       3.75455000      10.00000000  F      -0.02007100      -0.00827800      -0.08146800
Cu       8.76061000       3.75455000      10.00000000  F       0.02099300      -0.00521500      -0.08049000
Cu      11.26364000       3.75455000      10.00000000  F      -0.01653700       0.00852900      -0.05658600
Cu       1.25152000       6.25758000      10.00000000  F      -0.00146300       0.00000700      -0.07649800
Cu       3.75455000       6.25758000      10.00000000  F       0.01862600       0.01447500      -0.06775800
Cu       6.25758000       6.25758000      10.00000000  F      -0.02077500       0.01349400      -0.08830800
Cu       8.76061000       6.25758000      10.00000000  F       0.02130900       0.01418500      -0.08348700
Cu      11.26364000       6.25758000      10.00000000  F      -0.01582400       0.00064800      -0.07043300
Cu       1.25152000       8.76061000      10.00000000  F      -0.00212000       0.00590100      -0.07469300
Cu       3.75455000       8.76061000      10.00000000  F       0.00241500      -0.01909300      -0.07078200
Cu       6.25758000       8.76061000      10.00000000  F      -0.00603300      -0.02251000      -0.05996900
Cu       8.76061000       8.76061000      10.00000000  F       0.00812100      -0.01712900      -0.05283500
Cu      11.26364000       8.76061000      10.00000000  F      -0.00396100      -0.01639900      -0.07255700
Cu       1.25152000      11.26364000      10.00000000  F      -0.00542900       0.00329000      -0.01610700
Cu       3.75455000      11.26364000      10.00000000  F      -0.00688500       0.00638700      -0.07029800
Cu       6.25758000      11.26364000      10.00000000  F       0.00396800       0.00976000      -0.06881500
Cu       8.76061000      11.26364000      10.00000000  F      -0.00737700       0.00636300      -0.06984200
Cu      11.26364000      11.26364000      10.00000000  F       0.01358700       0.00673000      -0.06936800
Cu       0.00000000       0.00000000      11.76991000  F      -0.02619500       0.04206000       0.04224600
Cu       2.50303000       0.00000000      11.76991000  F       0.04205600       0.01620400       0.03049100
Cu       5.00606000       0.00000000      11.76991000  F       0.08229000       0.07101200       0.07493000
Cu       7.50909000       0.00000000      11.76991000  F       0.01040300       0.06583400       0.05130100
Cu      10.01212000       0.00000000      11.76991000  F      -0.07326500       0.06502800       0.09099000
Cu       0.00000000       2.50303000      11.76991000  F      -0.09537400       0.03354400       0.02128600
Cu       2.50303000       2.50303000      11.76991000  F       0.07469700       0.03683300       0.01946100
Cu       5.00606000       2.50303000      11.76991000  F       0.03902900      -0.02021600       0.10656100
Cu       7.50909000       2.50303000      11.76991000  F      -0.02540700      -0.02497300       0.21301800
Cu      10.01212000       2.50303000      11.76991000  F      -0.02282600      -0.02858000       0.09441300
Cu       0.00000000       5.00606000      11.76991000  F      -0.08576400       0.03979200       0.01372700
Cu       2.50303000       5.00606000      11.76991000  F       0.05256900       0.01815000       0.02136000
Cu       5.00606000       5.00606000      11.76991000  F       0.01481900      -0.03370800       0.12457100
Cu       7.50909000       5.00606000      11.76991000  F      -0.05354300      -0.05710800       0.15649600
Cu      10.01212000       5.00606000      11.76991000  F      -0.02568400      -0.03079400       0.07973900
Cu       0.00000000       7.50909000      11.76991000  F      -0.06896400      -0.00994100       0.05057500
Cu       2.50303000       7.50909000      11.76991000  F       0.05999400       0.03420600       0.01171000
Cu       5.00606000       7.50909000      11.76991000  F      -0.00858600       0.05817600       0.01643800
Cu       7.50909000       7.50909000      11.76991000  F      -0.03330100       0.02818800       0.04606900
Cu      10.01212000       7.50909000      11.76991000  F       0.06668100       0.07740800      -0.00885700
Cu       0.00000000      10.01212000      11.76991000  F      -0.01053400      -0.04870800       0.06219200
Cu       2.50303000      10.01212000      11.76991000  F       0.03985100      -0.04414600       0.06792900
Cu       5.00606000      10.01212000      11.76991000  F       0.09409100      -0.03516000       0.10364300
Cu       7.50909000      10.01212000      11.76991000  F       0.01770700      -0.04343600       0.09104500
Cu      10.01212000      10.01212000      11.76991000  F      -0.07960100      -0.03579400       0.11240300
Cu       1.25908000       1.23736000      13.56542000  T      -0.00020900       0.00088500       0.00025900
Cu       3.77529000       1.27115000      13.58329000  T       0.00006000       0.00068700       0.00034700
Cu       6.29742000       1.26226000      13.63218000  T       0.00006300      -0.00097100       0.00073100
Cu       8.73910000       1.26192000      13.62815000  T      -0.00012900      -0.00119000       0.00034600
Cu      11.25808000       1.27546000      13.58418000  T      -0.00034800       0.00036200       0.00022900
Cu       1.23834000       3.74807000      13.55430000  T       0.00007900       0.00070600       0.00065100
Cu       3.75874000       3.77376000      13.59066000  T       0.00049300      -0.00005000       0.00077500
Cu       6.27868000       3.74994000      13.60242000  T       0.00011200      -0.00063300       0.00079400
Cu       8.72044000       3.74746000      13.59573000  T      -0.00011400      -0.00083100      -0.00002700
Cu      11.22559000       3.78466000      13.58981000  T      -0.00068300      -0.00003000       0.00065800
Cu       1.24401000       6.26018000      13.56217000  T       0.00021100       0.00077000       0.00038500
Cu       3.75710000       6.28920000      13.57747000  T       0.00051500      -0.00007500       0.00083000
Cu       6.26858000       6.24509000      13.57043000  T       0.00007600      -0.00101800       0.00016900
Cu       8.74219000       6.24837000      13.54515000  T      -0.00014900      -0.00124200       0.00019600
Cu      11.23533000       6.28011000      13.59728000  T      -0.00069200      -0.00050000       0.00042200
Cu       1.26614000       8.76324000      13.57959000  T      -0.00009700       0.00084900       0.00022600
Cu       3.78721000       8.76571000      13.60627000  T      -0.00020700      -0.00025000       0.00017800
Cu       6.27808000       8.72815000      13.60284000  T      -0.00034500      -0.00111000      -0.00023800
Cu       8.76554000       8.72768000      13.60515000  T       0.00006600      -0.00137500      -0.00040700
Cu      11.26243000       8.76321000      13.59948000  T      -0.00000900      -0.00048900       0.00010100
Cu       1.24972000      11.25495000      13.59083000  T      -0.00032100       0.00082200       0.00004400
Cu       3.74767000      11.27085000      13.56958000  T      -0.00026800       0.00003700      -0.00002200
Cu       6.26998000      11.27850000      13.58596000  T       0.00015100      -0.00041200       0.00013700
Cu       8.74673000      11.27563000      13.58983000  T      -0.00039200      -0.00075300      -0.00005100
Cu      11.27039000      11.27152000      13.56942000  T      -0.00005600      -0.00023400      -0.00022000
Cu       0.00534000       0.00561000      15.36030000  T       0.00013000       0.00099900      -0.00016100
Cu       2.50018000      -0.00050000      15.35904000  T      -0.00078200       0.00116000      -0.00032100
Cu       4.97565000       0.02028000      15.34170000  T      -0.00231900      -0.00125000      -0.00137000
Cu       7.50720000      12.38084000      15.50180000  T      -0.00067100      -0.00517100       0.00246500
Cu      10.04501000       0.01336000      15.33776000  T       0.00172800      -0.00145100      -0.00164000
Cu       0.04764000       2.50250000      15.34017000  T      -0.00034200       0.00075000       0.00011200
Cu       2.49583000       2.49840000      15.34098000  T       0.00034500       0.00106100       0.00022900
Cu       4.95701000       2.47845000      15.40561000  T       0.00103000       0.00036900       0.00198400
Cu       7.53681000       2.30999000      15.66186000  T       0.00033300       0.00081000      -0.00095200
Cu      10.10545000       2.48703000      15.39806000  T      -0.00073400      -0.00015800       0.00090500
Cu      12.49187000       5.00529000      15.32571000  T      -0.00001700       0.00075300       0.00008000
Cu       2.39693000       4.99662000      15.34759000  T       0.00058800       0.00090000       0.00024300
Pd       4.90053000       5.10000000      15.50548000  T       0.01354000      -0.01669400       0.00276700
Y        7.51614000       4.98105000      17.25322000  T      -0.00017700       0.00057100      -0.00026700
Cu      10.00428000       5.10954000      15.41081000  T      -0.00156000      -0.00255300       0.00156500
Cu       0.05628000       7.50554000      15.35757000  T      -0.00008000       0.00078300      -0.00014400
Cu       2.53724000       7.48907000      15.35723000  T      -0.00017100       0.00129900       0.00013500
Cu       5.02109000       7.65910000      15.49168000  T       0.00018800      -0.00133000      -0.00032600
Cu       7.55073000       7.46587000      15.47546000  T      -0.00064000      -0.00206400       0.00026200
Cu      10.09251000       7.61342000      15.46399000  T      -0.00012500      -0.00145800      -0.00049000
Cu      12.50894000      10.00535000      15.36769000  T      -0.00008600       0.00105900      -0.00016300
Cu       2.51030000       9.99774000      15.36768000  T      -0.00012800       0.00133300      -0.00027200
Cu       5.01329000      10.09444000      15.35746000  T      -0.00009800      -0.00188500      -0.00110000
Cu       7.50569000       9.95692000      15.33649000  T       0.00003600      -0.00355000      -0.00150400
Cu      10.00748000      10.07164000      15.35015000  T       0.00012400      -0.00194300      -0.00141300
O        6.04066000       3.59134000      16.53072000  T      -0.00065100      -0.00206200       0.00500100
O        6.13925000       6.59823000      16.67733000  T      -0.00161600      -0.00309600      -0.00110200
O        8.98490000       6.50835000      16.58207000  T      -0.00145000      -0.00272000      -0.00031200
O        9.01626000       3.71585000      16.37938000  T      -0.00005500      -0.00202800       0.00848200
C        7.58790000       1.40632000      17.45949000  T       0.00277700      -0.01583700      -0.00780600
O        7.66755000       2.37405000      18.47442000  T       0.00332900      -0.03827000       0.00551600
O        7.50736000       0.22665000      17.81954000  T       0.00253200      -0.02817200      -0.02735500
H        7.63148000       1.89099000      19.33462000  T       0.00385400      -0.03849100      -0.00873300
108
Lattice="12.515153631 0.0 0.0 0.0 12.515153631 0.0 0.0 0.0 25.30973" Properties=species:S:1:pos:R:3:move_mask:L:1:forces:R:3 stress="0.0077675081750887085 -2.8068066539097013e-05 -2.789954579269816e-05 -2.8068066539097013e-05 0.00743841212340826 0.0002593721532352047 -2.789954579269816e-05 0.0002593721532352047 0.0019840634039540216" free_energy=-444.61663009 energy=-444.61457313 pbc="T T T"
Cu       1.25152000       1.25152000      10.00000000  F      -0.00087400      -0.01751800      -0.07924900
Cu       3.75455000       1.25152000      10.00000000  F       0.00771100       0.00075400      -0.07124500
Cu       6.25758000       1.25152000      10.00000000  F      -0.01251300       0.01112400      -0.04953200
Cu       8.76061000       1.25152000      10.00000000  F       0.01068400       0.00381100      -0.04223800
Cu      11.26364000       1.25152000      10.00000000  F      -0.00620800      -0.00285100      -0.07330300
Cu       1.25152000       3.75455000      10.00000000  F      -0.00066700      -0.00005900      -0.07029900
Cu       3.75455000       3.75455000      10.00000000  F       0.01789700      -0.00656600      -0.05897800
Cu       6.25758000       3.75455000      10.00000000  F      -0.01998800      -0.00842900      -0.08160000
Cu       8.76061000       3.75455000      10.00000000  F       0.02108400      -0.00538200      -0.08064900
Cu      11.26364000       3.75455000      10.00000000  F      -0.01650500       0.00834400      -0.05673400
Cu       1.25152000       6.25758000      10.00000000  F      -0.00145900       0.00000300      -0.07662400
Cu       3.75455000       6.25758000      10.00000000  F       0.01868800       0.01449400      -0.06790200
Cu       6.25758000       6.25758000      10.00000000  F      -0.02067500       0.01354600      -0.08845900
Cu       8.76061000       6.25758000      10.00000000  F       0.02138800       0.01424700      -0.08364500
Cu      11.26364000       6.25758000      10.00000000  F      -0.01578700       0.00070500      -0.07062100
Cu       1.25152000       8.76061000      10.00000000  F      -0.00212400       0.00603400      -0.07480200
Cu       3.75455000       8.76061000      10.00000000  F       0.00250900      -0.01896700      -0.07088500
Cu       6.25758000       8.76061000      10.00000000  F      -0.00592700      -0.02240000      -0.06005000
Cu       8.76061000       8.76061000      10.00000000  F       0.00821200      -0.01700800      -0.05292100
Cu      11.26364000       8.76061000      10.00000000  F      -0.00396900      -0.01625200      -0.07265200
Cu       1.25152000      11.26364000      10.00000000  F      -0.00544100       0.00338700      -0.01612900
Cu       3.75455000      11.26364000      10.00000000  F      -0.00682900       0.00645900      -0.07032100
Cu       6.25758000      11.26364000      10.00000000  F       0.00407900       0.00983100      -0.06887300
Cu       8.76061000      11.26364000      10.00000000  F      -0.00725200       0.00643400      -0.06989000
Cu      11.26364000      11.26364000      10.00000000  F       0.01359000       0.00681500      -0.06937200
Cu       0.00000000       0.00000000      11.76991000  F      -0.02622500       0.04204000       0.04195800
Cu       2.50303000       0.00000000      11.76991000  F       0.04212300       0.01619700       0.03025100
Cu       5.00606000       0.00000000      11.76991000  F       0.08245900       0.07102800       0.07482200
Cu       7.50909000       0.00000000      11.76991000  F       0.01051200       0.06583000       0.05113000
Cu      10.01212000       0.00000000      11.76991000  F      -0.07332300       0.06507500       0.09077200
Cu       0.00000000       2.50303000      11.76991000  F      -0.09541400       0.03334600       0.02093900
Cu       2.50303000       2.50303000      11.76991000  F       0.07483400       0.03672000       0.01927600
Cu       5.00606000       2.50303000      11.76991000  F       0.03908900      -0.02023700       0.10635100
Cu       7.50909000       2.50303000      11.76991000  F      -0.02532400      -0.02493300       0.21291200
Cu      10.01212000       2.50303000      11.76991000  F      -0.02282100      -0.02860800       0.09416300
Cu       0.00000000       5.00606000      11.76991000  F      -0.08571100       0.03987300       0.01343400
Cu       2.50303000       5.00606000      11.76991000  F       0.05259700       0.01818700       0.02114100
Cu       5.00606000       5.00606000      11.76991000  F       0.01494400      -0.03352300       0.12456500
Cu       7.50909000       5.00606000      11.76991000  F      -0.05347300      -0.05693800       0.15655200
Cu      10.01212000       5.00606000      11.76991000  F      -0.02575800      -0.03065100       0.07965500
Cu       0.00000000       7.50909000      11.76991000  F      -0.06893900      -0.00959100       0.05035900
Cu       2.50303000       7.50909000      11.76991000  F       0.06000900       0.03454300       0.01154900
Cu       5.00606000       7.50909000      11.76991000  F      -0.00840700       0.05851700       0.01649900
Cu       7.50909000       7.50909000      11.76991000  F      -0.03329200       0.02865800       0.04612300
Cu      10.01212000       7.50909000      11.76991000  F       0.06662900       0.07782000      -0.00895000
Cu       0.00000000      10.01212000      11.76991000  F      -0.01061000      -0.04844500       0.06198900
Cu       2.50303000      10.01212000      11.76991000  F       0.03997500      -0.04396200       0.06781400
Cu       5.00606000      10.01212000      11.76991000  F       0.09423700      -0.03493000       0.10363700
Cu       7.50909000      10.01212000      11.76991000  F       0.01780100      -0.04308300       0.09114600
Cu      10.01212000      10.01212000      11.76991000  F      -0.07960800      -0.03547500       0.11227200
Cu       1.25907000       1.23736000      13.56540000  T      -0.00005000       0.00083200       0.00025900
Cu       3.77531000       1.27116000      13.58327000  T       0.00001800       0.00061300       0.00031200
Cu       6.29743000       1.26233000      13.63214000  T       0.00009700      -0.00117600       0.00084800
Cu       8.73909000       1.26200000      13.62811000  T      -0.00010800      -0.00142300       0.00052700
Cu      11.25806000       1.27548000      13.58416000  T      -0.00014200       0.00025800       0.00028000
Cu       1.23833000       3.74809000      13.55427000  T       0.00029400       0.00067700       0.00083000
Cu       3.75873000       3.77380000      13.59063000  T       0.00050700      -0.00028300       0.00076900
Cu       6.27868000       3.75002000      13.60239000  T       0.00033400      -0.00118700       0.00039100
Cu       8.72043000       3.74754000      13.59572000  T      -0.00007600      -0.00111000       0.00009900
Cu      11.22559000       3.78470000      13.58977000  T      -0.00054000      -0.00016600       0.00084000
Cu       1.24400000       6.26023000      13.56216000  T       0.00052100       0.00048300       0.00058500
Cu       3.75708000       6.28930000      13.57743000  T       0.00139400      -0.00109100       0.00238500
Cu       6.26858000       6.24522000      13.57043000  T       0.00005000      -0.00145400       0.00048600
Cu       8.74217000       6.24851000      13.54514000  T      -0.00014500      -0.00172800       0.00049800
Cu      11.23534000       6.28022000      13.59724000  T      -0.00064900      -0.00087600       0.00070900
Cu       1.26614000       8.76329000      13.57959000  T       0.00007300       0.00055800       0.00026300
Cu       3.78724000       8.76581000      13.60627000  T      -0.00008800      -0.00077500       0.00030100
Cu       6.27810000       8.72829000      13.60286000  T      -0.00041700      -0.00190800      -0.00022600
Cu       8.76552000       8.72784000      13.60516000  T       0.00010500      -0.00221500      -0.00034500
Cu      11.26240000       8.76333000      13.59947000  T       0.00014000      -0.00099800       0.00025000
Cu       1.24972000      11.25497000      13.59082000  T      -0.00019300       0.00065600       0.00004200
Cu       3.74770000      11.27091000      13.56959000  T      -0.00036300      -0.00028400      -0.00016200
Cu       6.26999000      11.27859000      13.58596000  T       0.00009800      -0.00085000       0.00016000
Cu       8.74673000      11.27573000      13.58983000  T      -0.00033500      -0.00121400      -0.00002800
Cu      11.27036000      11.27159000      13.56942000  T       0.00023700      -0.00062500      -0.00031600
Cu       0.00532000       0.00562000      15.36029000  T       0.00024100       0.00092200       0.00000900
Cu       2.50021000      -0.00049000      15.35904000  T      -0.00076300       0.00109200      -0.00026200
Cu       4.97575000       0.02038000      15.34172000  T      -0.00221000      -0.00173500      -0.00117700
Cu       7.50722000      12.38111000      15.50173000  T      -0.00067800      -0.00537800       0.00234100
Cu      10.04493000       0.01347000      15.33778000  T       0.00162000      -0.00198500      -0.00138100
Cu       0.04764000       2.50250000      15.34016000  T      -0.00027700       0.00072700       0.00019500
Cu       2.49582000       2.49840000      15.34097000  T       0.00044800       0.00106800       0.00026200
Cu       4.95696000       2.47850000      15.40550000  T       0.00081900      -0.00168900       0.00172400
Cu       7.53677000       2.30999000      15.66190000  T       0.00069100       0.00020600      -0.00089700
Cu      10.10547000       2.48708000      15.39800000  T      -0.00068600      -0.00078100       0.00094200
Cu      12.49187000       5.00532000      15.32572000  T       0.00004300       0.00068000      -0.00002600
Cu       2.39690000       4.99664000      15.34759000  T       0.00215200       0.00115300       0.00024000
Pd       4.90082000       5.09967000      15.50546000  T       0.00307400      -0.00294800       0.00033100
Y        7.51620000       4.98114000      17.25315000  T      -0.00015600       0.00012900       0.00080200
Cu      10.00434000       5.10974000      15.41072000  T      -0.00172900      -0.00235200       0.00164400
Cu       0.05626000       7.50560000      15.35757000  T      -0.00006100       0.00055200      -0.00015100
Cu       2.53726000       7.48910000      15.35723000  T      -0.00005900       0.00124800       0.00006100
Cu       5.02110000       7.65928000      15.49169000  T       0.00038500      -0.00397200      -0.00004300
Cu       7.55075000       7.46607000      15.47543000  T      -0.00076000      -0.00272100       0.00069900
Cu      10.09250000       7.61360000      15.46400000  T      -0.00029100      -0.00227500      -0.00028800
Cu      12.50893000      10.00539000      15.36768000  T       0.00001400       0.00087800      -0.00002300
Cu       2.51030000       9.99777000      15.36768000  T      -0.00000400       0.00119200      -0.00021700
Cu       5.01330000      10.09459000      15.35747000  T       0.00009900      -0.00264700      -0.00097100
Cu       7.50569000       9.95715000      15.33652000  T       0.00012900      -0.00412700      -0.00133800
Cu      10.00745000      10.07180000      15.35017000  T       0.00008600      -0.00266600      -0.00120900
O        6.04062000       3.59169000      16.53017000  T       0.00112200      -0.00373300       0.00698500
O        6.13934000       6.59851000      16.67735000  T      -0.00151800      -0.00302500      -0.00150700
O        8.98488000       6.50862000      16.58216000  T      -0.00100100      -0.00266600      -0.00091800
O        9.01609000       3.71609000      16.37873000  T      -0.00017300      -0.00161300       0.00839200
C        7.58750000       1.40808000      17.46042000  T       0.00351200      -0.01525300      -0.00944700
O        7.66714000       2.37758000      18.47423000  T       0.00322300      -0.03423700       0.00308800
O        7.50703000       0.22907000      17.82202000  T       0.00238100      -0.02564000      -0.02544000
H        7.63105000       1.89596000      19.33511000  T       0.00363900      -0.04113000      -0.00556100
108
Lattice="12.515153631 0.0 0.0 0.0 12.515153631 0.0 0.0 0.0 25.30973" Properties=species:S:1:pos:R:3:move_mask:L:1:forces:R:3 stress="0.0077833116761954445 -2.831148539500646e-05 -2.660755340364033e-05 -2.831148539500646e-05 0.007452174651030833 0.0002580864023552727 -2.660755340364033e-05 0.0002580864023552727 0.001999442482440198" free_energy=-444.61722159 energy=-444.61516707 pbc="T T T"
Cu       1.25152000       1.25152000      10.00000000  F      -0.00060300      -0.01740200      -0.07921300
Cu       3.75455000       1.25152000      10.00000000  F       0.00781900       0.00080800      -0.07101500
Cu       6.25758000       1.25152000      10.00000000  F      -0.01272200       0.01113300      -0.04928900
Cu       8.76061000       1.25152000      10.00000000  F       0.01034200       0.00386600      -0.04216800
Cu      11.26364000       1.25152000      10.00000000  F      -0.00619800      -0.00275000      -0.07337900
Cu       1.25152000       3.75455000      10.00000000  F      -0.00043000       0.00006200      -0.07017200
Cu       3.75455000       3.75455000      10.00000000  F       0.01793600      -0.00647800      -0.05873600
Cu       6.25758000       3.75455000      10.00000000  F      -0.02021900      -0.00840600      -0.08137800
Cu       8.76061000       3.75455000      10.00000000  F       0.02082500      -0.00533700      -0.08054900
Cu      11.26364000       3.75455000      10.00000000  F      -0.01645000       0.00845900      -0.05669900
Cu       1.25152000       6.25758000      10.00000000  F      -0.00122700      -0.00003600      -0.07648300
Cu       3.75455000       6.25758000      10.00000000  F       0.01868500       0.01443500      -0.06767000
Cu       6.25758000       6.25758000      10.00000000  F      -0.02093900       0.01347800      -0.08829000
Cu       8.76061000       6.25758000      10.00000000  F       0.02117100       0.01416000      -0.08361200
Cu      11.26364000       6.25758000      10.00000000  F      -0.01569300       0.00063800      -0.07058500
Cu       1.25152000       8.76061000      10.00000000  F      -0.00186400       0.00583000      -0.07472300
Cu       3.75455000       8.76061000      10.00000000  F       0.00253900      -0.01909100      -0.07067000
Cu       6.25758000       8.76061000      10.00000000  F      -0.00618700      -0.02245100      -0.05989600
Cu       8.76061000       8.76061000      10.00000000  F       0.00793200      -0.01710500      -0.05293500
Cu      11.26364000       8.76061000      10.00000000  F      -0.00387700      -0.01643000      -0.07271900
Cu       1.25152000      11.26364000      10.00000000  F      -0.00516100       0.00327200      -0.01614200
Cu       3.75455000      11.26364000      10.00000000  F      -0.00670900       0.00638500      -0.07012900
Cu       6.25758000      11.26364000      10.00000000  F       0.00384100       0.00980200      -0.06865700
Cu       8.76061000      11.26364000      10.00000000  F      -0.00760700       0.00640700      -0.06985700
Cu      11.26364000      11.26364000      10.00000000  F       0.01360600       0.00673400      -0.06950900
Cu       0.00000000       0.00000000      11.76991000  F      -0.02602500       0.04210600       0.04186800
Cu       2.50303000       0.00000000      11.76991000  F       0.04248400       0.01623800       0.03016600
Cu       5.00606000       0.00000000      11.76991000  F       0.08245900       0.07102000       0.07484200
Cu       7.50909000       0.00000000      11.76991000  F       0.01006700       0.06584200       0.05124300
Cu      10.01212000       0.00000000      11.76991000  F      -0.07362100       0.06510100       0.09078400
Cu       0.00000000       2.50303000      11.76991000  F      -0.09522100       0.03362300       0.02086600
Cu       2.50303000       2.50303000      11.76991000  F       0.07509600       0.03690700       0.01913000
Cu       5.00606000       2.50303000      11.76991000  F       0.03912300      -0.02033500       0.10627100
Cu       7.50909000       2.50303000      11.76991000  F      -0.02568300      -0.02509000       0.21295400
Cu      10.01212000       2.50303000      11.76991000  F      -0.02310700      -0.02858400       0.09418900
Cu       0.00000000       5.00606000      11.76991000  F      -0.08553900       0.03988200       0.01337200
Cu       2.50303000       5.00606000      11.76991000  F       0.05284400       0.01824300       0.02098400
Cu       5.00606000       5.00606000      11.76991000  F       0.01478700      -0.03365200       0.12433000
Cu       7.50909000       5.00606000      11.76991000  F      -0.05375200      -0.05713800       0.15636700
Cu      10.01212000       5.00606000      11.76991000  F      -0.02583000      -0.03078700       0.07955000
Cu       0.00000000       7.50909000      11.76991000  F      -0.06870800      -0.00987700       0.05019000
Cu       2.50303000       7.50909000      11.76991000  F       0.06032100       0.03424600       0.01145800
Cu       5.00606000       7.50909000      11.76991000  F      -0.00865300       0.05831800       0.01627500
Cu       7.50909000       7.50909000      11.76991000  F      -0.03360400       0.02835700       0.04595500
Cu      10.01212000       7.50909000      11.76991000  F       0.06654900       0.07748700      -0.00908400
Cu       0.00000000      10.01212000      11.76991000  F      -0.01033300      -0.04871500       0.06183300
Cu       2.50303000      10.01212000      11.76991000  F       0.04027400      -0.04414400       0.06763600
Cu       5.00606000      10.01212000      11.76991000  F       0.09416100      -0.03502300       0.10356900
Cu       7.50909000      10.01212000      11.76991000  F       0.01734500      -0.04322300       0.09105700
Cu      10.01212000      10.01212000      11.76991000  F      -0.07984400      -0.03568700       0.11221400
Cu       1.25906000       1.23739000      13.56541000  T       0.00039000       0.00086800       0.00005400
Cu       3.77530000       1.27117000      13.58329000  T       0.00047200       0.00053800       0.00010500
Cu       6.29744000       1.26227000      13.63218000  T      -0.00003500      -0.00097600       0.00081700
Cu       8.73910000       1.26193000      13.62814000  T      -0.00074600      -0.00107400       0.00059500
Cu      11.25806000       1.27548000      13.58418000  T      -0.00037200       0.00037900       0.00016700
Cu       1.23833000       3.74811000      13.55430000  T       0.00057800       0.00061800       0.00037700
Cu       3.75874000       3.77378000      13.59065000  T       0.00071800      -0.00035300       0.00035700
Cu       6.27870000       3.74996000      13.60241000  T       0.00017700      -0.00129700       0.00027400
Cu       8.72044000       3.74747000      13.59573000  T      -0.00054400      -0.00117400       0.00013700
Cu      11.22557000       3.78469000      13.58981000  T      -0.00059900      -0.00011600       0.00064800
Cu       1.24400000       6.26024000      13.56218000  T       0.00075100       0.00030500       0.00013900
Cu       3.75712000       6.28924000      13.57751000  T       0.00123500      -0.00090000       0.00150000
Cu       6.26859000       6.24514000      13.57044000  T      -0.00010400      -0.00132100       0.00006700
Cu       8.74218000       6.24842000      13.54516000  T      -0.00051100      -0.00159200       0.00029600
Cu      11.23532000       6.28016000      13.59727000  T      -0.00060100      -0.00088400       0.00043600
Cu       1.26613000       8.76330000      13.57960000  T       0.00047500       0.00033800       0.00000800
Cu       3.78722000       8.76577000      13.60628000  T       0.00019900      -0.00063200       0.00003000
Cu       6.27809000       8.72820000      13.60284000  T      -0.00057400      -0.00143100      -0.00027400
Cu       8.76554000       8.72773000      13.60515000  T      -0.00044900      -0.00172100      -0.00032100
Cu      11.26241000       8.76327000      13.59948000  T       0.00002500      -0.00088600       0.00006700
Cu       1.24970000      11.25499000      13.59083000  T       0.00028000       0.00057100      -0.00004900
Cu       3.74767000      11.27088000      13.56958000  T       0.00020900      -0.00014800      -0.00022600
Cu       6.27000000      11.27854000      13.58596000  T      -0.00014500      -0.00055200       0.00014200
Cu       8.74672000      11.27567000      13.58983000  T      -0.00088700      -0.00081500       0.00002600
Cu      11.27037000      11.27155000      13.56941000  T      -0.00002700      -0.00040000      -0.00029900
Cu       0.00532000       0.00565000      15.36029000  T       0.00023600       0.00083000       0.00048600
Cu       2.50017000      -0.00046000      15.35903000  T      -0.00027600       0.00096000      -0.00001700
Cu       4.97565000       0.02030000      15.34168000  T      -0.00161400      -0.00144800      -0.00109400
Cu       7.50720000      12.38087000      15.50184000  T      -0.00083000      -0.00464400       0.00086800
Cu      10.04500000       0.01338000      15.33772000  T       0.00087000      -0.00141100      -0.00077000
Cu       0.04762000       2.50253000      15.34017000  T      -0.00023600       0.00064400       0.00055600
Cu       2.49582000       2.49843000      15.34099000  T       0.00065500       0.00085200       0.00033700
Cu       4.95700000       2.47842000      15.40559000  T       0.00148500      -0.00100500       0.00192200
Cu       7.53681000       2.31000000      15.66187000  T       0.00051100       0.00000400       0.00008200
Cu      10.10543000       2.48705000      15.39805000  T      -0.00123700      -0.00039700       0.00132000
Cu      12.49186000       5.00534000      15.32571000  T       0.00010300       0.00046800       0.00040400
Cu       2.39695000       4.99668000      15.34760000  T       0.00181000       0.00086000       0.00034400
Pd       4.90096000       5.09950000      15.50546000  T       0.00528100      -0.00661600       0.00042200
Y        7.51618000       4.98113000      17.25317000  T      -0.00102300      -0.00043100       0.00066000
Cu      10.00425000       5.10960000      15.41081000  T      -0.00151200      -0.00274100       0.00161800
Cu       0.05625000       7.50561000      15.35756000  T       0.00003700       0.00036900       0.00036100
Cu       2.53724000       7.48914000      15.35723000  T       0.00004000       0.00106200       0.00025500
Cu       5.02110000       7.65911000      15.49168000  T       0.00022300      -0.00298500      -0.00014300
Cu       7.55073000       7.46593000      15.47546000  T      -0.00078200      -0.00207100       0.00043600
Cu      10.09249000       7.61347000      15.46399000  T      -0.00023300      -0.00174600      -0.00001600
Cu      12.50892000      10.00542000      15.36768000  T       0.00008400       0.00070900       0.00051600
Cu       2.51029000       9.99781000      15.36768000  T       0.00031700       0.00102600       0.00006900
Cu       5.01330000      10.09447000      15.35744000  T       0.00020800      -0.00201500      -0.00086700
Cu       7.50570000       9.95696000      15.33646000  T      -0.00020000      -0.00335300      -0.00114400
Cu      10.00746000      10.07168000      15.35011000  T      -0.00028700      -0.00203100      -0.00058000
O        6.04070000       3.59143000      16.53061000  T       0.00088300      -0.00442800       0.00542000
O        6.13929000       6.59831000      16.67733000  T      -0.00103800      -0.00216800      -0.00076100
O        8.98488000       6.50842000      16.58208000  T      -0.00108100      -0.00222500      -0.00014500
O        9.01618000       3.71594000      16.37921000  T       0.00004000      -0.00241900       0.00706600
C        7.58777000       1.40676000      17.45979000  T       0.00346000      -0.01249800      -0.00882600
O        7.66743000       2.37500000      18.47444000  T       0.00360900      -0.03408900      -0.00162100
O        7.50728000       0.22726000      17.82012000  T       0.00265600      -0.02651200      -0.02352200
H        7.63135000       1.89250000      19.33476000  T       0.00352900      -0.04299200      -0.00225500
108
Lattice="12.515153631 0.0 0.0 0.0 12.515153631 0.0 0.0 0.0 25.30973" Properties=species:S:1:pos:R:3:move_mask:L:1:forces:R:3 stress="0.007769287005189585 -2.7918270320075815e-05 -2.9179055163504234e-05 -2.7918270320075815e-05 0.007431846055807833 0.0002516201989008577 -2.9179055163504234e-05 0.0002516201989008577 0.001979195026835833" free_energy=-444.61827279 energy=-444.61623175 pbc="T T T"
Cu       1.25152000       1.25152000      10.00000000  F      -0.00082900      -0.01775300      -0.07970300
Cu       3.75455000       1.25152000      10.00000000  F       0.00806100       0.00047200      -0.07137800
Cu       6.25758000       1.25152000      10.00000000  F      -0.01221200       0.01078900      -0.04930600
Cu       8.76061000       1.25152000      10.00000000  F       0.01028200       0.00351800      -0.04211900
Cu      11.26364000       1.25152000      10.00000000  F      -0.00663900      -0.00313700      -0.07366300
Cu       1.25152000       3.75455000      10.00000000  F      -0.00062500       0.00014100      -0.07111900
Cu       3.75455000       3.75455000      10.00000000  F       0.01823400      -0.00628100      -0.05937100
Cu       6.25758000       3.75455000      10.00000000  F      -0.01975100      -0.00816500      -0.08164600
Cu       8.76061000       3.75455000      10.00000000  F       0.02079200      -0.00512000      -0.08077400
Cu      11.26364000       3.75455000      10.00000000  F      -0.01694600       0.00868400      -0.05728300
Cu       1.25152000       6.25758000      10.00000000  F      -0.00141500       0.00072300      -0.07716400
Cu       3.75455000       6.25758000      10.00000000  F       0.01901600       0.01509100      -0.06803100
Cu       6.25758000       6.25758000      10.00000000  F      -0.02046700       0.01410600      -0.08823400
Cu       8.76061000       6.25758000      10.00000000  F       0.02113100       0.01481700      -0.08354200
Cu      11.26364000       6.25758000      10.00000000  F      -0.01623500       0.00128000      -0.07085700
Cu       1.25152000       8.76061000      10.00000000  F      -0.00209500       0.00654700      -0.07480500
Cu       3.75455000       8.76061000      10.00000000  F       0.00278400      -0.01837800      -0.07059400
Cu       6.25758000       8.76061000      10.00000000  F      -0.00567600      -0.02169800      -0.05942600
Cu       8.76061000       8.76061000      10.00000000  F       0.00788900      -0.01636400      -0.05239100
Cu      11.26364000       8.76061000      10.00000000  F      -0.00432500      -0.01568200      -0.07253100
Cu       1.25152000      11.26364000      10.00000000  F      -0.00544100       0.00325000      -0.01625700
Cu       3.75455000      11.26364000      10.00000000  F      -0.00640200       0.00633700      -0.07015100
Cu       6.25758000      11.26364000      10.00000000  F       0.00434100       0.00971100      -0.06806200
Cu       8.76061000      11.26364000      10.00000000  F      -0.00763800       0.00633200      -0.06917100
Cu      11.26364000      11.26364000      10.00000000  F       0.01314600       0.00669300      -0.06935600
Cu       0.00000000       0.00000000      11.76991000  F      -0.02661400       0.04164000       0.04215200
Cu       2.50303000       0.00000000      11.76991000  F       0.04262100       0.01573600       0.03041100
Cu       5.00606000       0.00000000      11.76991000  F       0.08313900       0.07036900       0.07496700
Cu       7.50909000       0.00000000      11.76991000  F       0.01032800       0.06512100       0.05154500
Cu      10.01212000       0.00000000      11.76991000  F      -0.07414400       0.06433200       0.09095300
Cu       0.00000000       2.50303000      11.76991000  F      -0.09573700       0.03338900       0.02121200
Cu       2.50303000       2.50303000      11.76991000  F       0.07520100       0.03663300       0.01930700
Cu       5.00606000       2.50303000      11.76991000  F       0.04000500      -0.02094100       0.10639100
Cu       7.50909000       2.50303000      11.76991000  F      -0.02551200      -0.02593000       0.21296900
Cu      10.01212000       2.50303000      11.76991000  F      -0.02368200      -0.02927300       0.09432900
Cu       0.00000000       5.00606000      11.76991000  F      -0.08613000       0.04037600       0.01389200
Cu       2.50303000       5.00606000      11.76991000  F       0.05326200       0.01886700       0.02159800
Cu       5.00606000       5.00606000      11.76991000  F       0.01545100      -0.03319000       0.12455300
Cu       7.50909000       5.00606000      11.76991000  F      -0.05355700      -0.05666000       0.15635900
Cu      10.01212000       5.00606000      11.76991000  F      -0.02629800      -0.03037000       0.07960100
Cu       0.00000000       7.50909000      11.76991000  F      -0.06943700      -0.00906500       0.05065700
Cu       2.50303000       7.50909000      11.76991000  F       0.06085400       0.03490800       0.01211700
Cu       5.00606000       7.50909000      11.76991000  F      -0.00807900       0.05890400       0.01672000
Cu       7.50909000       7.50909000      11.76991000  F      -0.03330000       0.02888500       0.04627100
Cu      10.01212000       7.50909000      11.76991000  F       0.06604600       0.07814500      -0.00872000
Cu       0.00000000      10.01212000      11.76991000  F      -0.01082900      -0.04847700       0.06213500
Cu       2.50303000      10.01212000      11.76991000  F       0.04033600      -0.04377900       0.06783900
Cu       5.00606000      10.01212000      11.76991000  F       0.09489900      -0.03484300       0.10376400
Cu       7.50909000      10.01212000      11.76991000  F       0.01759000      -0.04339100       0.09110000
Cu      10.01212000      10.01212000      11.76991000  F      -0.08045400      -0.03556800       0.11247400
Cu       1.25906000       1.23744000      13.56543000  T      -0.00004300       0.00029900       0.00007200
Cu       3.77533000       1.27119000      13.58331000  T       0.00072700      -0.00002700       0.00018900
Cu       6.29747000       1.26208000      13.63228000  T       0.00063600      -0.00178300       0.00075000
Cu       8.73906000       1.26173000      13.62822000  T      -0.00071000      -0.00179900       0.00051800
Cu      11.25802000       1.27547000      13.58421000  T      -0.00095100      -0.00010500       0.00015700
Cu       1.23835000       3.74814000      13.55436000  T       0.00016700       0.00083000       0.00052900
Cu       3.75881000       3.77369000      13.59070000  T       0.00104000      -0.00019200       0.00036400
Cu       6.27876000       3.74976000      13.60245000  T       0.00078400      -0.00091200       0.00030800
Cu       8.72043000       3.74729000      13.59575000  T      -0.00043200      -0.00080100      -0.00002400
Cu      11.22550000       3.78462000      13.58990000  T      -0.00122800       0.00017300       0.00079200
Cu       1.24404000       6.26024000      13.56220000  T       0.00027700       0.00147500       0.00032100
Cu       3.75723000       6.28909000      13.57769000  T       0.00121200       0.00039300       0.00106400
Cu       6.26861000       6.24494000      13.57045000  T       0.00069200      -0.00014100      -0.00019200
Cu       8.74218000       6.24818000      13.54521000  T      -0.00041500      -0.00061600       0.00039800
Cu      11.23525000       6.28002000      13.59734000  T      -0.00122100       0.00003000       0.00070700
Cu       1.26614000       8.76330000      13.57961000  T       0.00001000       0.00115300       0.00019000
Cu       3.78721000       8.76565000      13.60629000  T       0.00036200       0.00012100       0.00006200
Cu       6.27805000       8.72798000      13.60282000  T      -0.00000700      -0.00055900      -0.00024500
Cu       8.76554000       8.72747000      13.60512000  T      -0.00032300      -0.00082200      -0.00034300
Cu      11.26243000       8.76312000      13.59950000  T      -0.00051500      -0.00006200       0.00001700
Cu       1.24969000      11.25501000      13.59083000  T      -0.00016100       0.00041300      -0.00007300
Cu       3.74766000      11.27082000      13.56956000  T       0.00053400      -0.00046900      -0.00017100
Cu       6.27002000      11.27842000      13.58599000  T       0.00060200      -0.00090500       0.00000800
Cu       8.74667000      11.27551000      13.58984000  T      -0.00084600      -0.00110000      -0.00014000
Cu      11.27037000      11.27145000      13.56939000  T      -0.00066200      -0.00060300      -0.00030800
Cu       0.00534000       0.00570000      15.36030000  T      -0.00012100       0.00036100       0.00032300
Cu       2.50010000      -0.00039000      15.35902000  T      -0.00043500       0.00058200       0.00006400
Cu       4.97544000       0.02007000      15.34156000  T      -0.00161000      -0.00196900      -0.00120800
Cu       7.50713000      12.38022000      15.50202000  T      -0.00061000      -0.00568300       0.00391900
Cu      10.04515000       0.01315000      15.33759000  T       0.00110500      -0.00180900      -0.00122500
Cu       0.04757000       2.50256000      15.34020000  T      -0.00053800       0.00047700       0.00098100
Cu       2.49587000       2.49848000      15.34103000  T       0.00049900       0.00071600       0.00087100
Cu       4.95715000       2.47822000      15.40583000  T       0.00154200      -0.00101400       0.00231300
Cu       7.53691000       2.30995000      15.66185000  T       0.00051200      -0.00028500      -0.00106900
Cu      10.10530000       2.48697000      15.39820000  T      -0.00110100      -0.00051700       0.00149200
Cu      12.49185000       5.00536000      15.32573000  T      -0.00016100       0.00109000       0.00096900
Cu       2.39712000       4.99674000      15.34765000  T       0.00093200       0.00134900       0.00082000
Pd       4.90124000       5.09910000      15.50549000  T       0.00408900      -0.00327500       0.00122600
Y        7.51615000       4.98106000      17.25329000  T      -0.00086700       0.00340000      -0.00124800
Cu      10.00405000       5.10919000      15.41102000  T      -0.00149500      -0.00247800       0.00172000
Cu       0.05624000       7.50561000      15.35756000  T      -0.00039700       0.00118700       0.00035100
Cu       2.53721000       7.48924000      15.35726000  T      -0.00026000       0.00189500       0.00034400
Cu       5.02111000       7.65873000      15.49166000  T       0.00030000      -0.00127700      -0.00097000
Cu       7.55068000       7.46561000      15.47552000  T      -0.00038800      -0.00140100      -0.00047300
Cu      10.09245000       7.61318000      15.46397000  T      -0.00052600      -0.00110900      -0.00059800
Cu      12.50892000      10.00546000      15.36769000  T      -0.00037900       0.00083500       0.00006500
Cu       2.51030000       9.99789000      15.36767000  T       0.00027600       0.00117700      -0.00016700
Cu       5.01332000      10.09417000      15.35734000  T       0.00046100      -0.00195000      -0.00133600
Cu       7.50572000       9.95649000      15.33631000  T       0.00010300      -0.00349500      -0.00182700
Cu      10.00746000      10.07138000      15.35000000  T      -0.00030100      -0.00182200      -0.00134000
O        6.04091000       3.59064000      16.53167000  T       0.00309800      -0.00685900       0.01143200
O        6.13916000       6.59791000      16.67727000  T      -0.00034300      -0.00264300      -0.00055800
O        8.98478000       6.50803000      16.58198000  T      -0.00205600      -0.00219300      -0.00064500
O        9.01628000       3.71545000      16.38045000  T       0.00060200      -0.00367200       0.01347600
C        7.58843000       1.40354000      17.45812000  T       0.00245000      -0.01517800      -0.01172200
O        7.66816000       2.36852000      18.47471000  T       0.00386600      -0.04390200       0.00685500
O        7.50784000       0.22283000      17.81548000  T       0.00298200      -0.03907100      -0.03578400
H        7.63212000       1.88362000      19.33386000  T       0.00429800      -0.03719000      -0.00966500
108
Lattice="12.515153631 0.0 0.0 0.0 12.515153631 0.0 0.0 0.0 25.30973" Properties=species:S:1:pos:R:3:move_mask:L:1:forces:R:3 stress="0.007812028859683633 -2.8498730668782955e-05 -2.4229538426678806e-05 -2.8498730668782955e-05 0.0074719727179781365 0.0002496728480535821 -2.4229538426678806e-05 0.0002496728480535821 0.0020269675376853435" free_energy=-444.61983016 energy=-444.61779271 pbc="T T T"
Cu       1.25152000       1.25152000      10.00000000  F      -0.00081000      -0.01759100      -0.07949400
Cu       3.75455000       1.25152000      10.00000000  F       0.00763100       0.00064700      -0.07146600
Cu       6.25758000       1.25152000      10.00000000  F      -0.01250800       0.01093100      -0.04976000
Cu       8.76061000       1.25152000      10.00000000  F       0.01055000       0.00367700      -0.04249300
Cu      11.26364000       1.25152000      10.00000000  F      -0.00608000      -0.00295300      -0.07354800
Cu       1.25152000       3.75455000      10.00000000  F      -0.00060600      -0.00005700      -0.07058600
Cu       3.75455000       3.75455000      10.00000000  F       0.01781000      -0.00651200      -0.05923300
Cu       6.25758000       3.75455000      10.00000000  F      -0.02007100      -0.00843600      -0.08182600
Cu       8.76061000       3.75455000      10.00000000  F       0.02109000      -0.00538100      -0.08083500
Cu      11.26364000       3.75455000      10.00000000  F      -0.01639000       0.00843100      -0.05690700
Cu       1.25152000       6.25758000      10.00000000  F      -0.00140200      -0.00006900      -0.07680900
Cu       3.75455000       6.25758000      10.00000000  F       0.01857000       0.01430600      -0.06812000
Cu       6.25758000       6.25758000      10.00000000  F      -0.02082300       0.01331800      -0.08866000
Cu       8.76061000       6.25758000      10.00000000  F       0.02145700       0.01402000      -0.08384200
Cu      11.26364000       6.25758000      10.00000000  F      -0.01565100       0.00052300      -0.07069700
Cu       1.25152000       8.76061000      10.00000000  F      -0.00208500       0.00574900      -0.07485300
Cu       3.75455000       8.76061000      10.00000000  F       0.00233400      -0.01920400      -0.07102100
Cu       6.25758000       8.76061000      10.00000000  F      -0.00601300      -0.02248700      -0.06026500
Cu       8.76061000       8.76061000      10.00000000  F       0.00818300      -0.01713000      -0.05312400
Cu      11.26364000       8.76061000      10.00000000  F      -0.00372600      -0.01649200      -0.07277100
Cu       1.25152000      11.26364000      10.00000000  F      -0.00540100       0.00307100      -0.01639600
Cu       3.75455000      11.26364000      10.00000000  F      -0.00686000       0.00622500      -0.07048200
Cu       6.25758000      11.26364000      10.00000000  F       0.00405900       0.00963100      -0.06892600
Cu       8.76061000      11.26364000      10.00000000  F      -0.00738600       0.00624000      -0.06993500
Cu      11.26364000      11.26364000      10.00000000  F       0.01372000       0.00655600      -0.06963800
Cu       0.00000000       0.00000000      11.76991000  F      -0.02621800       0.04192800       0.04228800
Cu       2.50303000       0.00000000      11.76991000  F       0.04213600       0.01611000       0.03057400
Cu       5.00606000       0.00000000      11.76991000  F       0.08247900       0.07070100       0.07513100
Cu       7.50909000       0.00000000      11.76991000  F       0.01039500       0.06548900       0.05162900
Cu      10.01212000       0.00000000      11.76991000  F      -0.07337700       0.06466200       0.09115900
Cu       0.00000000       2.50303000      11.76991000  F      -0.09535900       0.03366700       0.02148600
Cu       2.50303000       2.50303000      11.76991000  F       0.07473400       0.03690900       0.01956400
Cu       5.00606000       2.50303000      11.76991000  F       0.03944500      -0.02085400       0.10668600
Cu       7.50909000       2.50303000      11.76991000  F      -0.02538800      -0.02585500       0.21335300
Cu      10.01212000       2.50303000      11.76991000  F      -0.02302700      -0.02917400       0.09467000
Cu       0.00000000       5.00606000      11.76991000  F      -0.08588000       0.03970300       0.01421000
Cu       2.50303000       5.00606000      11.76991000  F       0.05290400       0.01821800       0.02184000
Cu       5.00606000       5.00606000      11.76991000  F       0.01477500      -0.03401800       0.12480500
Cu       7.50909000       5.00606000      11.76991000  F      -0.05338200      -0.05757000       0.15650800
Cu      10.01212000       5.00606000      11.76991000  F      -0.02555400      -0.03119400       0.07986800
Cu       0.00000000       7.50909000      11.76991000  F      -0.06900200      -0.01019400       0.05072600
Cu       2.50303000       7.50909000      11.76991000  F       0.06040300       0.03366500       0.01230100
Cu       5.00606000       7.50909000      11.76991000  F      -0.00884200       0.05770800       0.01670900
Cu       7.50909000       7.50909000      11.76991000  F      -0.03312500       0.02757700       0.04629700
Cu      10.01212000       7.50909000      11.76991000  F       0.06681700       0.07690200      -0.00858100
Cu       0.00000000      10.01212000      11.76991000  F      -0.01042400      -0.04899500       0.06216700
Cu       2.50303000      10.01212000      11.76991000  F       0.03986400      -0.04429200       0.06785600
Cu       5.00606000      10.01212000      11.76991000  F       0.09420500      -0.03535900       0.10378000
Cu       7.50909000      10.01212000      11.76991000  F       0.01763500      -0.04397100       0.09106600
Cu      10.01212000      10.01212000      11.76991000  F      -0.07967100      -0.03612700       0.11257900
Cu       1.25906000       1.23748000      13.56544000  T      -0.00022100       0.00057200       0.00026100
Cu       3.77534000       1.27120000      13.58332000  T       0.00010500       0.00029900       0.00034300
Cu       6.29747000       1.26201000      13.63232000  T       0.00024200      -0.00121000       0.00095400
Cu       8.73904000       1.26166000      13.62825000  T      -0.00000600      -0.00129300       0.00074300
Cu      11.25801000       1.27548000      13.58422000  T      -0.00022600       0.00012000       0.00024500
Cu       1.23836000       3.74817000      13.55439000  T       0.00000100       0.00042800       0.00060800
Cu       3.75884000       3.77367000      13.59072000  T       0.00043400      -0.00055800       0.00057500
Cu       6.27878000       3.74969000      13.60247000  T       0.00052700      -0.00132000       0.00057200
Cu       8.72042000       3.74723000      13.59575000  T       0.00012000      -0.00119100       0.00038300
Cu      11.22548000       3.78462000      13.58994000  T      -0.00045100      -0.00037200       0.00078800
Cu       1.24406000       6.26027000      13.56221000  T       0.00006000       0.00025100       0.00040300
Cu       3.75729000       6.28905000      13.57775000  T       0.00078800      -0.00089300       0.00155300
Cu       6.26862000       6.24487000      13.57044000  T       0.00022000      -0.00126000       0.00028400
Cu       8.74217000       6.24809000      13.54522000  T       0.00024900      -0.00154200       0.00064200
Cu      11.23522000       6.27996000      13.59737000  T      -0.00046400      -0.00079300       0.00065700
Cu       1.26614000       8.76332000      13.57961000  T      -0.00017400       0.00039100       0.00020400
Cu       3.78719000       8.76561000      13.60628000  T      -0.00029900      -0.00054500       0.00015800
Cu       6.27802000       8.72789000      13.60278000  T      -0.00027600      -0.00132200      -0.00016700
Cu       8.76554000       8.72737000      13.60509000  T       0.00032300      -0.00153300      -0.00017800
Cu      11.26244000       8.76306000      13.59949000  T       0.00016900      -0.00073400       0.00011900
Cu       1.24969000      11.25502000      13.59082000  T      -0.00023900       0.00038800       0.00004200
Cu       3.74765000      11.27079000      13.56954000  T      -0.00020600      -0.00026000      -0.00001800
Cu       6.27001000      11.27836000      13.58598000  T       0.00024800      -0.00073600       0.00020100
Cu       8.74665000      11.27545000      13.58982000  T      -0.00011600      -0.00092500       0.00008400
Cu      11.27038000      11.27141000      13.56937000  T       0.00001300      -0.00044000      -0.00008500
Cu       0.00535000       0.00573000      15.36031000  T       0.00009700       0.00053200      -0.00028600
Cu       2.50007000      -0.00036000      15.35902000  T      -0.00068800       0.00069600      -0.00027900
Cu       4.97532000       0.01997000      15.34150000  T      -0.00177500      -0.00152000      -0.00101700
Cu       7.50708000      12.37990000      15.50212000  T      -0.00047000      -0.00513200       0.00078300
Cu      10.04524000       0.01306000      15.33753000  T       0.00142800      -0.00140800      -0.00147000
Cu       0.04756000       2.50259000      15.34023000  T      -0.00045800       0.00042600       0.00006900
Cu       2.49589000       2.49852000      15.34105000  T       0.00040700       0.00065400       0.00020800
Cu       4.95722000       2.47817000      15.40596000  T       0.00147000      -0.00117800       0.00217800
Cu       7.53694000       2.30996000      15.66182000  T       0.00087400      -0.00027400       0.00007100
Cu      10.10523000       2.48698000      15.39829000  T      -0.00122000      -0.00003200       0.00126900
Cu      12.49186000       5.00538000      15.32575000  T      -0.00006700       0.00037800       0.00008200
Cu       2.39718000       4.99679000      15.34766000  T       0.00130600       0.00073600       0.00020000
Pd       4.90148000       5.09876000      15.50552000  T       0.00107200      -0.00040000       0.00021700
Y        7.51601000       4.98112000      17.25328000  T       0.00058500       0.00007800       0.00091500
Cu      10.00396000       5.10899000      15.41113000  T      -0.00185700      -0.00319300       0.00202900
Cu       0.05624000       7.50563000      15.35756000  T      -0.00025400       0.00028400      -0.00022200
Cu       2.53719000       7.48929000      15.35727000  T      -0.00046400       0.00094100       0.00011800
Cu       5.02109000       7.65859000      15.49162000  T       0.00011400      -0.00292700      -0.00038600
Cu       7.55065000       7.46550000      15.47550000  T      -0.00017300      -0.00228700       0.00014000
Cu      10.09243000       7.61306000      15.46395000  T      -0.00052700      -0.00230900      -0.00025100
Cu      12.50892000      10.00548000      15.36770000  T      -0.00011800       0.00047400      -0.00024400
Cu       2.51031000       9.99793000      15.36766000  T      -0.00004700       0.00081700      -0.00020700
Cu       5.01331000      10.09404000      15.35729000  T       0.00016400      -0.00210100      -0.00084400
Cu       7.50571000       9.95625000      15.33624000  T       0.00022900      -0.00378900      -0.00140400
Cu      10.00746000      10.07126000      15.34995000  T       0.00005400      -0.00197600      -0.00118100
O        6.04102000       3.59034000      16.53214000  T       0.00033400      -0.00512500       0.00530300
O        6.13916000       6.59779000      16.67732000  T      -0.00127000      -0.00115400      -0.00093600
O        8.98476000       6.50792000      16.58197000  T       0.00010100      -0.00110100      -0.00151400
O        9.01640000       3.71527000      16.38095000  T       0.00154400      -0.00311300       0.00642800
C        7.58861000       1.40227000      17.45752000  T       0.00292200      -0.00795600      -0.00997600
O        7.66844000       2.36610000      18.47468000  T       0.00357700      -0.03045900       0.00559400
O        7.50802000       0.22114000      17.81374000  T       0.00215900      -0.02910600      -0.02251800
H        7.63241000       1.88051000      19.33355000  T       0.00399500      -0.03764600      -0.00922300
108
Lattice="12.515153631 0.0 0.0 0.0 12.515153631 0.0 0.0 0.0 25.30973" Properties=species:S:1:pos:R:3:move_mask:L:1:forces:R:3 stress="0.007784135555400061 -2.8417591050146477e-05 -2.5259387432449546e-05 -2.8417591050146477e-05 0.007442163270392917 0.00023477436577009876 -2.5259387432449546e-05 0.00023477436577009876 0.0019974576825381673" free_energy=-444.6224395 energy=-444.62042282 pbc="T T T"
Cu       1.25152000       1.25152000      10.00000000  F      -0.00060400      -0.01750600      -0.07902900
Cu       3.75455000       1.25152000      10.00000000  F       0.00765800       0.00064900      -0.07104500
Cu       6.25758000       1.25152000      10.00000000  F      -0.01252300       0.01093300      -0.04941300
Cu       8.76061000       1.25152000      10.00000000  F       0.01019000       0.00376000      -0.04221100
Cu      11.26364000       1.25152000      10.00000000  F      -0.00604200      -0.00291800      -0.07319200
Cu       1.25152000       3.75455000      10.00000000  F      -0.00040400       0.00007600      -0.07044000
Cu       3.75455000       3.75455000      10.00000000  F       0.01786400      -0.00622600      -0.05897700
Cu       6.25758000       3.75455000      10.00000000  F      -0.02012400      -0.00816400      -0.08157600
Cu       8.76061000       3.75455000      10.00000000  F       0.02083100      -0.00513800      -0.08060100
Cu      11.26364000       3.75455000      10.00000000  F      -0.01642100       0.00873600      -0.05672900
Cu       1.25152000       6.25758000      10.00000000  F      -0.00114300       0.00039400      -0.07671500
Cu       3.75455000       6.25758000      10.00000000  F       0.01868000       0.01463000      -0.06787700
Cu       6.25758000       6.25758000      10.00000000  F      -0.02099100       0.01355100      -0.08844600
Cu       8.76061000       6.25758000      10.00000000  F       0.02119400       0.01418700      -0.08373700
Cu      11.26364000       6.25758000      10.00000000  F      -0.01568900       0.00072800      -0.07050800
Cu       1.25152000       8.76061000      10.00000000  F      -0.00182600       0.00611300      -0.07435000
Cu       3.75455000       8.76061000      10.00000000  F       0.00231400      -0.01875200      -0.07060200
Cu       6.25758000       8.76061000      10.00000000  F      -0.00616400      -0.02198300      -0.05993100
Cu       8.76061000       8.76061000      10.00000000  F       0.00784000      -0.01663100      -0.05290200
Cu      11.26364000       8.76061000      10.00000000  F      -0.00356300      -0.01603100      -0.07255100
Cu       1.25152000      11.26364000      10.00000000  F      -0.00520200       0.00323900      -0.01590800
Cu       3.75455000      11.26364000      10.00000000  F      -0.00673500       0.00640300      -0.06999600
Cu       6.25758000      11.26364000      10.00000000  F       0.00391700       0.00983600      -0.06829700
Cu       8.76061000      11.26364000      10.00000000  F      -0.00772600       0.00650900      -0.06941800
Cu      11.26364000      11.26364000      10.00000000  F       0.01377800       0.00679800      -0.06926300
Cu       0.00000000       0.00000000      11.76991000  F      -0.02602000       0.04220700       0.04244300
Cu       2.50303000       0.00000000      11.76991000  F       0.04235900       0.01630600       0.03070400
Cu       5.00606000       0.00000000      11.76991000  F       0.08227100       0.07075500       0.07496000
Cu       7.50909000       0.00000000      11.76991000  F       0.01000700       0.06554300       0.05164000
Cu      10.01212000       0.00000000      11.76991000  F      -0.07339400       0.06466500       0.09104800
Cu       0.00000000       2.50303000      11.76991000  F      -0.09514200       0.03395100       0.02194700
Cu       2.50303000       2.50303000      11.76991000  F       0.07489200       0.03706300       0.01982200
Cu       5.00606000       2.50303000      11.76991000  F       0.03979100      -0.02128400       0.10685800
Cu       7.50909000       2.50303000      11.76991000  F      -0.02578500      -0.02664500       0.21324600
Cu      10.01212000       2.50303000      11.76991000  F      -0.02334700      -0.02967800       0.09483600
Cu       0.00000000       5.00606000      11.76991000  F      -0.08586500       0.03958700       0.01480400
Cu       2.50303000       5.00606000      11.76991000  F       0.05355900       0.01835100       0.02250100
Cu       5.00606000       5.00606000      11.76991000  F       0.01460900      -0.03436800       0.12486100
Cu       7.50909000       5.00606000      11.76991000  F      -0.05369600      -0.05805800       0.15609400
Cu      10.01212000       5.00606000      11.76991000  F      -0.02548800      -0.03161800       0.07966600
Cu       0.00000000       7.50909000      11.76991000  F      -0.06894800      -0.01032000       0.05083200
Cu       2.50303000       7.50909000      11.76991000  F       0.06120000       0.03333900       0.01276900
Cu       5.00606000       7.50909000      11.76991000  F      -0.00927700       0.05729000       0.01649000
Cu       7.50909000       7.50909000      11.76991000  F      -0.03332300       0.02683500       0.04589700
Cu      10.01212000       7.50909000      11.76991000  F       0.06678500       0.07637200      -0.00869500
Cu       0.00000000      10.01212000      11.76991000  F      -0.00995300      -0.04888300       0.06203900
Cu       2.50303000      10.01212000      11.76991000  F       0.03993900      -0.04399800       0.06751800
Cu       5.00606000      10.01212000      11.76991000  F       0.09404200      -0.03533600       0.10340200
Cu       7.50909000      10.01212000      11.76991000  F       0.01715500      -0.04436700       0.09017200
Cu      10.01212000      10.01212000      11.76991000  F      -0.07983400      -0.03619900       0.11228800
Cu       1.25908000       1.23756000      13.56548000  T      -0.00024300       0.00093800      -0.00022700
Cu       3.77540000       1.27121000      13.58337000  T       0.00028200       0.00079900      -0.00000200
Cu       6.29748000       1.26165000      13.63252000  T       0.00028800      -0.00125800       0.00048000
Cu       8.73897000       1.26129000      13.62840000  T      -0.00009500      -0.00130600       0.00024800
Cu      11.25796000       1.27547000      13.58429000  T      -0.00033700       0.00057500      -0.00013100
Cu       1.23842000       3.74823000      13.55451000  T      -0.00000700       0.00052600       0.00006900
Cu       3.75899000       3.77349000      13.59084000  T       0.00064600      -0.00047400       0.00023000
Cu       6.27885000       3.74932000      13.60257000  T       0.00072400      -0.00120300       0.00085800
Cu       8.72038000       3.74689000      13.59579000  T      -0.00011100      -0.00125800       0.00007800
Cu      11.22537000       3.78449000      13.59014000  T      -0.00059000      -0.00022900       0.00052900
Cu       1.24414000       6.26027000      13.56226000  T      -0.00002600       0.00079100      -0.00022800
Cu       3.75749000       6.28876000      13.57805000  T       0.00045600      -0.00030300       0.00044300
Cu       6.26863000       6.24446000      13.57042000  T       0.00024100      -0.00136300      -0.00034400
Cu       8.74217000       6.24760000      13.54531000  T       0.00024700      -0.00184500       0.00031500
Cu      11.23511000       6.27964000      13.59754000  T      -0.00060000      -0.00076600       0.00043800
Cu       1.26619000       8.76330000      13.57963000  T      -0.00017200       0.00111600      -0.00036100
Cu       3.78714000       8.76536000      13.60625000  T      -0.00057600      -0.00001500      -0.00065300
Cu       6.27789000       8.72744000      13.60267000  T      -0.00046200      -0.00083700      -0.00085300
Cu       8.76554000       8.72684000      13.60500000  T       0.00025000      -0.00095600      -0.00078500
Cu      11.26250000       8.76274000      13.59950000  T       0.00024700      -0.00019400      -0.00042700
Cu       1.24972000      11.25503000      13.59082000  T      -0.00022600       0.00100600      -0.00050000
Cu       3.74763000      11.27061000      13.56948000  T      -0.00030600       0.00027900      -0.00066800
Cu       6.27000000      11.27808000      13.58596000  T       0.00022800      -0.00019000      -0.00075600
Cu       8.74656000      11.27511000      13.58980000  T      -0.00009700      -0.00039300      -0.00070800
Cu      11.27041000      11.27120000      13.56933000  T       0.00003700       0.00022200      -0.00051400
Cu       0.00543000       0.00578000      15.36031000  T       0.00038100       0.00082700      -0.00035100
Cu       2.49996000      -0.00027000      15.35897000  T      -0.00081400       0.00107600      -0.00017300
Cu       4.97486000       0.01950000      15.34125000  T      -0.00345100      -0.00148000      -0.00190100
Cu       7.50692000      12.37853000      15.50233000  T      -0.00083500      -0.00791800       0.00108300
Cu      10.04557000       0.01265000      15.33726000  T       0.00309200      -0.00116900      -0.00268000
Cu       0.04750000       2.50263000      15.34029000  T      -0.00020800       0.00054600       0.00027300
Cu       2.49602000       2.49861000      15.34110000  T       0.00068700       0.00090000       0.00059000
Cu       4.95757000       2.47787000      15.40647000  T       0.00133200      -0.00046600       0.00301400
Cu       7.53711000       2.30985000      15.66169000  T       0.00071600       0.00080100       0.00047100
Cu      10.10497000       2.48687000      15.39861000  T      -0.00103000       0.00019300       0.00178700
Cu      12.49190000       5.00540000      15.32579000  T       0.00027400       0.00052500       0.00068900
Cu       2.39747000       4.99688000      15.34770000  T       0.00040700       0.00077100       0.00062300
Pd       4.90186000       5.09815000      15.50560000  T       0.00641400      -0.01054600       0.00245500
Y        7.51569000       4.98114000      17.25329000  T       0.00145600       0.00155600      -0.00187600
Cu      10.00356000       5.10807000      15.41156000  T      -0.00179000      -0.00460000       0.00259600
Cu       0.05624000       7.50560000      15.35754000  T       0.00000800       0.00073200       0.00016500
Cu       2.53711000       7.48942000      15.35728000  T      -0.00074900       0.00141600       0.00057500
Cu       5.02104000       7.65787000      15.49146000  T      -0.00045200      -0.00138500      -0.00103100
Cu       7.55055000       7.46491000      15.47544000  T      -0.00037300      -0.00180000      -0.00098100
Cu      10.09238000       7.61244000      15.46388000  T      -0.00001500      -0.00181900      -0.00071100
Cu      12.50895000      10.00550000      15.36769000  T       0.00007100       0.00100900      -0.00018900
Cu       2.51035000       9.99803000      15.36761000  T       0.00009000       0.00139400      -0.00004100
Cu       5.01332000      10.09346000      15.35707000  T      -0.00040200      -0.00203800      -0.00118900
Cu       7.50571000       9.95525000      15.33590000  T       0.00000300      -0.00517000      -0.00247800
Cu      10.00746000      10.07069000      15.34974000  T       0.00045500      -0.00180000      -0.00169800
O        6.04140000       3.58858000      16.53445000  T       0.00147000      -0.00414500       0.00869900
O        6.13898000       6.59703000      16.67736000  T      -0.00122300      -0.00062400       0.00061900
O        8.98464000       6.50719000      16.58181000  T      -0.00134100      -0.00196900       0.00040900
O        9.01693000       3.71416000      16.38364000  T      -0.00019000      -0.00264600       0.01168500
C        7.58996000       1.39492000      17.45384000  T       0.00193700      -0.01262200      -0.00724300
O        7.67025000       2.35150000      18.47553000  T       0.00250000      -0.03277200      -0.00337000
O        7.50930000       0.21097000      17.80335000  T       0.00141100      -0.02830600      -0.02724700
H        7.63422000       1.86052000      19.33127000  T       0.00472200      -0.03683700      -0.00353300
108
Lattice="12.515153631 0.0 0.0 0.0 12.515153631 0.0 0.0 0.0 25.30973" Properties=species:S:1:pos:R:3:move_mask:L:1:forces:R:3 stress="0.007786719540178177 -2.9853138149099623e-05 -2.2057493250871438e-05 -2.9853138149099623e-05 0.007420523958253479 0.0001963890846459167 -2.2057493250871438e-05 0.0001963890846459167 0.001991234897939662" free_energy=-444.62788148 energy=-444.62591886 pbc="T T T"
Cu       1.25152000       1.25152000      10.00000000  F      -0.00061200      -0.01707000      -0.07900600
Cu       3.75455000       1.25152000      10.00000000  F       0.00732700       0.00095300      -0.07104900
Cu       6.25758000       1.25152000      10.00000000  F      -0.01212600       0.01099600      -0.04942300
Cu       8.76061000       1.25152000      10.00000000  F       0.00989800       0.00395300      -0.04230100
Cu      11.26364000       1.25152000      10.00000000  F      -0.00582000      -0.00269900      -0.07332000
Cu       1.25152000       3.75455000      10.00000000  F      -0.00036100       0.00013500      -0.07036100
Cu       3.75455000       3.75455000      10.00000000  F       0.01758000      -0.00580100      -0.05875000
Cu       6.25758000       3.75455000      10.00000000  F      -0.02000000      -0.00784500      -0.08137600
Cu       8.76061000       3.75455000      10.00000000  F       0.02086000      -0.00486000      -0.08037900
Cu      11.26364000       3.75455000      10.00000000  F      -0.01629100       0.00921800      -0.05655600
Cu       1.25152000       6.25758000      10.00000000  F      -0.00105000       0.00018500      -0.07677600
Cu       3.75455000       6.25758000      10.00000000  F       0.01845700       0.01395300      -0.06769400
Cu       6.25758000       6.25758000      10.00000000  F      -0.02105500       0.01280300      -0.08823300
Cu       8.76061000       6.25758000      10.00000000  F       0.02131300       0.01342300      -0.08363800
Cu      11.26364000       6.25758000      10.00000000  F      -0.01561800       0.00003600      -0.07012800
Cu       1.25152000       8.76061000      10.00000000  F      -0.00187400       0.00547000      -0.07426400
Cu       3.75455000       8.76061000      10.00000000  F       0.00183900      -0.01915400      -0.07074900
Cu       6.25758000       8.76061000      10.00000000  F      -0.00597600      -0.02196600      -0.06013500
Cu       8.76061000       8.76061000      10.00000000  F       0.00773100      -0.01665500      -0.05307300
Cu      11.26364000       8.76061000      10.00000000  F      -0.00308700      -0.01634600      -0.07273000
Cu       1.25152000      11.26364000      10.00000000  F      -0.00534700       0.00309200      -0.01634000
Cu       3.75455000      11.26364000      10.00000000  F      -0.00674400       0.00638700      -0.07036500
Cu       6.25758000      11.26364000      10.00000000  F       0.00418700       0.00975200      -0.06803100
Cu       8.76061000      11.26364000      10.00000000  F      -0.00798700       0.00651200      -0.06907300
Cu      11.26364000      11.26364000      10.00000000  F       0.01389700       0.00675700      -0.06965100
Cu       0.00000000       0.00000000      11.76991000  F      -0.02617400       0.04283700       0.04322500
Cu       2.50303000       0.00000000      11.76991000  F       0.04241700       0.01701200       0.03124400
Cu       5.00606000       0.00000000      11.76991000  F       0.08216500       0.07078300       0.07468300
Cu       7.50909000       0.00000000      11.76991000  F       0.00985800       0.06524500       0.05189200
Cu      10.01212000       0.00000000      11.76991000  F      -0.07324700       0.06421900       0.09123600
Cu       0.00000000       2.50303000      11.76991000  F      -0.09485900       0.03521900       0.02303200
Cu       2.50303000       2.50303000      11.76991000  F       0.07461600       0.03798000       0.02020100
Cu       5.00606000       2.50303000      11.76991000  F       0.04107700      -0.02252400       0.10702600
Cu       7.50909000       2.50303000      11.76991000  F      -0.02621200      -0.02909900       0.21306000
Cu      10.01212000       2.50303000      11.76991000  F      -0.02390300      -0.03113200       0.09529500
Cu       0.00000000       5.00606000      11.76991000  F      -0.08643900       0.03857000       0.01651800
Cu       2.50303000       5.00606000      11.76991000  F       0.05469100       0.01778800       0.02413000
Cu       5.00606000       5.00606000      11.76991000  F       0.01417900      -0.03626600       0.12478500
Cu       7.50909000       5.00606000      11.76991000  F      -0.05364300      -0.06010500       0.15490900
Cu      10.01212000       5.00606000      11.76991000  F      -0.02468900      -0.03341200       0.07926300
Cu       0.00000000       7.50909000      11.76991000  F      -0.06960200      -0.01258000       0.05162500
Cu       2.50303000       7.50909000      11.76991000  F       0.06248600       0.03042800       0.01420200
Cu       5.00606000       7.50909000      11.76991000  F      -0.01021900       0.05440900       0.01618700
Cu       7.50909000       7.50909000      11.76991000  F      -0.03266000       0.02325600       0.04560900
Cu      10.01212000       7.50909000      11.76991000  F       0.06712600       0.07327200      -0.00804000
Cu       0.00000000      10.01212000      11.76991000  F      -0.00955300      -0.04989300       0.06233200
Cu       2.50303000      10.01212000      11.76991000  F       0.03944800      -0.04442200       0.06696100
Cu       5.00606000      10.01212000      11.76991000  F       0.09414500      -0.03648700       0.10268800
Cu       7.50909000      10.01212000      11.76991000  F       0.01690800      -0.04700600       0.08851200
Cu      10.01212000      10.01212000      11.76991000  F      -0.08007100      -0.03779600       0.11233500
Cu       1.25912000       1.23783000      13.56556000  T      -0.00002300       0.00093400      -0.00047300
Cu       3.77558000       1.27130000      13.58351000  T       0.00044600       0.00105100      -0.00018400
Cu       6.29755000       1.26054000      13.63306000  T       0.00034200      -0.00082800       0.00029800
Cu       8.73879000       1.26015000      13.62881000  T      -0.00018500      -0.00073700      -0.00001700
Cu      11.25779000       1.27549000      13.58445000  T      -0.00030600       0.00102600      -0.00050300
Cu       1.23858000       3.74838000      13.55480000  T      -0.00004600       0.00039500      -0.00045600
Cu       3.75946000       3.77296000      13.59115000  T       0.00058900      -0.00012600      -0.00014100
Cu       6.27912000       3.74822000      13.60294000  T       0.00093900      -0.00093400       0.00069900
Cu       8.72029000       3.74584000      13.59588000  T      -0.00007500      -0.00094100      -0.00012800
Cu      11.22504000       3.78412000      13.59069000  T      -0.00031800       0.00000500       0.00006200
Cu       1.24432000       6.26030000      13.56235000  T      -0.00031000       0.00046100      -0.00052500
Cu       3.75806000       6.28794000      13.57884000  T       0.00044700      -0.00068100       0.00072000
Cu       6.26867000       6.24323000      13.57031000  T       0.00010500      -0.00119100      -0.00009200
Cu       8.74222000       6.24611000      13.54557000  T       0.00043000      -0.00148600       0.00057200
Cu      11.23475000       6.27867000      13.59802000  T      -0.00057700      -0.00084400       0.00051800
Cu       1.26626000       8.76333000      13.57964000  T      -0.00018600       0.00055700      -0.00030300
Cu       3.78693000       8.76468000      13.60610000  T      -0.00055800       0.00001400      -0.00081500
Cu       6.27753000       8.72616000      13.60226000  T      -0.00048900      -0.00035800      -0.00119100
Cu       8.76559000       8.72537000      13.60466000  T       0.00042000      -0.00046600      -0.00097800
Cu      11.26268000       8.76185000      13.59948000  T       0.00006400      -0.00021500      -0.00048300
Cu       1.24974000      11.25509000      13.59074000  T      -0.00004300       0.00068900      -0.00041300
Cu       3.74752000      11.27016000      13.56924000  T      -0.00000700       0.00030800      -0.00066700
Cu       6.26999000      11.27726000      13.58581000  T       0.00004500      -0.00045800      -0.00124500
Cu       8.74634000      11.27415000      13.58965000  T       0.00018200      -0.00041600      -0.00119500
Cu      11.27051000      11.27065000      13.56917000  T      -0.00006900       0.00027800      -0.00062400
Cu       0.00567000       0.00593000      15.36026000  T       0.00062100       0.00033400      -0.00017600
Cu       2.49958000       0.00000000      15.35882000  T      -0.00086500       0.00063100       0.00004300
Cu       4.97328000       0.01811000      15.34037000  T      -0.00300300      -0.00117100      -0.00162300
Cu       7.50641000      12.37389000      15.50264000  T      -0.00061600      -0.00912000      -0.00403300
Cu      10.04682000       0.01143000      15.33629000  T       0.00285200      -0.00052300      -0.00205600
Cu       0.04734000       2.50275000      15.34047000  T       0.00004700       0.00022100       0.00024600
Cu       2.49643000       2.49889000      15.34130000  T       0.00060900       0.00047600       0.00039700
Cu       4.95860000       2.47703000      15.40814000  T       0.00118800      -0.00118200       0.00279000
Cu       7.53763000       2.30959000      15.66146000  T       0.00083000      -0.00148400       0.00173400
Cu      10.10419000       2.48660000      15.39967000  T      -0.00089500       0.00045200       0.00198800
Cu      12.49202000       5.00544000      15.32599000  T      -0.00004700       0.00030900       0.00078300
Cu       2.39821000       4.99713000      15.34786000  T      -0.00000800       0.00055400       0.00031000
Pd       4.90344000       5.09548000      15.50616000  T       0.00270300      -0.00412800      -0.00040600
Y        7.51494000       4.98149000      17.25300000  T       0.00093000       0.00456100      -0.00337000
Cu      10.00233000       5.10507000      15.41302000  T      -0.00111300      -0.00467600       0.00280900
Cu       0.05624000       7.50556000      15.35751000  T      -0.00014000       0.00050000       0.00025600
Cu       2.53680000       7.48984000      15.35736000  T      -0.00100500       0.00092700       0.00037400
Cu       5.02086000       7.65587000      15.49092000  T      -0.00041200      -0.00141000      -0.00110100
Cu       7.55025000       7.46314000      15.47514000  T      -0.00012400      -0.00116200      -0.00184800
Cu      10.09223000       7.61062000      15.46361000  T      -0.00019400      -0.00177400      -0.00067200
Cu      12.50903000      10.00559000      15.36765000  T       0.00001700       0.00053500       0.00003600
Cu       2.51048000       9.99837000      15.36748000  T       0.00018000       0.00081000       0.00017000
Cu       5.01328000      10.09173000      15.35636000  T      -0.00015400      -0.00108500      -0.00120000
Cu       7.50570000       9.95199000      15.33474000  T       0.00005100      -0.00543600      -0.00260000
Cu      10.00754000      10.06904000      15.34900000  T       0.00026300      -0.00105500      -0.00141900
O        6.04254000       3.58346000      16.54150000  T       0.00177100      -0.00239900       0.00653300
O        6.13833000       6.59517000      16.67750000  T      -0.00102900       0.00526500       0.00029500
O        8.98423000       6.50515000      16.58136000  T       0.00001300       0.00206100      -0.00073900
O        9.01844000       3.71082000      16.39212000  T       0.00143500      -0.00274900       0.00942000
C        7.59388000       1.37285000      17.44309000  T       0.00074100      -0.01441100      -0.00676600
O        7.67545000       2.30763000      18.47750000  T       0.00128000      -0.02870700      -0.00092700
O        7.51298000       0.18085000      17.77228000  T       0.00067200      -0.02369300      -0.01782200
H        7.63981000       1.80124000      19.32463000  T       0.00560200      -0.02903000      -0.00337200
