44
Lattice="8.629602757 0.0 0.0 4.314801379 7.473454789 0.0 0.0 0.0 23.486801045" Properties=species:S:1:pos:R:3:move_mask:L:1:forces:R:3 stress="0.006485627030814804 -0.0004491514797168111 4.558174114632543e-05 -0.0004491514797168111 0.006994347473629045 0.00021581266104566543 4.558174114632543e-05 0.00021581266104566543 0.0022608181601048113" free_energy=-160.36099865 energy=-160.36845693 pbc="T T T"
Ag       4.28932000       2.51083000       0.01118000  T       0.01042400       0.00254100       0.02615600
Ag       8.62622000       0.04006000      23.46428000  T      -0.00719800      -0.01207500      -0.04578300
Ag       1.44630000       2.48241000      23.47787000  T      -0.02528000      -0.00794300       0.02814000
Ag       2.85062000       0.04508000       0.04126000  T      -0.02056300       0.01270500      -0.00586400
Ag       5.81093000       0.11807000      23.41379000  T      -0.00956000      -0.00528100       0.01483700
Ag      11.43259000       5.00085000       0.23570000  T      -0.01871300       0.01691800      -0.01825600
Ag       8.58119000       4.86730000      23.40741000  T      -0.03200100       0.00602300       0.01212200
Ag       7.18011000       2.50072000      23.48315000  T       0.02616800      -0.00301300       0.02158700
Ag       5.76940000       4.96069000       0.02983000  T       0.02722000      -0.00837400      -0.02249700
Ag       1.45076000       0.81767000      21.13769000  T      -0.00818800       0.00403900       0.01763000
Ag       4.30366000       0.82672000      21.13667000  T       0.00235400      -0.00124900       0.00905700
Ag       2.87225000       3.34904000      21.17015000  T       0.00555100      -0.00379700       0.01037600
Ag       5.74585000       3.33440000      21.13910000  T      -0.00143500       0.00325000       0.02095700
Ag       7.20064000       0.82534000      21.10892000  T       0.00543800      -0.01053200       0.01813800
Ag       4.29527000       5.81194000      21.17897000  T       0.00408500       0.00544300       0.01357700
Ag      10.07802000       5.81314000      21.17960000  T       0.00177400       0.01229200      -0.00375300
Ag       7.18115000       5.81571000      21.15348000  T       0.00540900      -0.00685500       0.00949100
Ag       8.62630000       3.31572000      21.10247000  T       0.00666100      -0.00780000       0.01508800
Ag       2.87653000       1.66077000      18.78944000  F      -0.00355300       0.04496100       0.13162600
Ag       4.31480000       4.15192000      18.78944000  F      -0.02589900       0.02432500       0.17752700
Ag       5.75307000       1.66077000      18.78944000  F      -0.01669300       0.02326700       0.10508400
Ag       7.19134000       4.15192000      18.78944000  F      -0.03293300       0.03533000       0.04622000
Ag       8.62960000       1.66077000      18.78944000  F       0.02802100      -0.00816200       0.04952400
Ag       5.75307000       6.64307000      18.78944000  F      -0.00637400      -0.04457500       0.11679800
Ag      11.50614000       6.64307000      18.78944000  F      -0.01432000      -0.07500900       0.06404900
Ag      10.06787000       4.15192000      18.78944000  F       0.04624500       0.03987800       0.12495800
Ag       8.62961000       6.64307000      18.78944000  F       0.01551400      -0.04046100       0.12377700
Ag       0.00000000       0.00000000      16.44076000  F      -0.00001100      -0.00431600      -0.12581700
Ag       2.87653000       0.00000000      16.44076000  F      -0.00569200      -0.00243000      -0.13153900
Ag       1.43827000       2.49115000      16.44076000  F       0.00042200      -0.01403600      -0.11098900
Ag       4.31480000       2.49115000      16.44076000  F      -0.00656000      -0.00035800      -0.10660500
Ag       5.75307000       0.00000000      16.44076000  F       0.00545700      -0.01376700      -0.12355600
Ag       2.87654000       4.98231000      16.44076000  F       0.00680200       0.01718600      -0.12544200
Ag       8.62961000       4.98231000      16.44076000  F      -0.00760500       0.01027800      -0.12384600
Ag       7.19134000       2.49115000      16.44076000  F       0.00605500      -0.00011800      -0.12446500
Ag       5.75307000       4.98231000      16.44076000  F       0.00239000       0.00931600      -0.12963100
C        9.06389000       6.39507000       2.02582000  T       0.06752600      -0.12135800      -0.05494300
O        7.75298000       6.53219000       1.92785000  T       0.59782400      -0.08087500       0.02124000
O        9.85809000       7.41524000       2.13284000  T      -0.35255200      -0.39689400      -0.02491000
O        9.57110000       5.15975000       1.92550000  T      -0.23022000       0.56908300       0.03852500
C        4.62831000       6.45102000       2.61929000  T      -0.07510800      -0.20632500      -0.48904100
O        4.75622000       6.21143000       3.81706000  T      -0.03651400       0.04486300      -0.02151400
O        0.31908000       0.18277000       2.09583000  T       0.01837400      -0.49642300       0.20105900
O        4.47090000       5.34797000       1.77344000  T       0.04725900       0.69032600       0.37090600
44
Lattice="8.629602757 0.0 0.0 4.314801379 7.473454789 0.0 0.0 0.0 23.486801045" Properties=species:S:1:pos:R:3:move_mask:L:1:forces:R:3 stress="0.005755214425358315 -0.0005084146088670725 -3.5495462398898086e-05 -0.0005084146088670725 0.005289011142709591 -8.090868279882467e-05 -3.5495462398898086e-05 -8.090868279882467e-05 0.0021194542199126816" free_energy=-160.38665526 energy=-160.39421758 pbc="T T T"
Ag       4.28984000       2.51100000       0.01265000  T       0.00522600       0.00200200       0.02002300
Ag       8.62599000       0.03988000      23.46238000  T      -0.00023100       0.00454200      -0.00952600
Ag       1.44489000       2.48199000      23.47959000  T      -0.01623600      -0.00430900       0.02541300
Ag       2.84957000       0.04558000       0.04154000  T      -0.01372000       0.00755100       0.00661200
Ag       5.81066000       0.11816000      23.41463000  T      -0.00270500       0.00479700       0.01403700
Ag      11.43155000       5.00152000       0.23412000  T      -0.01894900       0.00282700      -0.03283900
Ag       8.57913000       4.86722000      23.40753000  T      -0.02708100      -0.00053300       0.00110300
Ag       7.18161000       2.50040000      23.48452000  T       0.01813100      -0.00833000       0.02147200
Ag       5.77043000       4.96004000       0.02848000  T       0.00631000      -0.01201900      -0.02009900
Ag       1.45035000       0.81788000      21.13861000  T      -0.00233200       0.00249400       0.00990300
Ag       4.30382000       0.82663000      21.13717000  T       0.00165000      -0.00092200       0.00687900
Ag       2.87258000       3.34890000      21.17088000  T       0.00407900      -0.00102700       0.01297600
Ag       5.74574000       3.33452000      21.14035000  T      -0.00105500      -0.00055700       0.01690800
Ag       7.20085000       0.82478000      21.10988000  T       0.00054600      -0.00541000       0.00987500
Ag       4.29551000       5.81216000      21.17961000  T       0.00285200       0.00059100       0.00504400
Ag      10.07811000       5.81386000      21.17944000  T       0.00104200       0.00870300      -0.00128700
Ag       7.18147000       5.81545000      21.15394000  T       0.00409200      -0.00068100       0.00253700
Ag       8.62672000       3.31528000      21.10330000  T       0.00620300      -0.00623600       0.00875600
Ag       2.87653000       1.66077000      18.78944000  F      -0.00328000       0.04449000       0.13672500
Ag       4.31480000       4.15192000      18.78944000  F      -0.02541900       0.02395800       0.17941200
Ag       5.75307000       1.66077000      18.78944000  F      -0.01663200       0.02368600       0.11029100
Ag       7.19134000       4.15192000      18.78944000  F      -0.03375900       0.03493600       0.05062100
Ag       8.62960000       1.66077000      18.78944000  F       0.02780000      -0.00829600       0.05327600
Ag       5.75307000       6.64307000      18.78944000  F      -0.00577900      -0.04439500       0.11837100
Ag      11.50614000       6.64307000      18.78944000  F      -0.01372300      -0.07509600       0.06407700
Ag      10.06787000       4.15192000      18.78944000  F       0.04707300       0.03979800       0.12786900
Ag       8.62961000       6.64307000      18.78944000  F       0.01468300      -0.03923200       0.12508500
Ag       0.00000000       0.00000000      16.44076000  F       0.00024700      -0.00269300      -0.12535300
Ag       2.87653000       0.00000000      16.44076000  F      -0.00645000      -0.00223400      -0.13002900
Ag       1.43827000       2.49115000      16.44076000  F       0.00002200      -0.01468600      -0.10990800
Ag       4.31480000       2.49115000      16.44076000  F      -0.00649500      -0.00065200      -0.10649100
Ag       5.75307000       0.00000000      16.44076000  F       0.00589700      -0.01340600      -0.12167700
Ag       2.87654000       4.98231000      16.44076000  F       0.00558800       0.01713000      -0.12439500
Ag       8.62961000       4.98231000      16.44076000  F      -0.00753400       0.01025800      -0.12284500
Ag       7.19134000       2.49115000      16.44076000  F       0.00634500      -0.00077600      -0.12321100
Ag       5.75307000       4.98231000      16.44076000  F       0.00358200       0.00937700      -0.12918400
C        9.06603000       6.39140000       2.02476000  T       0.03227700       0.01149100      -0.00379600
O        7.76512000       6.53004000       1.92665000  T       0.03218100      -0.02455900      -0.03250100
O        9.85179000       7.40916000       2.13303000  T      -0.01594000      -0.01401100       0.00819500
O        9.56822000       5.17015000       1.92631000  T       0.03247500       0.00273000       0.00151300
C        4.62585000       6.44067000       2.60842000  T       0.01517200      -0.00363600       0.24538300
O        4.75419000       6.21374000       3.81732000  T      -0.04928300       0.05560600      -0.16276600
O        0.32031000       0.17056000       2.10060000  T       0.02214600      -0.02311200       0.01629600
O        4.47135000       5.37002000       1.78304000  T      -0.02901500      -0.00016100      -0.04274600
44
Lattice="8.629602757 0.0 0.0 4.314801379 7.473454789 0.0 0.0 0.0 23.486801045" Properties=species:S:1:pos:R:3:move_mask:L:1:forces:R:3 stress="0.005743642667438929 -0.0005069915447863711 -6.187207996488074e-05 -0.0005069915447863711 0.005283031776966996 -1.2096044685961756e-05 -6.187207996488074e-05 -1.2096044685961756e-05 0.0019667307331114442" free_energy=-160.38767911 energy=-160.39526291 pbc="T T T"
Ag       4.29009000       2.51111000       0.01381000  T       0.00289400       0.00187800       0.01972300
Ag       8.62601000       0.03991000      23.46239000  T       0.00112500      -0.00479100       0.01412700
Ag       1.44404000       2.48180000      23.48103000  T      -0.01225600      -0.00201000       0.02402500
Ag       2.84881000       0.04601000       0.04195000  T      -0.01273200       0.00739400       0.00691800
Ag       5.81052000       0.11846000      23.41534000  T      -0.00272900       0.00549800       0.01118200
Ag      11.43059000       5.00172000       0.23241000  T      -0.01324100       0.00343400      -0.02596400
Ag       8.57772000       4.86725000      23.40771000  T      -0.02020000       0.00168300       0.00521500
Ag       7.18257000       2.49991000      23.48574000  T       0.01338000      -0.00887800       0.02061800
Ag       5.77060000       4.95944000       0.02766000  T      -0.00209600      -0.00785800      -0.00606500
Ag       1.45025000       0.81802000      21.13913000  T      -0.00078100       0.00236000       0.00757900
Ag       4.30390000       0.82660000      21.13758000  T       0.00067000       0.00028600       0.00706400
Ag       2.87278000       3.34883000      21.17161000  T       0.00259700      -0.00135000       0.01236700
Ag       5.74572000       3.33445000      21.14124000  T       0.00069000      -0.00240300       0.01300600
Ag       7.20087000       0.82452000      21.11042000  T       0.00003000      -0.00311400       0.00780300
Ag       4.29566000       5.81219000      21.17985000  T       0.00227700       0.00023400       0.00256800
Ag      10.07815000       5.81430000      21.17939000  T      -0.00016400       0.00577600      -0.00003500
Ag       7.18169000       5.81542000      21.15404000  T       0.00331100      -0.00016700       0.00026100
Ag       8.62706000       3.31495000      21.10377000  T       0.00511200      -0.00473900       0.00721200
Ag       2.87653000       1.66077000      18.78944000  F      -0.00333700       0.04461500       0.13807300
Ag       4.31480000       4.15192000      18.78944000  F      -0.02514900       0.02345000       0.18085900
Ag       5.75307000       1.66077000      18.78944000  F      -0.01634700       0.02411000       0.11195100
Ag       7.19134000       4.15192000      18.78944000  F      -0.03380900       0.03411200       0.05239800
Ag       8.62960000       1.66077000      18.78944000  F       0.02752600      -0.00830200       0.05460000
Ag       5.75307000       6.64307000      18.78944000  F      -0.00579100      -0.04413100       0.11918400
Ag      11.50614000       6.64307000      18.78944000  F      -0.01340000      -0.07482200       0.06410800
Ag      10.06787000       4.15192000      18.78944000  F       0.04722000       0.03939600       0.12904600
Ag       8.62961000       6.64307000      18.78944000  F       0.01456400      -0.03902400       0.12511900
Ag       0.00000000       0.00000000      16.44076000  F       0.00025200      -0.00276600      -0.12573500
Ag       2.87653000       0.00000000      16.44076000  F      -0.00647500      -0.00228100      -0.13047800
Ag       1.43827000       2.49115000      16.44076000  F       0.00003100      -0.01475400      -0.11032000
Ag       4.31480000       2.49115000      16.44076000  F      -0.00656300      -0.00064000      -0.10690700
Ag       5.75307000       0.00000000      16.44076000  F       0.00586100      -0.01349500      -0.12212500
Ag       2.87654000       4.98231000      16.44076000  F       0.00562300       0.01711100      -0.12484500
Ag       8.62961000       4.98231000      16.44076000  F      -0.00758400       0.01029200      -0.12332400
Ag       7.19134000       2.49115000      16.44076000  F       0.00634700      -0.00074900      -0.12358800
Ag       5.75307000       4.98231000      16.44076000  F       0.00351600       0.00936300      -0.12960700
C        9.06745000       6.39114000       2.02447000  T       0.02540900      -0.00139800      -0.00446900
O        7.76654000       6.52867000       1.92480000  T       0.02039800      -0.02495200      -0.03046600
O        9.85165000       7.40928000       2.13378000  T      -0.00097300       0.00058900       0.01360500
O        9.57015000       5.17020000       1.92634000  T       0.03484300      -0.00124600      -0.00049000
C        4.62564000       6.44067000       2.61287000  T      -0.02441900       0.04753200      -0.13598200
O        4.75221000       6.21503000       3.81628000  T      -0.01654200      -0.01792000       0.15463300
O        0.32160000       0.17026000       2.10124000  T       0.02264100      -0.01103500       0.01610800
O        4.46989000       5.37073000       1.78138000  T      -0.02172900       0.01371200      -0.01895100
44
Lattice="8.629602757 0.0 0.0 4.314801379 7.473454789 0.0 0.0 0.0 23.486801045" Properties=species:S:1:pos:R:3:move_mask:L:1:forces:R:3 stress="0.0058110322414710895 -0.0005102808200957116 -5.2497333257804086e-05 -0.0005102808200957116 0.005328719623768461 -1.881190850541214e-05 -5.2497333257804086e-05 -1.881190850541214e-05 0.002084626598990253" free_energy=-160.38857124 energy=-160.39612448 pbc="T T T"
Ag       4.29020000       2.51119000       0.01470000  T       0.00148300       0.00138500       0.01839400
Ag       8.62603000       0.03972000      23.46284000  T      -0.00021400      -0.00435500       0.00811600
Ag       1.44350000       2.48173000      23.48210000  T      -0.01000700      -0.00044800       0.02178800
Ag       2.84826000       0.04635000       0.04223000  T      -0.01027800       0.00733500       0.00497400
Ag       5.81039000       0.11871000      23.41582000  T      -0.00297200       0.00532600       0.00952300
Ag      11.42994000       5.00185000       0.23118000  T      -0.01307100       0.00238500      -0.02620900
Ag       8.57683000       4.86734000      23.40799000  T      -0.01739400       0.00250700       0.00690100
Ag       7.18314000       2.49952000      23.48667000  T       0.01041800      -0.00780500       0.01885300
Ag       5.77051000       4.95908000       0.02735000  T      -0.00307400      -0.00739500      -0.00518600
Ag       1.45023000       0.81813000      21.13947000  T      -0.00019900       0.00214200       0.00675300
Ag       4.30392000       0.82663000      21.13790000  T       0.00031600       0.00091200       0.00654500
Ag       2.87289000       3.34877000      21.17217000  T       0.00202100      -0.00136800       0.01155000
Ag       5.74576000       3.33433000      21.14182000  T       0.00131800      -0.00293400       0.01102600
Ag       7.20087000       0.82439000      21.11077000  T       0.00013000      -0.00219200       0.00696000
Ag       4.29576000       5.81220000      21.17995000  T       0.00207600       0.00029700       0.00160300
Ag      10.07813000       5.81454000      21.17940000  T      -0.00085900       0.00422500       0.00040100
Ag       7.18183000       5.81541000      21.15404000  T       0.00265900      -0.00002400      -0.00042600
Ag       8.62729000       3.31475000      21.10410000  T       0.00426200      -0.00371000       0.00675900
Ag       2.87653000       1.66077000      18.78944000  F      -0.00326100       0.04481400       0.13900500
Ag       4.31480000       4.15192000      18.78944000  F      -0.02496600       0.02305400       0.18178800
Ag       5.75307000       1.66077000      18.78944000  F      -0.01621200       0.02439100       0.11303600
Ag       7.19134000       4.15192000      18.78944000  F      -0.03380500       0.03362200       0.05354900
Ag       8.62960000       1.66077000      18.78944000  F       0.02745400      -0.00834500       0.05545800
Ag       5.75307000       6.64307000      18.78944000  F      -0.00576300      -0.04386500       0.11955700
Ag      11.50614000       6.64307000      18.78944000  F      -0.01320800      -0.07459700       0.06410200
Ag      10.06787000       4.15192000      18.78944000  F       0.04743000       0.03913000       0.12997300
Ag       8.62961000       6.64307000      18.78944000  F       0.01459700      -0.03873100       0.12508200
Ag       0.00000000       0.00000000      16.44076000  F       0.00028500      -0.00267800      -0.12600000
Ag       2.87653000       0.00000000      16.44076000  F      -0.00643500      -0.00221500      -0.13065800
Ag       1.43827000       2.49115000      16.44076000  F       0.00010600      -0.01475600      -0.11054800
Ag       4.31480000       2.49115000      16.44076000  F      -0.00656300      -0.00062500      -0.10710900
Ag       5.75307000       0.00000000      16.44076000  F       0.00588300      -0.01348400      -0.12229100
Ag       2.87654000       4.98231000      16.44076000  F       0.00561100       0.01710200      -0.12508400
Ag       8.62961000       4.98231000      16.44076000  F      -0.00755900       0.01031100      -0.12350500
Ag       7.19134000       2.49115000      16.44076000  F       0.00637300      -0.00071700      -0.12384900
Ag       5.75307000       4.98231000      16.44076000  F       0.00361100       0.00934400      -0.12987900
C        9.06851000       6.39088000       2.02425000  T       0.02253300      -0.00518500      -0.00435200
O        7.76738000       6.52752000       1.92341000  T       0.01991700      -0.02546300      -0.02915300
O        9.85179000       7.40951000       2.13445000  T       0.00169000       0.00250900       0.01496800
O        9.57179000       5.17012000       1.92629000  T       0.03495300      -0.00052800      -0.00178100
C        4.62501000       6.44127000       2.61171000  T      -0.00614000      -0.00768400       0.04870600
O        4.75092000       6.21499000       3.81844000  T      -0.03637300       0.00978200      -0.02807700
O        0.32264000       0.17030000       2.10187000  T       0.02204800       0.00951700       0.01206700
O        4.46896000       5.37156000       1.78092000  T      -0.01882200       0.01901100      -0.00332900
44
Lattice="8.629602757 0.0 0.0 4.314801379 7.473454789 0.0 0.0 0.0 23.486801045" Properties=species:S:1:pos:R:3:move_mask:L:1:forces:R:3 stress="0.005838975477827669 -0.0005100998163310611 -6.77016494884557e-05 -0.0005100998163310611 0.005356282128068362 -7.464844914556376e-06 -6.77016494884557e-05 -7.464844914556376e-06 0.0020321355072415747" free_energy=-160.3899644 energy=-160.39751085 pbc="T T T"
Ag       4.29027000       2.51127000       0.01594000  T       0.00013200       0.00108900       0.01716800
Ag       8.62601000       0.03938000      23.46352000  T      -0.00018000      -0.00646300       0.01377800
Ag       1.44287000       2.48173000      23.48356000  T      -0.00811800       0.00024600       0.01941600
Ag       2.84759000       0.04684000       0.04257000  T      -0.00902000       0.00652200       0.00424300
Ag       5.81018000       0.11907000      23.41645000  T      -0.00319500       0.00507300       0.00809500
Ag      11.42913000       5.00202000       0.22946000  T      -0.00938600       0.00250000      -0.02292000
Ag       8.57570000       4.86753000      23.40849000  T      -0.01493400       0.00295900       0.00747700
Ag       7.18379000       2.49901000      23.48793000  T       0.00765400      -0.00653600       0.01696600
Ag       5.77022000       4.95861000       0.02713000  T      -0.00610400      -0.00580100      -0.00017200
Ag       1.45022000       0.81827000      21.13992000  T      -0.00006100       0.00194600       0.00633300
Ag       4.30394000       0.82670000      21.13834000  T      -0.00009300       0.00142600       0.00600700
Ag       2.87301000       3.34867000      21.17294000  T       0.00128000      -0.00143300       0.01056700
Ag       5.74587000       3.33412000      21.14253000  T       0.00205300      -0.00319300       0.00928600
Ag       7.20089000       0.82425000      21.11123000  T       0.00022300      -0.00152600       0.00640600
Ag       4.29590000       5.81222000      21.18005000  T       0.00166800       0.00025000       0.00101500
Ag      10.07805000       5.81480000      21.17945000  T      -0.00154000       0.00271000       0.00121100
Ag       7.18200000       5.81541000      21.15401000  T       0.00181500      -0.00019100      -0.00024700
Ag       8.62756000       3.31451000      21.10456000  T       0.00318500      -0.00260500       0.00677000
Ag       2.87653000       1.66077000      18.78944000  F      -0.00321300       0.04504200       0.14077800
Ag       4.31480000       4.15192000      18.78944000  F      -0.02482100       0.02247300       0.18380400
Ag       5.75307000       1.66077000      18.78944000  F      -0.01612900       0.02459000       0.11499500
Ag       7.19134000       4.15192000      18.78944000  F      -0.03385500       0.03294600       0.05554000
Ag       8.62960000       1.66077000      18.78944000  F       0.02727300      -0.00834400       0.05727600
Ag       5.75307000       6.64307000      18.78944000  F      -0.00583800      -0.04361700       0.12069200
Ag      11.50614000       6.64307000      18.78944000  F      -0.01311800      -0.07436900       0.06488700
Ag      10.06787000       4.15192000      18.78944000  F       0.04761100       0.03875000       0.13175100
Ag       8.62961000       6.64307000      18.78944000  F       0.01461800      -0.03839900       0.12580900
Ag       0.00000000       0.00000000      16.44076000  F       0.00028000      -0.00267500      -0.12619000
Ag       2.87653000       0.00000000      16.44076000  F      -0.00647700      -0.00221600      -0.13080500
Ag       1.43827000       2.49115000      16.44076000  F       0.00009700      -0.01483100      -0.11070300
Ag       4.31480000       2.49115000      16.44076000  F      -0.00665900      -0.00065400      -0.10728600
Ag       5.75307000       0.00000000      16.44076000  F       0.00582900      -0.01354500      -0.12241400
Ag       2.87654000       4.98231000      16.44076000  F       0.00555900       0.01707000      -0.12529200
Ag       8.62961000       4.98231000      16.44076000  F      -0.00762100       0.01029800      -0.12368900
Ag       7.19134000       2.49115000      16.44076000  F       0.00637800      -0.00070500      -0.12399000
Ag       5.75307000       4.98231000      16.44076000  F       0.00361100       0.00930600      -0.13009900
C        9.07003000       6.39043000       2.02396000  T       0.02138700      -0.00652300      -0.00475400
O        7.76867000       6.52577000       1.92147000  T       0.01617100      -0.02545200      -0.02604700
O        9.85198000       7.40976000       2.13549000  T       0.00432600       0.00514500       0.01528700
O        9.57418000       5.17008000       1.92613000  T       0.03611200      -0.00271700      -0.00282800
C        4.62442000       6.44130000       2.61315000  T      -0.01659000       0.02666700      -0.06683800
O        4.74863000       6.21531000       3.81814000  T      -0.02395000      -0.01224800       0.07526700
O        0.32411000       0.17083000       2.10261000  T       0.02077100       0.00668600       0.01240500
O        4.46772000       5.37280000       1.78052000  T      -0.01713000       0.01035000      -0.00895800
44
Lattice="8.629602757 0.0 0.0 4.314801379 7.473454789 0.0 0.0 0.0 23.486801045" Properties=species:S:1:pos:R:3:move_mask:L:1:forces:R:3 stress="0.005810002392465319 -0.0005096816352196269 -5.5499499147353934e-05 -0.0005096816352196269 0.005332901434882803 -1.725153122394133e-05 -5.5499499147353934e-05 -1.725153122394133e-05 0.002193796835111077" free_energy=-160.38966829 energy=-160.39722933 pbc="T T T"
Ag       4.29026000       2.51133000       0.01696000  T      -0.00061700       0.00060600       0.01575700
Ag       8.62597000       0.03903000      23.46420000  T      -0.00154600      -0.00405000       0.00523400
Ag       1.44239000       2.48177000      23.48470000  T      -0.00703100       0.00135600       0.01751500
Ag       2.84708000       0.04722000       0.04278000  T      -0.00683900       0.00571200       0.00251100
Ag       5.80997000       0.11938000      23.41690000  T      -0.00351500       0.00467100       0.00709300
Ag      11.42857000       5.00216000       0.22803000  T      -0.00907400       0.00186100      -0.02314000
Ag       8.57481000       4.86771000      23.40891000  T      -0.01349700       0.00295000       0.00739900
Ag       7.18421000       2.49863000      23.48893000  T       0.00554300      -0.00511300       0.01537000
Ag       5.76985000       4.95826000       0.02710000  T      -0.00537500      -0.00571900      -0.00137500
Ag       1.45021000       0.81838000      21.14031000  T      -0.00022200       0.00178200       0.00587700
Ag       4.30392000       0.82680000      21.13869000  T      -0.00024600       0.00166000       0.00514400
Ag       2.87309000       3.34859000      21.17357000  T       0.00105500      -0.00127200       0.00926700
Ag       5.74600000       3.33392000      21.14308000  T       0.00210600      -0.00307100       0.00787800
Ag       7.20091000       0.82417000      21.11162000  T       0.00044800      -0.00105500       0.00582700
Ag       4.29600000       5.81223000      21.18011000  T       0.00144200       0.00029600       0.00067400
Ag      10.07795000       5.81495000      21.17952000  T      -0.00187000       0.00204200       0.00110000
Ag       7.18210000       5.81539000      21.15400000  T       0.00113800      -0.00022100      -0.00021000
Ag       8.62774000       3.31437000      21.10497000  T       0.00256000      -0.00182200       0.00628300
Ag       2.87653000       1.66077000      18.78944000  F      -0.00327200       0.04528400       0.14204200
Ag       4.31480000       4.15192000      18.78944000  F      -0.02475700       0.02200600       0.18515900
Ag       5.75307000       1.66077000      18.78944000  F      -0.01600900       0.02472300       0.11637600
Ag       7.19134000       4.15192000      18.78944000  F      -0.03376900       0.03240600       0.05689000
Ag       8.62960000       1.66077000      18.78944000  F       0.02719900      -0.00830100       0.05865100
Ag       5.75307000       6.64307000      18.78944000  F      -0.00591100      -0.04325200       0.12137500
Ag      11.50614000       6.64307000      18.78944000  F      -0.01310200      -0.07409000       0.06548100
Ag      10.06787000       4.15192000      18.78944000  F       0.04771800       0.03842000       0.13308100
Ag       8.62961000       6.64307000      18.78944000  F       0.01466500      -0.03811500       0.12630500
Ag       0.00000000       0.00000000      16.44076000  F       0.00025900      -0.00271200      -0.12620500
Ag       2.87653000       0.00000000      16.44076000  F      -0.00645900      -0.00222800      -0.13077400
Ag       1.43827000       2.49115000      16.44076000  F       0.00013100      -0.01479800      -0.11065500
Ag       4.31480000       2.49115000      16.44076000  F      -0.00671000      -0.00061200      -0.10721500
Ag       5.75307000       0.00000000      16.44076000  F       0.00578200      -0.01359300      -0.12239600
Ag       2.87654000       4.98231000      16.44076000  F       0.00552500       0.01709100      -0.12530300
Ag       8.62961000       4.98231000      16.44076000  F      -0.00763900       0.01035900      -0.12367500
Ag       7.19134000       2.49115000      16.44076000  F       0.00634700      -0.00063500      -0.12394200
Ag       5.75307000       4.98231000      16.44076000  F       0.00358900       0.00931300      -0.13011200
C        9.07134000       6.39000000       2.02370000  T       0.02260300      -0.00645100      -0.00398500
O        7.76983000       6.52418000       1.91984000  T       0.01435700      -0.02548600      -0.02490700
O        9.85216000       7.40996000       2.13637000  T       0.00430500       0.00488700       0.01450500
O        9.57634000       5.17006000       1.92591000  T       0.03641100      -0.00343100      -0.00425700
C        4.62370000       6.44208000       2.61207000  T      -0.00089600      -0.02165100       0.09944900
O        4.74682000       6.21511000       3.81979000  T      -0.03987200       0.01517300      -0.08310100
O        0.32537000       0.17126000       2.10326000  T       0.01956200       0.01549000       0.00848200
O        4.46671000       5.37370000       1.78007000  T      -0.01452000       0.01959200       0.00052400
44
Lattice="8.629602757 0.0 0.0 4.314801379 7.473454789 0.0 0.0 0.0 23.486801045" Properties=species:S:1:pos:R:3:move_mask:L:1:forces:R:3 stress="0.00584650897934261 -0.000510155989913194 -6.433747606960463e-05 -0.000510155989913194 0.005360195554290291 -9.243675015433106e-06 -6.433747606960463e-05 -9.243675015433106e-06 0.0021678508816747803" free_energy=-160.39054262 energy=-160.39809262 pbc="T T T"
Ag       4.29020000       2.51139000       0.01813000  T      -0.00145300       0.00054000       0.01411500
Ag       8.62589000       0.03866000      23.46492000  T      -0.00145900      -0.00397200       0.00665300
Ag       1.44188000       2.48186000      23.48600000  T      -0.00609600       0.00161100       0.01574700
Ag       2.84657000       0.04763000       0.04299000  T      -0.00563300       0.00484300       0.00230500
Ag       5.80970000       0.11973000      23.41740000  T      -0.00365700       0.00431500       0.00631700
Ag      11.42800000       5.00231000       0.22639000  T      -0.00721500       0.00171400      -0.02122500
Ag       8.57381000       4.86793000      23.40945000  T      -0.01214200       0.00290600       0.00733800
Ag       7.18458000       2.49826000      23.49006000  T       0.00370400      -0.00416700       0.01381000
Ag       5.76937000       4.95787000       0.02715000  T      -0.00576100      -0.00486500       0.00042300
Ag       1.45019000       0.81851000      21.14073000  T      -0.00032400       0.00169900       0.00527100
Ag       4.30390000       0.82692000      21.13907000  T      -0.00036300       0.00179700       0.00439500
Ag       2.87316000       3.34849000      21.17424000  T       0.00078200      -0.00114800       0.00785200
Ag       5.74616000       3.33369000      21.14364000  T       0.00200600      -0.00290800       0.00681800
Ag       7.20095000       0.82409000      21.11204000  T       0.00048300      -0.00081300       0.00523900
Ag       4.29610000       5.81225000      21.18014000  T       0.00116000       0.00028200       0.00026100
Ag      10.07780000       5.81508000      21.17961000  T      -0.00218300       0.00148300       0.00117300
Ag       7.18216000       5.81537000      21.15399000  T       0.00044600      -0.00036600      -0.00006600
Ag       8.62792000       3.31424000      21.10544000  T       0.00180700      -0.00129600       0.00589500
Ag       2.87653000       1.66077000      18.78944000  F      -0.00330500       0.04544300       0.14332300
Ag       4.31480000       4.15192000      18.78944000  F      -0.02467400       0.02145400       0.18659000
Ag       5.75307000       1.66077000      18.78944000  F      -0.01588600       0.02474800       0.11777500
Ag       7.19134000       4.15192000      18.78944000  F      -0.03365400       0.03180200       0.05822100
Ag       8.62960000       1.66077000      18.78944000  F       0.02712200      -0.00825300       0.06014400
Ag       5.75307000       6.64307000      18.78944000  F      -0.00595100      -0.04297000       0.12201400
Ag      11.50614000       6.64307000      18.78944000  F      -0.01313900      -0.07387200       0.06600800
Ag      10.06787000       4.15192000      18.78944000  F       0.04779400       0.03801900       0.13440500
Ag       8.62961000       6.64307000      18.78944000  F       0.01472500      -0.03784200       0.12679300
Ag       0.00000000       0.00000000      16.44076000  F       0.00025900      -0.00274500      -0.12625500
Ag       2.87653000       0.00000000      16.44076000  F      -0.00646600      -0.00224800      -0.13076900
Ag       1.43827000       2.49115000      16.44076000  F       0.00015000      -0.01488300      -0.11065800
Ag       4.31480000       2.49115000      16.44076000  F      -0.00677000      -0.00066300      -0.10722500
Ag       5.75307000       0.00000000      16.44076000  F       0.00576900      -0.01366400      -0.12239400
Ag       2.87654000       4.98231000      16.44076000  F       0.00550900       0.01703400      -0.12536000
Ag       8.62961000       4.98231000      16.44076000  F      -0.00766800       0.01029900      -0.12370500
Ag       7.19134000       2.49115000      16.44076000  F       0.00636000      -0.00065100      -0.12395200
Ag       5.75307000       4.98231000      16.44076000  F       0.00359500       0.00924500      -0.13017900
C        9.07296000       6.38948000       2.02343000  T       0.02144300      -0.00710600      -0.00369500
O        7.77119000       6.52220000       1.91801000  T       0.01513100      -0.02586500      -0.02348900
O        9.85237000       7.41019000       2.13745000  T       0.00435400       0.00474500       0.01450500
O        9.57901000       5.17000000       1.92560000  T       0.03628600      -0.00321500      -0.00475000
C        4.62303000       6.44249000       2.61275000  T      -0.00486700      -0.00968100       0.05324200
O        4.74445000       6.21513000       3.81987000  T      -0.03505800       0.00687600      -0.03978300
O        0.32682000       0.17196000       2.10399000  T       0.01855400       0.01525700       0.00826000
O        4.46559000       5.37488000       1.77968000  T      -0.01371300       0.01708000      -0.00138800
44
Lattice="8.629602757 0.0 0.0 4.314801379 7.473454789 0.0 0.0 0.0 23.486801045" Properties=species:S:1:pos:R:3:move_mask:L:1:forces:R:3 stress="0.005847757281167787 -0.0005097502918200116 -7.174614740202804e-05 -0.0005097502918200116 0.005367279667148168 -3.470279073991091e-06 -7.174614740202804e-05 -3.470279073991091e-06 0.00215707179541438" free_energy=-160.3909458 energy=-160.39850531 pbc="T T T"
Ag       4.29011000       2.51142000       0.01890000  T      -0.00165200       0.00056400       0.01306700
Ag       8.62582000       0.03842000      23.46538000  T      -0.00107200      -0.00409700       0.00964000
Ag       1.44155000       2.48194000      23.48686000  T      -0.00561600       0.00126300       0.01441000
Ag       2.84625000       0.04789000       0.04313000  T      -0.00513200       0.00426900       0.00248200
Ag       5.80950000       0.11996000      23.41775000  T      -0.00362000       0.00403700       0.00579000
Ag      11.42763000       5.00241000       0.22524000  T      -0.00536700       0.00188000      -0.01925300
Ag       8.57314000       4.86809000      23.40987000  T      -0.01145900       0.00276900       0.00709500
Ag       7.18477000       2.49803000      23.49082000  T       0.00250000      -0.00374500       0.01247000
Ag       5.76903000       4.95762000       0.02722000  T      -0.00648300      -0.00408200       0.00215600
Ag       1.45017000       0.81860000      21.14102000  T      -0.00032800       0.00160800       0.00483700
Ag       4.30388000       0.82702000      21.13931000  T      -0.00044500       0.00173400       0.00412600
Ag       2.87320000       3.34842000      21.17466000  T       0.00056200      -0.00111200       0.00708300
Ag       5.74627000       3.33353000      21.14401000  T       0.00197400      -0.00267300       0.00617900
Ag       7.20098000       0.82405000      21.11233000  T       0.00050800      -0.00070300       0.00497000
Ag       4.29616000       5.81227000      21.18015000  T       0.00095000       0.00030200       0.00027400
Ag      10.07768000       5.81516000      21.17968000  T      -0.00232200       0.00124100       0.00139000
Ag       7.18218000       5.81535000      21.15399000  T       0.00008300      -0.00041300       0.00033600
Ag       8.62801000       3.31417000      21.10577000  T       0.00139400      -0.00087900       0.00580200
Ag       2.87653000       1.66077000      18.78944000  F      -0.00333800       0.04557100       0.14446400
Ag       4.31480000       4.15192000      18.78944000  F      -0.02460000       0.02109300       0.18786500
Ag       5.75307000       1.66077000      18.78944000  F      -0.01577400       0.02476300       0.11902000
Ag       7.19134000       4.15192000      18.78944000  F      -0.03356600       0.03140300       0.05939800
Ag       8.62960000       1.66077000      18.78944000  F       0.02707400      -0.00817600       0.06147900
Ag       5.75307000       6.64307000      18.78944000  F      -0.00598400      -0.04275400       0.12278200
Ag      11.50614000       6.64307000      18.78944000  F      -0.01317000      -0.07369800       0.06672600
Ag      10.06787000       4.15192000      18.78944000  F       0.04782900       0.03776100       0.13559700
Ag       8.62961000       6.64307000      18.78944000  F       0.01476500      -0.03765800       0.12747900
Ag       0.00000000       0.00000000      16.44076000  F       0.00027600      -0.00278500      -0.12613000
Ag       2.87653000       0.00000000      16.44076000  F      -0.00645100      -0.00226100      -0.13062700
Ag       1.43827000       2.49115000      16.44076000  F       0.00018300      -0.01491500      -0.11050400
Ag       4.31480000       2.49115000      16.44076000  F      -0.00681000      -0.00067300      -0.10709200
Ag       5.75307000       0.00000000      16.44076000  F       0.00575900      -0.01371300      -0.12225900
Ag       2.87654000       4.98231000      16.44076000  F       0.00551500       0.01701600      -0.12525900
Ag       8.62961000       4.98231000      16.44076000  F      -0.00767700       0.01028700      -0.12359800
Ag       7.19134000       2.49115000      16.44076000  F       0.00638100      -0.00063000      -0.12378800
Ag       5.75307000       4.98231000      16.44076000  F       0.00359100       0.00921800      -0.13007300
C        9.07415000       6.38909000       2.02322000  T       0.02041800      -0.00735400      -0.00342700
O        7.77213000       6.52073000       1.91672000  T       0.01830900      -0.02629700      -0.02216600
O        9.85256000       7.41038000       2.13825000  T       0.00256100       0.00213000       0.01330900
O        9.58100000       5.16990000       1.92534000  T       0.03434800      -0.00012800      -0.00449900
C        4.62258000       6.44267000       2.61362000  T      -0.01058300       0.01291300      -0.01703900
O        4.74269000       6.21518000       3.81956000  T      -0.02771100      -0.00413800       0.02359100
O        0.32784000       0.17255000       2.10451000  T       0.01726900       0.00741700       0.00878500
O        4.46483000       5.37574000       1.77945000  T      -0.01309000       0.01364400      -0.00688300
44
Lattice="8.629602757 0.0 0.0 4.314801379 7.473454789 0.0 0.0 0.0 23.486801045" Properties=species:S:1:pos:R:3:move_mask:L:1:forces:R:3 stress="0.005830218640524055 -0.0005114542238113777 -6.396298552205163e-05 -0.0005114542238113777 0.005344916339950128 -1.084150135165922e-05 -6.396298552205163e-05 -1.084150135165922e-05 0.0022655679485496087" free_energy=-160.3911802 energy=-160.39873968 pbc="T T T"
Ag       4.28998000       2.51147000       0.01988000  T      -0.00203000       0.00030600       0.01166300
Ag       8.62573000       0.03813000      23.46608000  T      -0.00186200      -0.00191100       0.00237200
Ag       1.44113000       2.48204000      23.48793000  T      -0.00502100       0.00170700       0.01232000
Ag       2.84587000       0.04820000       0.04331000  T      -0.00371300       0.00374300       0.00161300
Ag       5.80922000       0.12027000      23.41816000  T      -0.00348200       0.00363200       0.00487700
Ag      11.42725000       5.00255000       0.22377000  T      -0.00581600       0.00134200      -0.01963800
Ag       8.57226000       4.86829000      23.41037000  T      -0.01066100       0.00226400       0.00673500
Ag       7.18493000       2.49776000      23.49174000  T       0.00136500      -0.00282300       0.01085500
Ag       5.76854000       4.95731000       0.02738000  T      -0.00471600      -0.00425100      -0.00014700
Ag       1.45014000       0.81873000      21.14138000  T      -0.00041200       0.00140100       0.00434500
Ag       4.30384000       0.82716000      21.13960000  T      -0.00049400       0.00165100       0.00327800
Ag       2.87323000       3.34834000      21.17518000  T       0.00037100      -0.00095800       0.00599200
Ag       5.74641000       3.33333000      21.14446000  T       0.00150200      -0.00227300       0.00515100
Ag       7.20102000       0.82400000      21.11269000  T       0.00044300      -0.00057900       0.00445800
Ag       4.29623000       5.81230000      21.18016000  T       0.00070200       0.00036800       0.00011500
Ag      10.07750000       5.81525000      21.17978000  T      -0.00246700       0.00105000       0.00122500
Ag       7.18218000       5.81532000      21.15402000  T      -0.00037000      -0.00033500       0.00042300
Ag       8.62811000       3.31411000      21.10620000  T       0.00093900      -0.00057600       0.00531700
Ag       2.87653000       1.66077000      18.78944000  F      -0.00343000       0.04577500       0.14565600
Ag       4.31480000       4.15192000      18.78944000  F      -0.02451600       0.02069700       0.18912900
Ag       5.75307000       1.66077000      18.78944000  F      -0.01562200       0.02483800       0.12034200
Ag       7.19134000       4.15192000      18.78944000  F      -0.03343600       0.03095300       0.06068600
Ag       8.62960000       1.66077000      18.78944000  F       0.02701000      -0.00802400       0.06296000
Ag       5.75307000       6.64307000      18.78944000  F      -0.00603200      -0.04243900       0.12348500
Ag      11.50614000       6.64307000      18.78944000  F      -0.01323800      -0.07342100       0.06740300
Ag      10.06787000       4.15192000      18.78944000  F       0.04780000       0.03745300       0.13689300
Ag       8.62961000       6.64307000      18.78944000  F       0.01477500      -0.03741900       0.12810600
Ag       0.00000000       0.00000000      16.44076000  F       0.00026400      -0.00279700      -0.12618800
Ag       2.87653000       0.00000000      16.44076000  F      -0.00643500      -0.00224600      -0.13061000
Ag       1.43827000       2.49115000      16.44076000  F       0.00022300      -0.01488500      -0.11050500
Ag       4.31480000       2.49115000      16.44076000  F      -0.00685100      -0.00064100      -0.10707600
Ag       5.75307000       0.00000000      16.44076000  F       0.00574200      -0.01372400      -0.12226000
Ag       2.87654000       4.98231000      16.44076000  F       0.00549300       0.01701900      -0.12529900
Ag       8.62961000       4.98231000      16.44076000  F      -0.00768700       0.01029900      -0.12361400
Ag       7.19134000       2.49115000      16.44076000  F       0.00636200      -0.00056900      -0.12378800
Ag       5.75307000       4.98231000      16.44076000  F       0.00358000       0.00921000      -0.13011900
C        9.07575000       6.38853000       2.02299000  T       0.02083800      -0.00899900      -0.00378300
O        7.77363000       6.51868000       1.91498000  T       0.01167400      -0.02554700      -0.02198000
O        9.85271000       7.41048000       2.13925000  T       0.00647100       0.00695500       0.01297500
O        9.58364000       5.16991000       1.92498000  T       0.03558500      -0.00412400      -0.00498800
C        4.62181000       6.44354000       2.61278000  T       0.00139800      -0.02999800       0.11929000
O        4.74048000       6.21496000       3.82096000  T      -0.03983600       0.01852600      -0.10653700
O        0.32916000       0.17306000       2.10514000  T       0.01633000       0.01918400       0.00561000
O        4.46384000       5.37687000       1.77890000  T      -0.01073900       0.02016500       0.00325600
44
Lattice="8.629602757 0.0 0.0 4.314801379 7.473454789 0.0 0.0 0.0 23.486801045" Properties=species:S:1:pos:R:3:move_mask:L:1:forces:R:3 stress="0.0057966892534998095 -0.0005081524654837855 -7.444247934440961e-05 -0.0005081524654837855 0.005324306876816462 2.140837630177957e-06 -7.444247934440961e-05 2.140837630177957e-06 0.002232194599253511" free_energy=-160.391346 energy=-160.39894051 pbc="T T T"
Ag       4.28987000       2.51149000       0.02046000  T      -0.00205100       0.00047600       0.01073000
Ag       8.62566000       0.03800000      23.46639000  T      -0.00091500      -0.00309800       0.00947900
Ag       1.44087000       2.48212000      23.48854000  T      -0.00483200       0.00120500       0.01161100
Ag       2.84568000       0.04839000       0.04340000  T      -0.00406900       0.00327300       0.00206200
Ag       5.80904000       0.12045000      23.41841000  T      -0.00349700       0.00355800       0.00433600
Ag      11.42701000       5.00263000       0.22282000  T      -0.00333700       0.00185300      -0.01757600
Ag       8.57174000       4.86841000      23.41070000  T      -0.01014700       0.00222000       0.00615500
Ag       7.18499000       2.49762000      23.49228000  T       0.00079500      -0.00265600       0.01011200
Ag       5.76826000       4.95712000       0.02744000  T      -0.00633800      -0.00316500       0.00253300
Ag       1.45012000       0.81880000      21.14160000  T      -0.00051000       0.00144400       0.00401900
Ag       4.30382000       0.82724000      21.13978000  T      -0.00057900       0.00163900       0.00309200
Ag       2.87325000       3.34829000      21.17549000  T       0.00025800      -0.00101100       0.00545000
Ag       5.74649000       3.33322000      21.14473000  T       0.00129000      -0.00210400       0.00478300
Ag       7.20104000       0.82397000      21.11292000  T       0.00051800      -0.00049200       0.00414600
Ag       4.29626000       5.81231000      21.18017000  T       0.00054600       0.00039000       0.00000100
Ag      10.07737000       5.81530000      21.17985000  T      -0.00250800       0.00097600       0.00116800
Ag       7.18215000       5.81530000      21.15405000  T      -0.00056000      -0.00034600       0.00046400
Ag       8.62816000       3.31408000      21.10648000  T       0.00077400      -0.00049600       0.00518100
Ag       2.87653000       1.66077000      18.78944000  F      -0.00346800       0.04587700       0.14685000
Ag       4.31480000       4.15192000      18.78944000  F      -0.02443700       0.02043600       0.19046500
Ag       5.75307000       1.66077000      18.78944000  F      -0.01547000       0.02483300       0.12167000
Ag       7.19134000       4.15192000      18.78944000  F      -0.03330600       0.03065900       0.06196100
Ag       8.62960000       1.66077000      18.78944000  F       0.02698400      -0.00788600       0.06444100
Ag       5.75307000       6.64307000      18.78944000  F      -0.00604800      -0.04222600       0.12449900
Ag      11.50614000       6.64307000      18.78944000  F      -0.01326000      -0.07323300       0.06841800
Ag      10.06787000       4.15192000      18.78944000  F       0.04780200       0.03727600       0.13817000
Ag       8.62961000       6.64307000      18.78944000  F       0.01481300      -0.03727500       0.12907200
Ag       0.00000000       0.00000000      16.44076000  F       0.00031700      -0.00284400      -0.12576600
Ag       2.87653000       0.00000000      16.44076000  F      -0.00639400      -0.00225500      -0.13022800
Ag       1.43827000       2.49115000      16.44076000  F       0.00028100      -0.01489700      -0.11008300
Ag       4.31480000       2.49115000      16.44076000  F      -0.00687400      -0.00061800      -0.10670000
Ag       5.75307000       0.00000000      16.44076000  F       0.00576000      -0.01376600      -0.12189100
Ag       2.87654000       4.98231000      16.44076000  F       0.00554100       0.01704300      -0.12493500
Ag       8.62961000       4.98231000      16.44076000  F      -0.00766600       0.01034000      -0.12327100
Ag       7.19134000       2.49115000      16.44076000  F       0.00642300      -0.00051700      -0.12333200
Ag       5.75307000       4.98231000      16.44076000  F       0.00357400       0.00923200      -0.12972400
C        9.07679000       6.38817000       2.02280000  T       0.01969700      -0.00867000      -0.00361700
O        7.77446000       6.51736000       1.91388000  T       0.01771600      -0.02606600      -0.02173900
O        9.85287000       7.41062000       2.13988000  T       0.00314500       0.00267700       0.01253900
O        9.58538000       5.16982000       1.92474000  T       0.03415100      -0.00173800      -0.00495400
C        4.62150000       6.44344000       2.61437000  T      -0.01260400       0.02057100      -0.04419100
O        4.73886000       6.21517000       3.81976000  T      -0.02546100      -0.00781300       0.04737700
O        0.32998000       0.17364000       2.10552000  T       0.01569100       0.00465300       0.00716500
O        4.46326000       5.37764000       1.77874000  T      -0.01174500       0.01254000      -0.00994300
44
Lattice="8.629602757 0.0 0.0 4.314801379 7.473454789 0.0 0.0 0.0 23.486801045" Properties=species:S:1:pos:R:3:move_mask:L:1:forces:R:3 stress="0.005855178435518462 -0.000509625461637494 -7.628372453654518e-05 -0.000509625461637494 0.005370075863236563 -2.746264015388634e-06 -7.628372453654518e-05 -2.746264015388634e-06 0.0022409202290114955" free_energy=-160.3921759 energy=-160.39973637 pbc="T T T"
Ag       4.28976000       2.51151000       0.02102000  T      -0.00218700       0.00024400       0.01006400
Ag       8.62560000       0.03786000      23.46679000  T      -0.00126300      -0.00194600       0.00575200
Ag       1.44062000       2.48219000      23.48914000  T      -0.00460400       0.00142500       0.01063400
Ag       2.84548000       0.04855000       0.04349000  T      -0.00315700       0.00288300       0.00174700
Ag       5.80885000       0.12064000      23.41863000  T      -0.00349200       0.00336300       0.00434900
Ag      11.42682000       5.00272000       0.22188000  T      -0.00387500       0.00141200      -0.01767400
Ag       8.57120000       4.86852000      23.41102000  T      -0.00974400       0.00210400       0.00646100
Ag       7.18503000       2.49749000      23.49280000  T       0.00030500      -0.00216800       0.00930300
Ag       5.76794000       4.95695000       0.02754000  T      -0.00523500      -0.00322000       0.00114500
Ag       1.45009000       0.81888000      21.14181000  T      -0.00054500       0.00141400       0.00380000
Ag       4.30378000       0.82733000      21.13993000  T      -0.00059700       0.00156200       0.00265200
Ag       2.87326000       3.34824000      21.17576000  T       0.00013600      -0.00090600       0.00480900
Ag       5.74655000       3.33311000      21.14497000  T       0.00102900      -0.00179900       0.00430300
Ag       7.20107000       0.82395000      21.11313000  T       0.00035700      -0.00045200       0.00383500
Ag       4.29629000       5.81233000      21.18017000  T       0.00036600       0.00038700      -0.00003000
Ag      10.07724000       5.81535000      21.17990000  T      -0.00247200       0.00088500       0.00103400
Ag       7.18212000       5.81528000      21.15407000  T      -0.00069700      -0.00031900       0.00045400
Ag       8.62819000       3.31406000      21.10675000  T       0.00049700      -0.00026800       0.00481600
Ag       2.87653000       1.66077000      18.78944000  F      -0.00352300       0.04598200       0.14669000
Ag       4.31480000       4.15192000      18.78944000  F      -0.02441100       0.02026900       0.19034400
Ag       5.75307000       1.66077000      18.78944000  F      -0.01539300       0.02487200       0.12161900
Ag       7.19134000       4.15192000      18.78944000  F      -0.03322700       0.03048300       0.06194100
Ag       8.62960000       1.66077000      18.78944000  F       0.02693500      -0.00775600       0.06450600
Ag       5.75307000       6.64307000      18.78944000  F      -0.00603800      -0.04206900       0.12416000
Ag      11.50614000       6.64307000      18.78944000  F      -0.01334700      -0.07309400       0.06801800
Ag      10.06787000       4.15192000      18.78944000  F       0.04773600       0.03714500       0.13820400
Ag       8.62961000       6.64307000      18.78944000  F       0.01481100      -0.03716700       0.12872500
Ag       0.00000000       0.00000000      16.44076000  F       0.00030700      -0.00279700      -0.12618200
Ag       2.87653000       0.00000000      16.44076000  F      -0.00640800      -0.00220200      -0.13057800
Ag       1.43827000       2.49115000      16.44076000  F       0.00028900      -0.01490100      -0.11046400
Ag       4.31480000       2.49115000      16.44076000  F      -0.00690000      -0.00061100      -0.10706500
Ag       5.75307000       0.00000000      16.44076000  F       0.00575500      -0.01375400      -0.12223300
Ag       2.87654000       4.98231000      16.44076000  F       0.00551900       0.01705500      -0.12533700
Ag       8.62961000       4.98231000      16.44076000  F      -0.00768600       0.01035100      -0.12361400
Ag       7.19134000       2.49115000      16.44076000  F       0.00642100      -0.00049800      -0.12374300
Ag       5.75307000       4.98231000      16.44076000  F       0.00359800       0.00923900      -0.13013300
C        9.07787000       6.38774000       2.02262000  T       0.01939100      -0.00811200      -0.00368000
O        7.77536000       6.51598000       1.91276000  T       0.01439900      -0.02547500      -0.02023500
O        9.85302000       7.41073000       2.14052000  T       0.00475300       0.00429800       0.01244900
O        9.58719000       5.16973000       1.92448000  T       0.03469200      -0.00349800      -0.00460300
C        4.62099000       6.44398000       2.61386000  T      -0.00691500       0.00134200       0.01914600
O        4.73737000       6.21505000       3.82059000  T      -0.03000900       0.00164900      -0.01003700
O        0.33080000       0.17402000       2.10588000  T       0.01504900       0.01127800       0.00769700
O        4.46267000       5.37838000       1.77835000  T      -0.01061600       0.01336800      -0.00305000
44
Lattice="8.629602757 0.0 0.0 4.314801379 7.473454789 0.0 0.0 0.0 23.486801045" Properties=species:S:1:pos:R:3:move_mask:L:1:forces:R:3 stress="0.005858012080661613 -0.0005048943977200744 -9.118220682002852e-05 -0.0005048943977200744 0.005385997953016692 8.500935429452998e-06 -9.118220682002852e-05 8.500935429452998e-06 0.002167782225074396" free_energy=-160.39227539 energy=-160.39984597 pbc="T T T"
Ag       4.28954000       2.51153000       0.02198000  T      -0.00217900       0.00052900       0.00870600
Ag       8.62549000       0.03769000      23.46739000  T      -0.00022600      -0.00297600       0.01321200
Ag       1.44017000       2.48233000      23.49017000  T      -0.00422500       0.00103500       0.00944400
Ag       2.84517000       0.04883000       0.04368000  T      -0.00362800       0.00264100       0.00223000
Ag       5.80850000       0.12097000      23.41907000  T      -0.00344100       0.00318700       0.00442400
Ag      11.42647000       5.00287000       0.22019000  T      -0.00128900       0.00170900      -0.01492700
Ag       8.57025000       4.86873000      23.41168000  T      -0.00919200       0.00164800       0.00515500
Ag       7.18503000       2.49729000      23.49370000  T      -0.00040500      -0.00186700       0.00830100
Ag       5.76741000       4.95664000       0.02768000  T      -0.00645500      -0.00226200       0.00363300
Ag       1.45003000       0.81901000      21.14219000  T      -0.00063000       0.00129600       0.00308100
Ag       4.30372000       0.82748000      21.14019000  T      -0.00072200       0.00126900       0.00217100
Ag       2.87326000       3.34815000      21.17623000  T      -0.00028300      -0.00079500       0.00389700
Ag       5.74665000       3.33294000      21.14539000  T       0.00081300      -0.00161600       0.00348600
Ag       7.20110000       0.82391000      21.11352000  T       0.00022700      -0.00044300       0.00317700
Ag       4.29632000       5.81238000      21.18018000  T       0.00005300       0.00048600      -0.00019500
Ag      10.07699000       5.81544000      21.18002000  T      -0.00250600       0.00076500       0.00100100
Ag       7.18205000       5.81525000      21.15413000  T      -0.00087900      -0.00029800       0.00051200
Ag       8.62823000       3.31404000      21.10723000  T       0.00016000      -0.00001700       0.00438000
Ag       2.87653000       1.66077000      18.78944000  F      -0.00362500       0.04611200       0.14807500
Ag       4.31480000       4.15192000      18.78944000  F      -0.02434000       0.01990200       0.19185100
Ag       5.75307000       1.66077000      18.78944000  F      -0.01518900       0.02485900       0.12320500
Ag       7.19134000       4.15192000      18.78944000  F      -0.03306400       0.03004000       0.06343200
Ag       8.62960000       1.66077000      18.78944000  F       0.02685900      -0.00755600       0.06641400
Ag       5.75307000       6.64307000      18.78944000  F      -0.00609800      -0.04174700       0.12524200
Ag      11.50614000       6.64307000      18.78944000  F      -0.01341400      -0.07280900       0.06905400
Ag      10.06787000       4.15192000      18.78944000  F       0.04766800       0.03684800       0.13973100
Ag       8.62961000       6.64307000      18.78944000  F       0.01480600      -0.03694100       0.12973700
Ag       0.00000000       0.00000000      16.44076000  F       0.00033300      -0.00283200      -0.12593400
Ag       2.87653000       0.00000000      16.44076000  F      -0.00640100      -0.00218200      -0.13033300
Ag       1.43827000       2.49115000      16.44076000  F       0.00034200      -0.01493900      -0.11020700
Ag       4.31480000       2.49115000      16.44076000  F      -0.00694100      -0.00058400      -0.10687100
Ag       5.75307000       0.00000000      16.44076000  F       0.00580200      -0.01379000      -0.12200700
Ag       2.87654000       4.98231000      16.44076000  F       0.00556400       0.01706300      -0.12514500
Ag       8.62961000       4.98231000      16.44076000  F      -0.00768900       0.01034400      -0.12343700
Ag       7.19134000       2.49115000      16.44076000  F       0.00647200      -0.00045200      -0.12346200
Ag       5.75307000       4.98231000      16.44076000  F       0.00358900       0.00922700      -0.12991700
C        9.07983000       6.38687000       2.02227000  T       0.02295600      -0.00039300      -0.00245400
O        7.77700000       6.51342000       1.91075000  T       0.01842100      -0.02628300      -0.01820600
O        9.85338000       7.41100000       2.14172000  T      -0.00242800      -0.00577300       0.00968800
O        9.59057000       5.16951000       1.92398000  T       0.03275200      -0.00169300      -0.00413000
C        4.62026000       6.44413000       2.61557000  T      -0.02066200       0.06022700      -0.15438100
O        4.73436000       6.21526000       3.81957000  T      -0.01374700      -0.02612000       0.15125500
O        0.33227000       0.17512000       2.10653000  T       0.01358500      -0.00923300       0.01205400
O        4.46164000       5.37976000       1.77793000  T      -0.01074800       0.00441500      -0.01494200
44
Lattice="8.629602757 0.0 0.0 4.314801379 7.473454789 0.0 0.0 0.0 23.486801045" Properties=species:S:1:pos:R:3:move_mask:L:1:forces:R:3 stress="0.0058322720970264705 -0.0005081587069929114 -7.296324168157529e-05 -0.0005081587069929114 0.005354066392328673 -8.451003356445932e-06 -7.296324168157529e-05 -8.451003356445932e-06 0.0023590907212918434" free_energy=-160.39276112 energy=-160.40032302 pbc="T T T"
Ag       4.28932000       2.51158000       0.02275000  T      -0.00245500       0.00019400       0.00716900
Ag       8.62541000       0.03756000      23.46803000  T      -0.00152600       0.00037500       0.00034900
Ag       1.43980000       2.48245000      23.49099000  T      -0.00403700       0.00157700       0.00740600
Ag       2.84492000       0.04905000       0.04386000  T      -0.00194700       0.00229800       0.00120000
Ag       5.80820000       0.12127000      23.41942000  T      -0.00343300       0.00294100       0.00397800
Ag      11.42627000       5.00300000       0.21873000  T      -0.00340000       0.00082400      -0.01675200
Ag       8.56943000       4.86887000      23.41219000  T      -0.00831200       0.00124200       0.00546600
Ag       7.18497000       2.49714000      23.49442000  T      -0.00088100      -0.00132800       0.00673600
Ag       5.76691000       4.95641000       0.02785000  T      -0.00361700      -0.00299400      -0.00097200
Ag       1.44997000       0.81913000      21.14248000  T      -0.00073500       0.00119900       0.00288600
Ag       4.30366000       0.82759000      21.14038000  T      -0.00070700       0.00113600       0.00156100
Ag       2.87324000       3.34809000      21.17657000  T      -0.00027500      -0.00069900       0.00309600
Ag       5.74670000       3.33280000      21.14570000  T       0.00027100      -0.00131000       0.00304900
Ag       7.20112000       0.82387000      21.11382000  T       0.00002400      -0.00034800       0.00304500
Ag       4.29632000       5.81242000      21.18018000  T      -0.00014100       0.00055900      -0.00009400
Ag      10.07675000       5.81551000      21.18011000  T      -0.00248400       0.00069600       0.00079500
Ag       7.18196000       5.81523000      21.15419000  T      -0.00111300      -0.00015600       0.00050900
Ag       8.62824000       3.31404000      21.10762000  T      -0.00015200       0.00004500       0.00382200
Ag       2.87653000       1.66077000      18.78944000  F      -0.00380200       0.04626300       0.14874100
Ag       4.31480000       4.15192000      18.78944000  F      -0.02431000       0.01963100       0.19250600
Ag       5.75307000       1.66077000      18.78944000  F      -0.01504100       0.02490500       0.12407200
Ag       7.19134000       4.15192000      18.78944000  F      -0.03293500       0.02971300       0.06433000
Ag       8.62960000       1.66077000      18.78944000  F       0.02676500      -0.00737400       0.06751000
Ag       5.75307000       6.64307000      18.78944000  F      -0.00615700      -0.04147000       0.12566700
Ag      11.50614000       6.64307000      18.78944000  F      -0.01356800      -0.07256300       0.06942800
Ag      10.06787000       4.15192000      18.78944000  F       0.04747600       0.03661500       0.14060800
Ag       8.62961000       6.64307000      18.78944000  F       0.01474800      -0.03684300       0.13008100
Ag       0.00000000       0.00000000      16.44076000  F       0.00030700      -0.00284200      -0.12608700
Ag       2.87653000       0.00000000      16.44076000  F      -0.00637400      -0.00216000      -0.13036900
Ag       1.43827000       2.49115000      16.44076000  F       0.00038400      -0.01490700      -0.11028600
Ag       4.31480000       2.49115000      16.44076000  F      -0.00700400      -0.00057800      -0.10689800
Ag       5.75307000       0.00000000      16.44076000  F       0.00574200      -0.01381200      -0.12206600
Ag       2.87654000       4.98231000      16.44076000  F       0.00550800       0.01705300      -0.12525400
Ag       8.62961000       4.98231000      16.44076000  F      -0.00770500       0.01036200      -0.12348900
Ag       7.19134000       2.49115000      16.44076000  F       0.00643300      -0.00039300      -0.12354800
Ag       5.75307000       4.98231000      16.44076000  F       0.00357400       0.00920600      -0.13003800
C        9.08165000       6.38616000       2.02202000  T       0.02236700      -0.00272100      -0.00289100
O        7.77856000       6.51102000       1.90903000  T       0.01792800      -0.02617300      -0.01753900
O        9.85362000       7.41110000       2.14273000  T      -0.00101600      -0.00391300       0.00873400
O        9.59365000       5.16933000       1.92356000  T       0.03248300      -0.00126000      -0.00447200
C        4.61933000       6.44543000       2.61365000  T       0.00122700      -0.02516400       0.11626200
O        4.73193000       6.21496000       3.82195000  T      -0.03751000       0.02034300      -0.10785900
O        0.33350000       0.17554000       2.10713000  T       0.01301100       0.01395000       0.00571500
O        4.46077000       5.38093000       1.77726000  T      -0.00760500       0.01788100       0.00389400
44
Lattice="8.629602757 0.0 0.0 4.314801379 7.473454789 0.0 0.0 0.0 23.486801045" Properties=species:S:1:pos:R:3:move_mask:L:1:forces:R:3 stress="0.005862081544611689 -0.0005080213937921419 -8.535263729645356e-05 -0.0005080213937921419 0.005383289138056059 1.8724527377649775e-06 -8.535263729645356e-05 1.8724527377649775e-06 0.0022972311243452145" free_energy=-160.3932658 energy=-160.40082607 pbc="T T T"
Ag       4.28919000       2.51160000       0.02311000  T      -0.00248100       0.00036000       0.00703900
Ag       8.62535000       0.03753000      23.46827000  T      -0.00078200      -0.00087300       0.00590300
Ag       1.43959000       2.48252000      23.49137000  T      -0.00380400       0.00130400       0.00716700
Ag       2.84480000       0.04917000       0.04396000  T      -0.00225400       0.00208800       0.00188300
Ag       5.80803000       0.12142000      23.41961000  T      -0.00339800       0.00284700       0.00373400
Ag      11.42615000       5.00306000       0.21793000  T      -0.00168600       0.00129200      -0.01504200
Ag       8.56901000       4.86894000      23.41249000  T      -0.00795700       0.00114700       0.00556800
Ag       7.18493000       2.49707000      23.49477000  T      -0.00103900      -0.00136800       0.00668100
Ag       5.76668000       4.95628000       0.02788000  T      -0.00472300      -0.00217700       0.00128500
Ag       1.44994000       0.81920000      21.14263000  T      -0.00073200       0.00115600       0.00283400
Ag       4.30362000       0.82765000      21.14047000  T      -0.00080400       0.00102000       0.00160900
Ag       2.87322000       3.34805000      21.17672000  T      -0.00040300      -0.00068400       0.00287500
Ag       5.74671000       3.33274000      21.14586000  T       0.00019500      -0.00118200       0.00279700
Ag       7.20112000       0.82386000      21.11398000  T      -0.00005100      -0.00032300       0.00294900
Ag       4.29631000       5.81245000      21.18017000  T      -0.00024900       0.00055700      -0.00002000
Ag      10.07662000       5.81554000      21.18016000  T      -0.00252600       0.00070600       0.00087300
Ag       7.18190000       5.81522000      21.15422000  T      -0.00110600      -0.00019400       0.00066800
Ag       8.62823000       3.31404000      21.10782000  T      -0.00025600       0.00007100       0.00373600
Ag       2.87653000       1.66077000      18.78944000  F      -0.00385100       0.04629900       0.14904000
Ag       4.31480000       4.15192000      18.78944000  F      -0.02428000       0.01949500       0.19288400
Ag       5.75307000       1.66077000      18.78944000  F      -0.01495100       0.02487700       0.12450500
Ag       7.19134000       4.15192000      18.78944000  F      -0.03284600       0.02955800       0.06477000
Ag       8.62960000       1.66077000      18.78944000  F       0.02671100      -0.00725400       0.06810700
Ag       5.75307000       6.64307000      18.78944000  F      -0.00616400      -0.04134100       0.12596600
Ag      11.50614000       6.64307000      18.78944000  F      -0.01363500      -0.07244600       0.06967100
Ag      10.06787000       4.15192000      18.78944000  F       0.04738500       0.03651600       0.14106400
Ag       8.62961000       6.64307000      18.78944000  F       0.01474800      -0.03677900       0.13035000
Ag       0.00000000       0.00000000      16.44076000  F       0.00032500      -0.00285200      -0.12623100
Ag       2.87653000       0.00000000      16.44076000  F      -0.00635800      -0.00214300      -0.13050400
Ag       1.43827000       2.49115000      16.44076000  F       0.00041500      -0.01492200      -0.11043600
Ag       4.31480000       2.49115000      16.44076000  F      -0.00702600      -0.00058600      -0.10707400
Ag       5.75307000       0.00000000      16.44076000  F       0.00575100      -0.01382600      -0.12220000
Ag       2.87654000       4.98231000      16.44076000  F       0.00552200       0.01705300      -0.12542900
Ag       8.62961000       4.98231000      16.44076000  F      -0.00770200       0.01035500      -0.12363700
Ag       7.19134000       2.49115000      16.44076000  F       0.00646400      -0.00037600      -0.12370100
Ag       5.75307000       4.98231000      16.44076000  F       0.00358600       0.00920100      -0.13020300
C        9.08266000       6.38577000       2.02184000  T       0.02104300      -0.00516000      -0.00288100
O        7.77939000       6.50968000       1.90811000  T       0.01881300      -0.02621500      -0.01730900
O        9.85376000       7.41116000       2.14326000  T      -0.00028200      -0.00283100       0.00931300
O        9.59537000       5.16919000       1.92332000  T       0.03209000      -0.00047900      -0.00436100
C        4.61899000       6.44552000       2.61471000  T      -0.00855400       0.00925500      -0.00443200
O        4.73042000       6.21515000       3.82113000  T      -0.02702800      -0.00013400       0.00773400
O        0.33416000       0.17607000       2.10746000  T       0.01226200       0.00684300       0.00654800
O        4.46033000       5.38155000       1.77712000  T      -0.00838100       0.01214600      -0.00409300
44
Lattice="8.629602757 0.0 0.0 4.314801379 7.473454789 0.0 0.0 0.0 23.486801045" Properties=species:S:1:pos:R:3:move_mask:L:1:forces:R:3 stress="0.005956783962578716 -0.0005147247745933405 -8.86918446788011e-05 -0.0005147247745933405 0.0054633677001411415 -1.0510701367987408e-05 -8.86918446788011e-05 -1.0510701367987408e-05 0.002313040866961077" free_energy=-160.39434647 energy=-160.40185031 pbc="T T T"
Ag       4.28891000       2.51164000       0.02385000  T      -0.00267800       0.00000500       0.00572200
Ag       8.62527000       0.03745000      23.46894000  T      -0.00142700       0.00101500      -0.00070100
Ag       1.43917000       2.48267000      23.49213000  T      -0.00350200       0.00168900       0.00587100
Ag       2.84455000       0.04940000       0.04418000  T      -0.00117900       0.00189200       0.00206600
Ag       5.80766000       0.12175000      23.41999000  T      -0.00298200       0.00258100       0.00301400
Ag      11.42598000       5.00320000       0.21625000  T      -0.00300000       0.00090700      -0.01533900
Ag       8.56814000       4.86906000      23.41311000  T      -0.00704300       0.00147700       0.00712200
Ag       7.18480000       2.49692000      23.49547000  T      -0.00134900      -0.00099800       0.00560600
Ag       5.76613000       4.95604000       0.02802000  T      -0.00300600      -0.00239400      -0.00115000
Ag       1.44985000       0.81933000      21.14295000  T      -0.00075800       0.00107700       0.00279100
Ag       4.30353000       0.82777000      21.14065000  T      -0.00082100       0.00096100       0.00133100
Ag       2.87317000       3.34798000      21.17702000  T      -0.00053200      -0.00055500       0.00199000
Ag       5.74673000       3.33261000      21.14617000  T      -0.00016000      -0.00084500       0.00247800
Ag       7.20111000       0.82383000      21.11431000  T      -0.00026200      -0.00014700       0.00279400
Ag       4.29628000       5.81252000      21.18018000  T      -0.00044500       0.00064200       0.00019000
Ag      10.07634000       5.81562000      21.18025000  T      -0.00250000       0.00065200       0.00067500
Ag       7.18177000       5.81520000      21.15430000  T      -0.00110900      -0.00017600       0.00074800
Ag       8.62819000       3.31406000      21.10824000  T      -0.00055600       0.00041800       0.00351700
Ag       2.87653000       1.66077000      18.78944000  F      -0.00397000       0.04639600       0.14941300
Ag       4.31480000       4.15192000      18.78944000  F      -0.02422900       0.01932300       0.19327100
Ag       5.75307000       1.66077000      18.78944000  F      -0.01482300       0.02490400       0.12515200
Ag       7.19134000       4.15192000      18.78944000  F      -0.03272200       0.02936800       0.06548800
Ag       8.62960000       1.66077000      18.78944000  F       0.02661300      -0.00703000       0.06906900
Ag       5.75307000       6.64307000      18.78944000  F      -0.00615200      -0.04104100       0.12631200
Ag      11.50614000       6.64307000      18.78944000  F      -0.01378200      -0.07213700       0.06985000
Ag      10.06787000       4.15192000      18.78944000  F       0.04715900       0.03634200       0.14179100
Ag       8.62961000       6.64307000      18.78944000  F       0.01467600      -0.03660800       0.13060200
Ag       0.00000000       0.00000000      16.44076000  F       0.00033600      -0.00272400      -0.12682600
Ag       2.87653000       0.00000000      16.44076000  F      -0.00634700      -0.00199000      -0.13098000
Ag       1.43827000       2.49115000      16.44076000  F       0.00048600      -0.01489600      -0.11100500
Ag       4.31480000       2.49115000      16.44076000  F      -0.00706900      -0.00057300      -0.10763800
Ag       5.75307000       0.00000000      16.44076000  F       0.00574800      -0.01375800      -0.12264900
Ag       2.87654000       4.98231000      16.44076000  F       0.00548000       0.01703900      -0.12601200
Ag       8.62961000       4.98231000      16.44076000  F      -0.00771100       0.01034700      -0.12410000
Ag       7.19134000       2.49115000      16.44076000  F       0.00647000      -0.00030700      -0.12433300
Ag       5.75307000       4.98231000      16.44076000  F       0.00367500       0.00917900      -0.13080000
C        9.08496000       6.38496000       2.02150000  T       0.01258300      -0.01644500      -0.00537100
O        7.78128000       6.50674000       1.90609000  T       0.01311300      -0.02530900      -0.01785200
O        9.85399000       7.41115000       2.14436000  T       0.01067800       0.01049700       0.01196600
O        9.59908000       5.16889000       1.92276000  T       0.03361800      -0.00413700      -0.00528100
C        4.61796000       6.44667000       2.61367000  T       0.00185600      -0.03074700       0.12428400
O        4.72739000       6.21504000       3.82256000  T      -0.03704000       0.02144800      -0.11489500
O        0.33553000       0.17692000       2.10811000  T       0.01130100       0.01721800       0.00502000
O        4.45939000       5.38282000       1.77654000  T      -0.00664000       0.01744000       0.00680000
44
Lattice="8.629602757 0.0 0.0 4.314801379 7.473454789 0.0 0.0 0.0 23.486801045" Properties=species:S:1:pos:R:3:move_mask:L:1:forces:R:3 stress="0.00585081562063947 -0.0005112357709919718 -8.181370162207775e-05 -0.0005112357709919718 0.0053675605350588336 -2.246943285317973e-06 -8.181370162207775e-05 -2.246943285317973e-06 0.0024174113825640967" free_energy=-160.39372338 energy=-160.40126369 pbc="T T T"
Ag       4.28870000       2.51167000       0.02431000  T      -0.00240200       0.00046000       0.00503500
Ag       8.62521000       0.03744000      23.46931000  T      -0.00129100       0.00154000      -0.00060300
Ag       1.43890000       2.48278000      23.49260000  T      -0.00316600       0.00157600       0.00508100
Ag       2.84441000       0.04954000       0.04436000  T      -0.00133400       0.00205300       0.00152300
Ag       5.80741000       0.12195000      23.42023000  T      -0.00297900       0.00264400       0.00213300
Ag      11.42589000       5.00329000       0.21514000  T      -0.00214200       0.00038800      -0.01537600
Ag       8.56757000       4.86913000      23.41354000  T      -0.00709900       0.00067000       0.00416800
Ag       7.18468000       2.49683000      23.49591000  T      -0.00166500      -0.00075300       0.00489100
Ag       5.76579000       4.95590000       0.02810000  T      -0.00272700      -0.00224400      -0.00132900
Ag       1.44978000       0.81940000      21.14315000  T      -0.00087900       0.00087200       0.00191700
Ag       4.30346000       0.82784000      21.14075000  T      -0.00089200       0.00089000       0.00062900
Ag       2.87312000       3.34793000      21.17716000  T      -0.00065400      -0.00043000       0.00106000
Ag       5.74672000       3.33254000      21.14635000  T      -0.00031100      -0.00068100       0.00159000
Ag       7.20110000       0.82382000      21.11451000  T      -0.00017800      -0.00007000       0.00193600
Ag       4.29624000       5.81257000      21.18018000  T      -0.00051100       0.00080900      -0.00040900
Ag      10.07614000       5.81567000      21.18030000  T      -0.00249400       0.00063100       0.00026800
Ag       7.18168000       5.81519000      21.15435000  T      -0.00124400       0.00004300       0.00030000
Ag       8.62815000       3.31409000      21.10850000  T      -0.00054400       0.00045300       0.00257600
Ag       2.87653000       1.66077000      18.78944000  F      -0.00415400       0.04649900       0.14955400
Ag       4.31480000       4.15192000      18.78944000  F      -0.02417500       0.01922600       0.19338500
Ag       5.75307000       1.66077000      18.78944000  F      -0.01461300       0.02498000       0.12543000
Ag       7.19134000       4.15192000      18.78944000  F      -0.03255300       0.02908700       0.06569300
Ag       8.62960000       1.66077000      18.78944000  F       0.02657100      -0.00680500       0.06966600
Ag       5.75307000       6.64307000      18.78944000  F      -0.00626400      -0.04084100       0.12627700
Ag      11.50614000       6.64307000      18.78944000  F      -0.01385100      -0.07195100       0.06984700
Ag      10.06787000       4.15192000      18.78944000  F       0.04698500       0.03622900       0.14187400
Ag       8.62961000       6.64307000      18.78944000  F       0.01467100      -0.03658600       0.13051800
Ag       0.00000000       0.00000000      16.44076000  F       0.00035200      -0.00285900      -0.12593900
Ag       2.87653000       0.00000000      16.44076000  F      -0.00630200      -0.00206000      -0.13010500
Ag       1.43827000       2.49115000      16.44076000  F       0.00051900      -0.01486500      -0.11006500
Ag       4.31480000       2.49115000      16.44076000  F      -0.00706800      -0.00049400      -0.10668800
Ag       5.75307000       0.00000000      16.44076000  F       0.00579900      -0.01383000      -0.12187200
Ag       2.87654000       4.98231000      16.44076000  F       0.00556800       0.01713900      -0.12514100
Ag       8.62961000       4.98231000      16.44076000  F      -0.00767100       0.01043700      -0.12330400
Ag       7.19134000       2.49115000      16.44076000  F       0.00651800      -0.00023000      -0.12332400
Ag       5.75307000       4.98231000      16.44076000  F       0.00357400       0.00927400      -0.12987700
C        9.08640000       6.38426000       2.02127000  T       0.01812300      -0.01010200      -0.00184900
O        7.78260000       6.50471000       1.90473000  T       0.02101100      -0.02592900      -0.01595300
O        9.85426000       7.41126000       2.14513000  T       0.00031500      -0.00257300       0.00925500
O        9.60162000       5.16875000       1.92240000  T       0.02889200       0.00227700      -0.00393700
C        4.61735000       6.44701000       2.61407000  T       0.00122400      -0.02026800       0.11072400
O        4.72525000       6.21518000       3.82263000  T      -0.03619200       0.02055300      -0.10051300
O        0.33641000       0.17760000       2.10845000  T       0.01088000       0.00730300       0.00678100
O        4.45882000       5.38381000       1.77616000  T      -0.00564500       0.01754300       0.00417500
44
Lattice="8.629602757 0.0 0.0 4.314801379 7.473454789 0.0 0.0 0.0 23.486801045" Properties=species:S:1:pos:R:3:move_mask:L:1:forces:R:3 stress="0.0058594413862514405 -0.000509837672947774 -9.213091620716276e-05 -0.000509837672947774 0.005374394987551675 3.3267243640957763e-06 -9.213091620716276e-05 3.3267243640957763e-06 0.0023422324051428326" free_energy=-160.39426742 energy=-160.40181323 pbc="T T T"
Ag       4.28857000       2.51169000       0.02457000  T      -0.00243700       0.00045000       0.00473900
Ag       8.62517000       0.03746000      23.46951000  T      -0.00067200       0.00011200       0.00420500
Ag       1.43872000       2.48285000      23.49287000  T      -0.00330000       0.00126300       0.00471100
Ag       2.84432000       0.04964000       0.04448000  T      -0.00148000       0.00180300       0.00233700
Ag       5.80725000       0.12209000      23.42037000  T      -0.00296500       0.00229900       0.00286600
Ag      11.42583000       5.00334000       0.21438000  T      -0.00070300       0.00093000      -0.01328100
Ag       8.56720000       4.86918000      23.41379000  T      -0.00670600       0.00082800       0.00505900
Ag       7.18459000       2.49678000      23.49617000  T      -0.00160700      -0.00083100       0.00467400
Ag       5.76558000       4.95581000       0.02812000  T      -0.00391500      -0.00149400       0.00063600
Ag       1.44974000       0.81945000      21.14326000  T      -0.00083200       0.00089100       0.00231700
Ag       4.30341000       0.82788000      21.14080000  T      -0.00092900       0.00083500       0.00123500
Ag       2.87308000       3.34790000      21.17723000  T      -0.00072300      -0.00048100       0.00147100
Ag       5.74670000       3.33251000      21.14644000  T      -0.00032200      -0.00065000       0.00203600
Ag       7.20109000       0.82381000      21.11462000  T      -0.00027100      -0.00004300       0.00229200
Ag       4.29621000       5.81261000      21.18017000  T      -0.00061200       0.00070200       0.00012700
Ag      10.07600000       5.81570000      21.18033000  T      -0.00247800       0.00066100       0.00072800
Ag       7.18161000       5.81519000      21.15438000  T      -0.00121500      -0.00005700       0.00076400
Ag       8.62812000       3.31411000      21.10865000  T      -0.00067300       0.00047800       0.00309100
Ag       2.87653000       1.66077000      18.78944000  F      -0.00420900       0.04647000       0.15027000
Ag       4.31480000       4.15192000      18.78944000  F      -0.02415700       0.01911700       0.19417000
Ag       5.75307000       1.66077000      18.78944000  F      -0.01457700       0.02492200       0.12628800
Ag       7.19134000       4.15192000      18.78944000  F      -0.03254300       0.02897700       0.06657300
Ag       8.62960000       1.66077000      18.78944000  F       0.02649300      -0.00673600       0.07065100
Ag       5.75307000       6.64307000      18.78944000  F      -0.00629300      -0.04076700       0.12708900
Ag      11.50614000       6.64307000      18.78944000  F      -0.01391100      -0.07186100       0.07057700
Ag      10.06787000       4.15192000      18.78944000  F       0.04687300       0.03614400       0.14273100
Ag       8.62961000       6.64307000      18.78944000  F       0.01461400      -0.03656000       0.13126200
Ag       0.00000000       0.00000000      16.44076000  F       0.00035700      -0.00286100      -0.12620100
Ag       2.87653000       0.00000000      16.44076000  F      -0.00630900      -0.00203800      -0.13036700
Ag       1.43827000       2.49115000      16.44076000  F       0.00053500      -0.01490900      -0.11034900
Ag       4.31480000       2.49115000      16.44076000  F      -0.00710700      -0.00053000      -0.10701400
Ag       5.75307000       0.00000000      16.44076000  F       0.00578400      -0.01385000      -0.12210800
Ag       2.87654000       4.98231000      16.44076000  F       0.00554900       0.01709500      -0.12544100
Ag       8.62961000       4.98231000      16.44076000  F      -0.00768900       0.01040000      -0.12356800
Ag       7.19134000       2.49115000      16.44076000  F       0.00652700      -0.00024000      -0.12360600
Ag       5.75307000       4.98231000      16.44076000  F       0.00359000       0.00922000      -0.13016500
C        9.08739000       6.38376000       2.02112000  T       0.01797500      -0.00714800      -0.00327600
O        7.78349000       6.50335000       1.90385000  T       0.01633400      -0.02490800      -0.01623100
O        9.85441000       7.41129000       2.14562000  T       0.00221700      -0.00034400       0.00896800
O        9.60328000       5.16867000       1.92217000  T       0.03114000      -0.00364700      -0.00441800
C        4.61702000       6.44718000       2.61509000  T      -0.00731500       0.00397700       0.00573100
O        4.72376000       6.21544000       3.82184000  T      -0.02627000       0.00202400      -0.00181700
O        0.33698000       0.17790000       2.10875000  T       0.01052800       0.00979700       0.00435100
O        4.45848000       5.38449000       1.77601000  T      -0.00629600       0.01055900      -0.00410400
44
Lattice="8.629602757 0.0 0.0 4.314801379 7.473454789 0.0 0.0 0.0 23.486801045" Properties=species:S:1:pos:R:3:move_mask:L:1:forces:R:3 stress="0.005861345046534835 -0.000510530480460747 -0.00010719167772791908 -0.000510530480460747 0.005382371636214554 1.3824942713831416e-05 -0.00010719167772791908 1.3824942713831416e-05 0.002251774213381407" free_energy=-160.3948196 energy=-160.40236347 pbc="T T T"
Ag       4.28827000       2.51175000       0.02514000  T      -0.00217000       0.00057600       0.00380100
Ag       8.62508000       0.03751000      23.47000000  T       0.00039100      -0.00147200       0.01202300
Ag       1.43831000       2.48302000      23.49345000  T      -0.00298300       0.00061600       0.00414300
Ag       2.84414000       0.04988000       0.04479000  T      -0.00207800       0.00152200       0.00333100
Ag       5.80686000       0.12239000      23.42072000  T      -0.00273300       0.00195500       0.00270900
Ag      11.42576000       5.00344000       0.21262000  T       0.00108500       0.00107800      -0.01054900
Ag       8.56631000       4.86926000      23.41442000  T      -0.00614900       0.00079000       0.00535800
Ag       7.18436000       2.49667000      23.49675000  T      -0.00168000      -0.00097300       0.00415200
Ag       5.76508000       4.95562000       0.02818000  T      -0.00507400      -0.00053800       0.00310800
Ag       1.44962000       0.81956000      21.14354000  T      -0.00080800       0.00082900       0.00218000
Ag       4.30328000       0.82798000      21.14093000  T      -0.00102000       0.00070400       0.00161100
Ag       2.87297000       3.34784000      21.17738000  T      -0.00085400      -0.00041400       0.00133500
Ag       5.74665000       3.33242000      21.14668000  T      -0.00038000      -0.00046100       0.00204000
Ag       7.20105000       0.82381000      21.11489000  T      -0.00043600      -0.00003000       0.00224000
Ag       4.29612000       5.81271000      21.18016000  T      -0.00079400       0.00069200       0.00036400
Ag      10.07567000       5.81579000      21.18041000  T      -0.00245200       0.00053400       0.00098300
Ag       7.18145000       5.81519000      21.15446000  T      -0.00122900      -0.00008300       0.00107900
Ag       8.62802000       3.31418000      21.10902000  T      -0.00087400       0.00055200       0.00301100
Ag       2.87653000       1.66077000      18.78944000  F      -0.00438100       0.04646200       0.15101900
Ag       4.31480000       4.15192000      18.78944000  F      -0.02411100       0.01894500       0.19494900
Ag       5.75307000       1.66077000      18.78944000  F      -0.01444500       0.02487900       0.12735100
Ag       7.19134000       4.15192000      18.78944000  F      -0.03243200       0.02871000       0.06759700
Ag       8.62960000       1.66077000      18.78944000  F       0.02635200      -0.00646000       0.07210300
Ag       5.75307000       6.64307000      18.78944000  F      -0.00636500      -0.04053500       0.12791900
Ag      11.50614000       6.64307000      18.78944000  F      -0.01409300      -0.07159500       0.07127300
Ag      10.06787000       4.15192000      18.78944000  F       0.04656200       0.03598400       0.14365900
Ag       8.62961000       6.64307000      18.78944000  F       0.01452500      -0.03645900       0.13199700
Ag       0.00000000       0.00000000      16.44076000  F       0.00037200      -0.00289000      -0.12624800
Ag       2.87653000       0.00000000      16.44076000  F      -0.00631400      -0.00200800      -0.13038200
Ag       1.43827000       2.49115000      16.44076000  F       0.00057000      -0.01494900      -0.11039200
Ag       4.31480000       2.49115000      16.44076000  F      -0.00716400      -0.00053200      -0.10711200
Ag       5.75307000       0.00000000      16.44076000  F       0.00580700      -0.01388700      -0.12214000
Ag       2.87654000       4.98231000      16.44076000  F       0.00556400       0.01709500      -0.12554100
Ag       8.62961000       4.98231000      16.44076000  F      -0.00769700       0.01039000      -0.12363900
Ag       7.19134000       2.49115000      16.44076000  F       0.00657200      -0.00020600      -0.12363900
Ag       5.75307000       4.98231000      16.44076000  F       0.00357800       0.00921300      -0.13022500
C        9.08983000       6.38268000       2.02077000  T       0.01659300      -0.01090900      -0.00463400
O        7.78560000       6.50006000       1.90168000  T       0.01455400      -0.02390100      -0.01548300
O        9.85475000       7.41126000       2.14681000  T       0.00400900       0.00141700       0.00896100
O        9.60735000       5.16825000       1.92157000  T       0.02956000      -0.00310300      -0.00438200
C        4.61611000       6.44750000       2.61670000  T      -0.01896900       0.06073600      -0.16385600
O        4.72019000       6.21592000       3.82081000  T      -0.01086600      -0.02597100       0.15544500
O        0.33837000       0.17906000       2.10926000  T       0.00945300      -0.00584400       0.00827700
O        4.45770000       5.38608000       1.77549000  T      -0.00699700      -0.00045800      -0.01579700
44
Lattice="8.629602757 0.0 0.0 4.314801379 7.473454789 0.0 0.0 0.0 23.486801045" Properties=species:S:1:pos:R:3:move_mask:L:1:forces:R:3 stress="0.005873303778020027 -0.0005076156956989595 -9.23056784626875e-05 -0.0005076156956989595 0.0053930446168198145 -2.3530489404579884e-06 -9.23056784626875e-05 -2.3530489404579884e-06 0.0023939495497599015" free_energy=-160.39497232 energy=-160.40248109 pbc="T T T"
Ag       4.28808000       2.51178000       0.02542000  T      -0.00211600       0.00006500       0.00316700
Ag       8.62504000       0.03753000      23.47041000  T      -0.00103000       0.00168500      -0.00060400
Ag       1.43806000       2.48310000      23.49374000  T      -0.00275200       0.00136200       0.00323700
Ag       2.84403000       0.05000000       0.04500000  T      -0.00079100       0.00182100       0.00167900
Ag       5.80663000       0.12256000      23.42091000  T      -0.00301800       0.00160000       0.00367000
Ag      11.42575000       5.00349000       0.21157000  T      -0.00124000       0.00036900      -0.01310800
Ag       8.56578000       4.86930000      23.41481000  T      -0.00603900       0.00034600       0.00452100
Ag       7.18420000       2.49661000      23.49705000  T      -0.00198600      -0.00056000       0.00349900
Ag       5.76475000       4.95552000       0.02823000  T      -0.00241100      -0.00143500      -0.00142700
Ag       1.44955000       0.81962000      21.14369000  T      -0.00083900       0.00065600       0.00167700
Ag       4.30319000       0.82804000      21.14102000  T      -0.00099200       0.00055800       0.00073700
Ag       2.87290000       3.34781000      21.17744000  T      -0.00080300      -0.00019000       0.00048900
Ag       5.74660000       3.33238000      21.14681000  T      -0.00065900      -0.00035100       0.00122900
Ag       7.20101000       0.82380000      21.11506000  T      -0.00052400      -0.00007400       0.00168200
Ag       4.29605000       5.81278000      21.18016000  T      -0.00087100       0.00078600      -0.00006900
Ag      10.07545000       5.81583000      21.18046000  T      -0.00245600       0.00059000       0.00046200
Ag       7.18134000       5.81519000      21.15452000  T      -0.00115900       0.00012700       0.00065800
Ag       8.62794000       3.31422000      21.10924000  T      -0.00095900       0.00061200       0.00227400
Ag       2.87653000       1.66077000      18.78944000  F      -0.00456100       0.04648900       0.15068000
Ag       4.31480000       4.15192000      18.78944000  F      -0.02411000       0.01893600       0.19449100
Ag       5.75307000       1.66077000      18.78944000  F      -0.01437100       0.02492800       0.12719900
Ag       7.19134000       4.15192000      18.78944000  F      -0.03239300       0.02860300       0.06744400
Ag       8.62960000       1.66077000      18.78944000  F       0.02625300      -0.00636200       0.07216700
Ag       5.75307000       6.64307000      18.78944000  F      -0.00644000      -0.04039200       0.12752700
Ag      11.50614000       6.64307000      18.78944000  F      -0.01421500      -0.07146800       0.07081100
Ag      10.06787000       4.15192000      18.78944000  F       0.04632000       0.03592800       0.14346000
Ag       8.62961000       6.64307000      18.78944000  F       0.01441600      -0.03646100       0.13158000
Ag       0.00000000       0.00000000      16.44076000  F       0.00033200      -0.00289700      -0.12616500
Ag       2.87653000       0.00000000      16.44076000  F      -0.00631400      -0.00198400      -0.13021500
Ag       1.43827000       2.49115000      16.44076000  F       0.00058900      -0.01492600      -0.11026500
Ag       4.31480000       2.49115000      16.44076000  F      -0.00720400      -0.00052500      -0.10693100
Ag       5.75307000       0.00000000      16.44076000  F       0.00578100      -0.01390600      -0.12199800
Ag       2.87654000       4.98231000      16.44076000  F       0.00552000       0.01711400      -0.12543100
Ag       8.62961000       4.98231000      16.44076000  F      -0.00771200       0.01040400      -0.12348000
Ag       7.19134000       2.49115000      16.44076000  F       0.00653300      -0.00017100      -0.12351900
Ag       5.75307000       4.98231000      16.44076000  F       0.00356100       0.00921000      -0.13012300
C        9.09126000       6.38181000       2.02047000  T       0.02386400       0.00251700      -0.00222400
O        7.78674000       6.49802000       1.90033000  T       0.02168000      -0.02501000      -0.01387700
O        9.85518000       7.41149000       2.14755000  T      -0.00752100      -0.01396400       0.00523600
O        9.60995000       5.16789000       1.92119000  T       0.02729200       0.00053800      -0.00365800
C        4.61534000       6.44871000       2.61458000  T       0.00033900      -0.01661600       0.09537000
O        4.71829000       6.21573000       3.82302000  T      -0.03189700       0.01890100      -0.08934800
O        0.33918000       0.17957000       2.10964000  T       0.00930200       0.00889400       0.00486300
O        4.45723000       5.38686000       1.77498000  T      -0.00440000       0.01425400       0.00263100
44
Lattice="8.629602757 0.0 0.0 4.314801379 7.473454789 0.0 0.0 0.0 23.486801045" Properties=species:S:1:pos:R:3:move_mask:L:1:forces:R:3 stress="0.0058388381646269005 -0.0005111608728824612 -9.55138141533915e-05 -0.0005111608728824612 0.005359190671321024 4.019531877068819e-06 -9.55138141533915e-05 4.019531877068819e-06 0.0024110700092921994" free_energy=-160.39504481 energy=-160.40257567 pbc="T T T"
Ag       4.28796000       2.51180000       0.02559000  T      -0.00201300       0.00029800       0.00264900
Ag       8.62501000       0.03757000      23.47058000  T      -0.00063700       0.00112700       0.00187100
Ag       1.43791000       2.48317000      23.49392000  T      -0.00267300       0.00122100       0.00273300
Ag       2.84396000       0.05009000       0.04513000  T      -0.00097400       0.00151900       0.00226100
Ag       5.80648000       0.12266000      23.42106000  T      -0.00257000       0.00197700       0.00209500
Ag      11.42573000       5.00353000       0.21090000  T      -0.00022200       0.00054900      -0.01238700
Ag       8.56545000       4.86932000      23.41507000  T      -0.00591600       0.00006000       0.00401600
Ag       7.18409000       2.49657000      23.49724000  T      -0.00198000      -0.00067300       0.00287200
Ag       5.76456000       4.95547000       0.02823000  T      -0.00317100      -0.00102600      -0.00047600
Ag       1.44950000       0.81966000      21.14379000  T      -0.00082700       0.00068600       0.00123200
Ag       4.30314000       0.82807000      21.14107000  T      -0.00101000       0.00054600       0.00048600
Ag       2.87285000       3.34780000      21.17747000  T      -0.00088800      -0.00022500       0.00007500
Ag       5.74657000       3.33237000      21.14688000  T      -0.00064400      -0.00033100       0.00083600
Ag       7.20099000       0.82380000      21.11516000  T      -0.00052800      -0.00001500       0.00134700
Ag       4.29600000       5.81282000      21.18016000  T      -0.00086400       0.00081800      -0.00034300
Ag      10.07532000       5.81586000      21.18049000  T      -0.00244800       0.00054500       0.00018700
Ag       7.18127000       5.81519000      21.15456000  T      -0.00118300       0.00008500       0.00037100
Ag       8.62789000       3.31425000      21.10937000  T      -0.00095000       0.00056600       0.00198000
Ag       2.87653000       1.66077000      18.78944000  F      -0.00463500       0.04646600       0.15127600
Ag       4.31480000       4.15192000      18.78944000  F      -0.02406700       0.01886300       0.19508400
Ag       5.75307000       1.66077000      18.78944000  F      -0.01429900       0.02489300       0.12793100
Ag       7.19134000       4.15192000      18.78944000  F      -0.03231900       0.02847100       0.06815800
Ag       8.62960000       1.66077000      18.78944000  F       0.02621400      -0.00627600       0.07307600
Ag       5.75307000       6.64307000      18.78944000  F      -0.00648700      -0.04030000       0.12818800
Ag      11.50614000       6.64307000      18.78944000  F      -0.01425500      -0.07134700       0.07144100
Ag      10.06787000       4.15192000      18.78944000  F       0.04618100       0.03583900       0.14408500
Ag       8.62961000       6.64307000      18.78944000  F       0.01438100      -0.03643600       0.13218400
Ag       0.00000000       0.00000000      16.44076000  F       0.00036000      -0.00294600      -0.12576500
Ag       2.87653000       0.00000000      16.44076000  F      -0.00627500      -0.00199100      -0.12980600
Ag       1.43827000       2.49115000      16.44076000  F       0.00064400      -0.01493300      -0.10987200
Ag       4.31480000       2.49115000      16.44076000  F      -0.00721500      -0.00052800      -0.10655100
Ag       5.75307000       0.00000000      16.44076000  F       0.00578800      -0.01392200      -0.12160800
Ag       2.87654000       4.98231000      16.44076000  F       0.00555100       0.01707900      -0.12504400
Ag       8.62961000       4.98231000      16.44076000  F      -0.00769100       0.01038400      -0.12309900
Ag       7.19134000       2.49115000      16.44076000  F       0.00654800      -0.00015000      -0.12310700
Ag       5.75307000       4.98231000      16.44076000  F       0.00354400       0.00918000      -0.12971500
C        9.09229000       6.38145000       2.02032000  T       0.01757200      -0.00642900      -0.00191600
O        7.78776000       6.49667000       1.89954000  T       0.01603800      -0.02396700      -0.01478900
O        9.85515000       7.41124000       2.14795000  T       0.00141800      -0.00205700       0.00770200
O        9.61151000       5.16788000       1.92097000  T       0.02934400      -0.00400100      -0.00431300
C        4.61502000       6.44897000       2.61517000  T      -0.00374200      -0.00352700       0.03991600
O        4.71694000       6.21594000       3.82265000  T      -0.02758000       0.00990100      -0.03690000
O        0.33968000       0.17995000       2.10989000  T       0.00896800       0.00726500       0.00343000
O        4.45696000       5.38743000       1.77481000  T      -0.00448900       0.01274100      -0.00178900
44
Lattice="8.629602757 0.0 0.0 4.314801379 7.473454789 0.0 0.0 0.0 23.486801045" Properties=species:S:1:pos:R:3:move_mask:L:1:forces:R:3 stress="0.005825206708695971 -0.0005116352275760283 -9.882181399010962e-05 -0.0005116352275760283 0.005348667486934784 7.901750553368204e-06 -9.882181399010962e-05 7.901750553368204e-06 0.0024020635116235494" free_energy=-160.39524107 energy=-160.40277915 pbc="T T T"
Ag       4.28785000       2.51182000       0.02573000  T      -0.00199000       0.00036200       0.00221400
Ag       8.62498000       0.03761000      23.47074000  T      -0.00041100       0.00064200       0.00347500
Ag       1.43777000       2.48323000      23.49406000  T      -0.00250500       0.00112200       0.00228400
Ag       2.84390000       0.05017000       0.04526000  T      -0.00107500       0.00141900       0.00232500
Ag       5.80634000       0.12276000      23.42117000  T      -0.00260300       0.00187900       0.00184700
Ag      11.42574000       5.00357000       0.21025000  T       0.00027300       0.00068600      -0.01143300
Ag       8.56513000       4.86933000      23.41530000  T      -0.00569200       0.00016900       0.00392200
Ag       7.18398000       2.49653000      23.49739000  T      -0.00201600      -0.00064600       0.00251600
Ag       5.76438000       4.95543000       0.02823000  T      -0.00349200      -0.00077700       0.00002500
Ag       1.44945000       0.81970000      21.14386000  T      -0.00083200       0.00068400       0.00142400
Ag       4.30308000       0.82810000      21.14111000  T      -0.00105000       0.00051900       0.00075400
Ag       2.87280000       3.34778000      21.17748000  T      -0.00094700      -0.00023000       0.00024900
Ag       5.74654000       3.33235000      21.14693000  T      -0.00062100      -0.00028100       0.00096400
Ag       7.20096000       0.82380000      21.11524000  T      -0.00058000      -0.00001000       0.00144700
Ag       4.29596000       5.81286000      21.18015000  T      -0.00090900       0.00079200      -0.00006700
Ag      10.07518000       5.81589000      21.18051000  T      -0.00243400       0.00059100       0.00042100
Ag       7.18121000       5.81520000      21.15459000  T      -0.00111000       0.00013300       0.00057100
Ag       8.62783000       3.31429000      21.10949000  T      -0.00100800       0.00061900       0.00215600
Ag       2.87653000       1.66077000      18.78944000  F      -0.00471500       0.04647200       0.15157000
Ag       4.31480000       4.15192000      18.78944000  F      -0.02407900       0.01884900       0.19538600
Ag       5.75307000       1.66077000      18.78944000  F      -0.01427900       0.02487700       0.12834900
Ag       7.19134000       4.15192000      18.78944000  F      -0.03229900       0.02840700       0.06856800
Ag       8.62960000       1.66077000      18.78944000  F       0.02612400      -0.00617000       0.07360200
Ag       5.75307000       6.64307000      18.78944000  F      -0.00655300      -0.04022700       0.12855000
Ag      11.50614000       6.64307000      18.78944000  F      -0.01434000      -0.07125000       0.07175100
Ag      10.06787000       4.15192000      18.78944000  F       0.04602800       0.03582100       0.14443800
Ag       8.62961000       6.64307000      18.78944000  F       0.01432700      -0.03641600       0.13251500
Ag       0.00000000       0.00000000      16.44076000  F       0.00034300      -0.00294800      -0.12592200
Ag       2.87653000       0.00000000      16.44076000  F      -0.00629600      -0.00196800      -0.12995100
Ag       1.43827000       2.49115000      16.44076000  F       0.00063200      -0.01494500      -0.11002200
Ag       4.31480000       2.49115000      16.44076000  F      -0.00726200      -0.00051800      -0.10671400
Ag       5.75307000       0.00000000      16.44076000  F       0.00577700      -0.01393400      -0.12175700
Ag       2.87654000       4.98231000      16.44076000  F       0.00553900       0.01710000      -0.12520600
Ag       8.62961000       4.98231000      16.44076000  F      -0.00771400       0.01039600      -0.12325300
Ag       7.19134000       2.49115000      16.44076000  F       0.00655400      -0.00012600      -0.12324200
Ag       5.75307000       4.98231000      16.44076000  F       0.00350900       0.00918600      -0.12986000
C        9.09324000       6.38101000       2.02018000  T       0.01721500      -0.00822800      -0.00279300
O        7.78856000       6.49538000       1.89873000  T       0.01549200      -0.02380500      -0.01409800
O        9.85530000       7.41121000       2.14836000  T       0.00173300      -0.00191100       0.00705300
O        9.61309000       5.16766000       1.92072000  T       0.02809100      -0.00216900      -0.00402700
C        4.61468000       6.44922000       2.61565000  T      -0.00730700       0.00826700      -0.00846000
O        4.71560000       6.21618000       3.82227000  T      -0.02197100       0.00120500       0.00972500
O        0.34016000       0.18029000       2.11005000  T       0.00849000       0.00646500       0.00328300
O        4.45672000       5.38804000       1.77458000  T      -0.00403700       0.00989700      -0.00457900
44
Lattice="8.629602757 0.0 0.0 4.314801379 7.473454789 0.0 0.0 0.0 23.486801045" Properties=species:S:1:pos:R:3:move_mask:L:1:forces:R:3 stress="0.00587208668374048 -0.0005150680575952642 -9.760471971056238e-05 -0.0005150680575952642 0.005382290496595917 -3.239343236333411e-06 -9.760471971056238e-05 -3.239343236333411e-06 0.002416575020341228" free_energy=-160.39567146 energy=-160.40317052 pbc="T T T"
Ag       4.28767000       2.51185000       0.02592000  T      -0.00204900       0.00009600       0.00195700
Ag       8.62495000       0.03767000      23.47106000  T      -0.00096800       0.00192800      -0.00204700
Ag       1.43755000       2.48333000      23.49425000  T      -0.00242300       0.00140200       0.00190800
Ag       2.84381000       0.05029000       0.04547000  T      -0.00038100       0.00123500       0.00211700
Ag       5.80611000       0.12293000      23.42134000  T      -0.00250500       0.00169100       0.00199500
Ag      11.42577000       5.00363000       0.20925000  T      -0.00090500       0.00049900      -0.01209100
Ag       8.56463000       4.86935000      23.41566000  T      -0.00538700       0.00026500       0.00481000
Ag       7.18380000       2.49647000      23.49761000  T      -0.00208300      -0.00047200       0.00226000
Ag       5.76407000       4.95536000       0.02823000  T      -0.00214700      -0.00114900      -0.00199500
Ag       1.44938000       0.81976000      21.14399000  T      -0.00083200       0.00064000       0.00161500
Ag       4.30298000       0.82815000      21.14117000  T      -0.00106500       0.00053400       0.00075200
Ag       2.87272000       3.34777000      21.17750000  T      -0.00079300      -0.00009100       0.00016100
Ag       5.74648000       3.33233000      21.14701000  T      -0.00070100      -0.00008500       0.00085300
Ag       7.20090000       0.82380000      21.11536000  T      -0.00076800       0.00003400       0.00157200
Ag       4.29587000       5.81293000      21.18014000  T      -0.00095000       0.00081700       0.00008700
Ag      10.07497000       5.81595000      21.18054000  T      -0.00237500       0.00059400       0.00050600
Ag       7.18110000       5.81521000      21.15464000  T      -0.00115800       0.00017800       0.00069800
Ag       8.62774000       3.31434000      21.10967000  T      -0.00100500       0.00061600       0.00210800
Ag       2.87653000       1.66077000      18.78944000  F      -0.00483600       0.04647300       0.15137900
Ag       4.31480000       4.15192000      18.78944000  F      -0.02407700       0.01887100       0.19509900
Ag       5.75307000       1.66077000      18.78944000  F      -0.01427300       0.02490200       0.12832700
Ag       7.19134000       4.15192000      18.78944000  F      -0.03227600       0.02838300       0.06858700
Ag       8.62960000       1.66077000      18.78944000  F       0.02603400      -0.00602100       0.07384200
Ag       5.75307000       6.64307000      18.78944000  F      -0.00659400      -0.04009500       0.12850400
Ag      11.50614000       6.64307000      18.78944000  F      -0.01446600      -0.07110400       0.07155300
Ag      10.06787000       4.15192000      18.78944000  F       0.04578300       0.03579000       0.14443900
Ag       8.62961000       6.64307000      18.78944000  F       0.01422900      -0.03634800       0.13238000
Ag       0.00000000       0.00000000      16.44076000  F       0.00032500      -0.00289500      -0.12628800
Ag       2.87653000       0.00000000      16.44076000  F      -0.00631700      -0.00189500      -0.13024000
Ag       1.43827000       2.49115000      16.44076000  F       0.00065000      -0.01491600      -0.11038400
Ag       4.31480000       2.49115000      16.44076000  F      -0.00729200      -0.00050600      -0.10707100
Ag       5.75307000       0.00000000      16.44076000  F       0.00576600      -0.01390100      -0.12204700
Ag       2.87654000       4.98231000      16.44076000  F       0.00549200       0.01710300      -0.12557900
Ag       8.62961000       4.98231000      16.44076000  F      -0.00773100       0.01039700      -0.12354500
Ag       7.19134000       2.49115000      16.44076000  F       0.00652900      -0.00008900      -0.12365000
Ag       5.75307000       4.98231000      16.44076000  F       0.00353800       0.00919300      -0.13023300
C        9.09476000       6.38025000       2.01993000  T       0.01531600      -0.01071200      -0.00345600
O        7.78988000       6.49326000       1.89746000  T       0.01202800      -0.02323600      -0.01465400
O        9.85551000       7.41111000       2.14900000  T       0.00554500       0.00283600       0.00758000
O        9.61562000       5.16737000       1.92035000  T       0.02912100      -0.00561300      -0.00490600
C        4.61402000       6.45007000       2.61464000  T       0.00150800      -0.02698500       0.10954900
O        4.71366000       6.21624000       3.82344000  T      -0.03066800       0.02143900      -0.10285500
O        0.34090000       0.18084000       2.11035000  T       0.00815800       0.01645600       0.00199500
O        4.45637000       5.38888000       1.77417000  T      -0.00299600       0.01374200       0.00440600
44
Lattice="8.629602757 0.0 0.0 4.314801379 7.473454789 0.0 0.0 0.0 23.486801045" Properties=species:S:1:pos:R:3:move_mask:L:1:forces:R:3 stress="0.0058582742240449 -0.0005135139218229193 -0.00010687960227162491 -0.0005135139218229193 0.00537376459512996 1.1521825846380495e-05 -0.00010687960227162491 1.1521825846380495e-05 0.0023677414529403177" free_energy=-160.39600265 energy=-160.4035223 pbc="T T T"
Ag       4.28757000       2.51186000       0.02603000  T      -0.00189000       0.00043100       0.00185000
Ag       8.62492000       0.03773000      23.47115000  T      -0.00012300       0.00030000       0.00513700
Ag       1.43742000       2.48339000      23.49436000  T      -0.00238200       0.00097800       0.00207200
Ag       2.84377000       0.05036000       0.04560000  T      -0.00114000       0.00123700       0.00269100
Ag       5.80598000       0.12302000      23.42144000  T      -0.00230300       0.00175700       0.00177400
Ag      11.42578000       5.00367000       0.20865000  T       0.00082200       0.00085800      -0.01016100
Ag       8.56434000       4.86935000      23.41589000  T      -0.00537000       0.00003800       0.00417900
Ag       7.18369000       2.49644000      23.49773000  T      -0.00204600      -0.00071000       0.00225700
Ag       5.76391000       4.95532000       0.02819000  T      -0.00364600      -0.00044000       0.00057000
Ag       1.44933000       0.81979000      21.14407000  T      -0.00087800       0.00054600       0.00127400
Ag       4.30293000       0.82817000      21.14121000  T      -0.00104500       0.00045900       0.00058900
Ag       2.87267000       3.34776000      21.17751000  T      -0.00091400      -0.00005700      -0.00006900
Ag       5.74644000       3.33232000      21.14706000  T      -0.00064000      -0.00008600       0.00063300
Ag       7.20086000       0.82380000      21.11544000  T      -0.00068000       0.00001400       0.00114500
Ag       4.29582000       5.81298000      21.18015000  T      -0.00097800       0.00086100      -0.00010600
Ag      10.07485000       5.81598000      21.18058000  T      -0.00234500       0.00055200       0.00044300
Ag       7.18104000       5.81522000      21.15468000  T      -0.00117000       0.00015500       0.00056600
Ag       8.62769000       3.31437000      21.10979000  T      -0.00100400       0.00058300       0.00188700
Ag       2.87653000       1.66077000      18.78944000  F      -0.00490200       0.04644100       0.15198100
Ag       4.31480000       4.15192000      18.78944000  F      -0.02405500       0.01882500       0.19570500
Ag       5.75307000       1.66077000      18.78944000  F      -0.01422500       0.02486400       0.12902700
Ag       7.19134000       4.15192000      18.78944000  F      -0.03221400       0.02827800       0.06925100
Ag       8.62960000       1.66077000      18.78944000  F       0.02598400      -0.00593500       0.07473500
Ag       5.75307000       6.64307000      18.78944000  F      -0.00664900      -0.04001700       0.12916400
Ag      11.50614000       6.64307000      18.78944000  F      -0.01450600      -0.07101600       0.07216700
Ag      10.06787000       4.15192000      18.78944000  F       0.04565300       0.03573900       0.14503800
Ag       8.62961000       6.64307000      18.78944000  F       0.01418800      -0.03632400       0.13298600
Ag       0.00000000       0.00000000      16.44076000  F       0.00034300      -0.00293800      -0.12607900
Ag       2.87653000       0.00000000      16.44076000  F      -0.00629800      -0.00189900      -0.13004800
Ag       1.43827000       2.49115000      16.44076000  F       0.00067900      -0.01493300      -0.11019400
Ag       4.31480000       2.49115000      16.44076000  F      -0.00731300      -0.00050700      -0.10692600
Ag       5.75307000       0.00000000      16.44076000  F       0.00578200      -0.01392000      -0.12187200
Ag       2.87654000       4.98231000      16.44076000  F       0.00552200       0.01709100      -0.12540500
Ag       8.62961000       4.98231000      16.44076000  F      -0.00772300       0.01037700      -0.12339600
Ag       7.19134000       2.49115000      16.44076000  F       0.00655500      -0.00007100      -0.12343000
Ag       5.75307000       4.98231000      16.44076000  F       0.00351300       0.00917300      -0.13003500
C        9.09564000       6.37979000       2.01976000  T       0.01566200      -0.01029500      -0.00328800
O        7.79068000       6.49200000       1.89670000  T       0.01275000      -0.02314400      -0.01437000
O        9.85563000       7.41104000       2.14935000  T       0.00462000       0.00154100       0.00758500
O        9.61710000       5.16720000       1.92011000  T       0.02841700      -0.00574800      -0.00477900
C        4.61379000       6.45002000       2.61602000  T      -0.00987100       0.01954700      -0.04903200
O        4.71237000       6.21664000       3.82214000  T      -0.01822100      -0.00557300       0.04892100
O        0.34133000       0.18131000       2.11050000  T       0.00777600       0.00598100       0.00267400
O        4.45618000       5.38945000       1.77407000  T      -0.00374000       0.00698600      -0.00711000
44
Lattice="8.629602757 0.0 0.0 4.314801379 7.473454789 0.0 0.0 0.0 23.486801045" Properties=species:S:1:pos:R:3:move_mask:L:1:forces:R:3 stress="0.005824264240817962 -0.000513258019948758 -0.00010185518742528889 -0.000513258019948758 0.0053466764455236265 6.291441198890324e-06 -0.00010185518742528889 6.291441198890324e-06 0.0024238775860185116" free_energy=-160.39588687 energy=-160.40340737 pbc="T T T"
Ag       4.28747000       2.51188000       0.02611000  T      -0.00183800       0.00033700       0.00149300
Ag       8.62490000       0.03777000      23.47132000  T      -0.00053000       0.00118800       0.00136800
Ag       1.43730000       2.48344000      23.49445000  T      -0.00223700       0.00118500       0.00163300
Ag       2.84372000       0.05042000       0.04572000  T      -0.00062200       0.00121400       0.00227700
Ag       5.80585000       0.12311000      23.42154000  T      -0.00241900       0.00171900       0.00158700
Ag      11.42580000       5.00371000       0.20810000  T       0.00028700       0.00063800      -0.01081500
Ag       8.56406000       4.86935000      23.41609000  T      -0.00525000      -0.00008400       0.00357200
Ag       7.18358000       2.49641000      23.49784000  T      -0.00215200      -0.00051800       0.00188800
Ag       5.76374000       4.95529000       0.02819000  T      -0.00295600      -0.00070800      -0.00067900
Ag       1.44929000       0.81982000      21.14414000  T      -0.00071800       0.00050800       0.00111000
Ag       4.30287000       0.82820000      21.14124000  T      -0.00103500       0.00046100       0.00033900
Ag       2.87263000       3.34776000      21.17751000  T      -0.00092000      -0.00005600      -0.00027200
Ag       5.74641000       3.33232000      21.14709000  T      -0.00069600      -0.00006500       0.00037800
Ag       7.20083000       0.82380000      21.11551000  T      -0.00066200       0.00003400       0.00097500
Ag       4.29577000       5.81302000      21.18015000  T      -0.00098000       0.00084400      -0.00020100
Ag      10.07472000       5.81601000      21.18060000  T      -0.00227400       0.00056000       0.00024600
Ag       7.18098000       5.81523000      21.15472000  T      -0.00114300       0.00018400       0.00043300
Ag       8.62764000       3.31440000      21.10989000  T      -0.00101400       0.00059300       0.00168300
Ag       2.87653000       1.66077000      18.78944000  F      -0.00499700       0.04643600       0.15197200
Ag       4.31480000       4.15192000      18.78944000  F      -0.02405500       0.01881600       0.19563700
Ag       5.75307000       1.66077000      18.78944000  F      -0.01419400       0.02486200       0.12910900
Ag       7.19134000       4.15192000      18.78944000  F      -0.03216900       0.02821400       0.06934300
Ag       8.62960000       1.66077000      18.78944000  F       0.02593000      -0.00585800       0.07494100
Ag       5.75307000       6.64307000      18.78944000  F      -0.00669900      -0.03995200       0.12919400
Ag      11.50614000       6.64307000      18.78944000  F      -0.01458400      -0.07094600       0.07215300
Ag      10.06787000       4.15192000      18.78944000  F       0.04550000       0.03571500       0.14507700
Ag       8.62961000       6.64307000      18.78944000  F       0.01414100      -0.03634400       0.13300200
Ag       0.00000000       0.00000000      16.44076000  F       0.00033100      -0.00297500      -0.12605300
Ag       2.87653000       0.00000000      16.44076000  F      -0.00629600      -0.00190900      -0.12999200
Ag       1.43827000       2.49115000      16.44076000  F       0.00069000      -0.01493300      -0.11015200
Ag       4.31480000       2.49115000      16.44076000  F      -0.00733700      -0.00050400      -0.10686900
Ag       5.75307000       0.00000000      16.44076000  F       0.00577300      -0.01395000      -0.12183600
Ag       2.87654000       4.98231000      16.44076000  F       0.00551500       0.01710200      -0.12537300
Ag       8.62961000       4.98231000      16.44076000  F      -0.00772600       0.01039000      -0.12335200
Ag       7.19134000       2.49115000      16.44076000  F       0.00654700      -0.00005500      -0.12337600
Ag       5.75307000       4.98231000      16.44076000  F       0.00348200       0.00917500      -0.12999000
C        9.09649000       6.37932000       2.01960000  T       0.01621900      -0.00898900      -0.00265200
O        7.79140000       6.49079000       1.89596000  T       0.01360000      -0.02318500      -0.01360200
O        9.85579000       7.41101000       2.14970000  T       0.00287100      -0.00107500       0.00655800
O        9.61853000       5.16699000       1.91987000  T       0.02695400      -0.00340200      -0.00417700
C        4.61343000       6.45050000       2.61550000  T      -0.00488100       0.00077900       0.01726500
O        4.71128000       6.21672000       3.82269000  T      -0.02210400       0.00600300      -0.01295800
O        0.34172000       0.18165000       2.11063000  T       0.00746700       0.00780200       0.00204000
O        4.45601000       5.38993000       1.77382000  T      -0.00282300       0.01075100      -0.00292800
44
Lattice="8.629602757 0.0 0.0 4.314801379 7.473454789 0.0 0.0 0.0 23.486801045" Properties=species:S:1:pos:R:3:move_mask:L:1:forces:R:3 stress="0.005861132835224555 -0.0005139945180256122 -0.00010637404003242836 -0.0005139945180256122 0.005377415877968602 6.566067600429187e-06 -0.00010637404003242836 6.566067600429187e-06 0.0023853362671661825" free_energy=-160.39628059 energy=-160.40377558 pbc="T T T"
Ag       4.28733000       2.51190000       0.02623000  T      -0.00175100       0.00024800       0.00150900
Ag       8.62487000       0.03784000      23.47150000  T      -0.00038300       0.00092400       0.00195700
Ag       1.43712000       2.48353000      23.49458000  T      -0.00211300       0.00108400       0.00169000
Ag       2.84367000       0.05052000       0.04592000  T      -0.00065400       0.00128700       0.00270600
Ag       5.80566000       0.12324000      23.42168000  T      -0.00239200       0.00164400       0.00197200
Ag      11.42584000       5.00376000       0.20726000  T       0.00047100       0.00056200      -0.01032700
Ag       8.56365000       4.86935000      23.41639000  T      -0.00508300      -0.00007900       0.00397100
Ag       7.18341000       2.49636000      23.49799000  T      -0.00208300      -0.00053300       0.00199200
Ag       5.76350000       4.95524000       0.02815000  T      -0.00281200      -0.00060500      -0.00047800
Ag       1.44924000       0.81986000      21.14423000  T      -0.00066400       0.00050800       0.00120800
Ag       4.30279000       0.82823000      21.14128000  T      -0.00102800       0.00040900       0.00052500
Ag       2.87255000       3.34775000      21.17749000  T      -0.00093300      -0.00007000      -0.00021200
Ag       5.74635000       3.33231000      21.14712000  T      -0.00074600      -0.00002100       0.00047400
Ag       7.20077000       0.82381000      21.11559000  T      -0.00074400       0.00002700       0.00113900
Ag       4.29569000       5.81309000      21.18013000  T      -0.00098700       0.00083100      -0.00011700
Ag      10.07455000       5.81605000      21.18063000  T      -0.00220400       0.00054000       0.00044700
Ag       7.18089000       5.81524000      21.15476000  T      -0.00110900       0.00018300       0.00061000
Ag       8.62756000       3.31445000      21.11002000  T      -0.00101300       0.00062800       0.00170700
Ag       2.87653000       1.66077000      18.78944000  F      -0.00508600       0.04640300       0.15176500
Ag       4.31480000       4.15192000      18.78944000  F      -0.02405900       0.01882600       0.19536700
Ag       5.75307000       1.66077000      18.78944000  F      -0.01417500       0.02484000       0.12902900
Ag       7.19134000       4.15192000      18.78944000  F      -0.03211900       0.02817000       0.06927200
Ag       8.62960000       1.66077000      18.78944000  F       0.02586800      -0.00575300       0.07509300
Ag       5.75307000       6.64307000      18.78944000  F      -0.00673000      -0.03988400       0.12909800
Ag      11.50614000       6.64307000      18.78944000  F      -0.01468600      -0.07087500       0.07193400
Ag      10.06787000       4.15192000      18.78944000  F       0.04530600       0.03568800       0.14498600
Ag       8.62961000       6.64307000      18.78944000  F       0.01407800      -0.03633600       0.13286200
Ag       0.00000000       0.00000000      16.44076000  F       0.00033200      -0.00296500      -0.12620600
Ag       2.87653000       0.00000000      16.44076000  F      -0.00630300      -0.00187300      -0.13010700
Ag       1.43827000       2.49115000      16.44076000  F       0.00070600      -0.01496200      -0.11030000
Ag       4.31480000       2.49115000      16.44076000  F      -0.00735600      -0.00052500      -0.10702900
Ag       5.75307000       0.00000000      16.44076000  F       0.00578500      -0.01395700      -0.12196000
Ag       2.87654000       4.98231000      16.44076000  F       0.00551100       0.01708700      -0.12554200
Ag       8.62961000       4.98231000      16.44076000  F      -0.00772900       0.01036100      -0.12347600
Ag       7.19134000       2.49115000      16.44076000  F       0.00656100      -0.00005700      -0.12354700
Ag       5.75307000       4.98231000      16.44076000  F       0.00349600       0.00915600      -0.13015400
C        9.09777000       6.37863000       2.01937000  T       0.01593600      -0.00856400      -0.00287200
O        7.79248000       6.48895000       1.89488000  T       0.01369100      -0.02301600      -0.01336300
O        9.85602000       7.41093000       2.15023000  T       0.00237300      -0.00163900       0.00637500
O        9.62068000       5.16667000       1.91953000  T       0.02631600      -0.00338100      -0.00418300
C        4.61296000       6.45097000       2.61557000  T      -0.00500100       0.00439100       0.00820300
O        4.70963000       6.21699000       3.82278000  T      -0.02073200       0.00473200      -0.00630500
O        0.34231000       0.18223000       2.11084000  T       0.00709200       0.00719700       0.00279400
O        4.45578000       5.39067000       1.77354000  T      -0.00284300       0.00936900      -0.00251000
