44
Lattice="8.62960276 0.0 0.0 4.31480138 7.47345479 0.0 0.0 0.0 23.48680104" Properties=species:S:1:pos:R:3:move_mask:L:1:forces:R:3 energy=-160.36845693 stress="0.00648562691222613 -0.00044915133616210115 4.557986869358767e-05 -0.00044915133616210115 0.006994350244859096 0.0002158097587439219 4.557986869358767e-05 0.0002158097587439219 0.0022608153826332504" free_energy=-160.36099865 pbc="T T T"
Ag       4.28931972       2.51082985       0.01118042  T       0.01042428       0.00254137       0.02615582
Ag       8.62621952       0.04006101      23.46428166  T      -0.00719846      -0.01207514      -0.04578336
Ag       1.44629769       2.48241279      23.47787300  T      -0.02528009      -0.00794297       0.02813978
Ag       2.85062220       0.04507674       0.04125785  T      -0.02056266       0.01270518      -0.00586416
Ag       5.81092864       0.11806818      23.41378903  T      -0.00955953      -0.00528131       0.01483691
Ag      11.43259115       5.00085144       0.23570015  T      -0.01871342       0.01691835      -0.01825616
Ag       8.58118732       4.86730132      23.40741072  T      -0.03200080       0.00602260       0.01212189
Ag       7.18010707       2.50072193      23.48314814  T       0.02616835      -0.00301274       0.02158728
Ag       5.76939790       4.96069260       0.02982988  T       0.02721961      -0.00837387      -0.02249695
Ag       1.45075505       0.81767487      21.13768901  T      -0.00818773       0.00403879       0.01763000
Ag       4.30366074       0.82672328      21.13666969  T       0.00235433      -0.00124877       0.00905750
Ag       2.87225329       3.34904140      21.17014660  T       0.00555062      -0.00379718       0.01037643
Ag       5.74585337       3.33439926      21.13909869  T      -0.00143474       0.00324958       0.02095680
Ag       7.20064345       0.82533629      21.10892473  T       0.00543813      -0.01053191       0.01813798
Ag       4.29527470       5.81194160      21.17896589  T       0.00408458       0.00544311       0.01357717
Ag      10.07801561       5.81314198      21.17959722  T       0.00177381       0.01229200      -0.00375309
Ag       7.18114810       5.81570665      21.15348342  T       0.00540931      -0.00685522       0.00949071
Ag       8.62629823       3.31571944      21.10246703  T       0.00666067      -0.00779981       0.01508759
Ag       2.87653004       1.66077003      18.78943989  F      -0.00355278       0.04496137       0.13162573
Ag       4.31480004       4.15192003      18.78943989  F      -0.02589892       0.02432483       0.17752744
Ag       5.75307005       1.66077003      18.78943989  F      -0.01669272       0.02326692       0.10508444
Ag       7.19134005       4.15192003      18.78943989  F      -0.03293318       0.03532965       0.04622013
Ag       8.62960004       1.66077003      18.78943989  F       0.02802083      -0.00816219       0.04952374
Ag       5.75307005       6.64307004      18.78943989  F      -0.00637410      -0.04457521       0.11679828
Ag      11.50614005       6.64307004      18.78943989  F      -0.01432029      -0.07500874       0.06404946
Ag      10.06787004       4.15192003      18.78943989  F       0.04624523       0.03987815       0.12495825
Ag       8.62961005       6.64307004      18.78943989  F       0.01551444      -0.04046060       0.12377732
Ag       0.00000000       0.00000000      16.44076002  F      -0.00001097      -0.00431584      -0.12581730
Ag       2.87653000       0.00000000      16.44076002  F      -0.00569156      -0.00243027      -0.13153945
Ag       1.43826724       2.49115000      16.44076002  F       0.00042186      -0.01403602      -0.11098910
Ag       4.31480000       2.49115000      16.44076002  F      -0.00656022      -0.00035770      -0.10660526
Ag       5.75307000       0.00000000      16.44076002  F       0.00545703      -0.01376674      -0.12355629
Ag       2.87654001       4.98231002      16.44076002  F       0.00680165       0.01718637      -0.12544221
Ag       8.62961001       4.98231002      16.44076002  F      -0.00760507       0.01027842      -0.12384555
Ag       7.19134001       2.49115000      16.44076002  F       0.00605454      -0.00011826      -0.12446469
Ag       5.75307000       4.98231002      16.44076002  F       0.00239018       0.00931587      -0.12963069
C        9.06389373       6.39506695       2.02581715  T       0.06752556      -0.12135798      -0.05494274
O        7.75297923       6.53218601       1.92784666  T       0.59782355      -0.08087534       0.02124027
O        9.85809005       7.41524211       2.13284157  T      -0.35255172      -0.39689410      -0.02491001
O        9.57110075       5.15975039       1.92549774  T      -0.23022002       0.56908349       0.03852529
C        4.62830971       6.45101585       2.61929479  T      -0.07510825      -0.20632496      -0.48904113
O        4.75622468       6.21142660       3.81705917  T      -0.03651441       0.04486336      -0.02151356
O        0.31907771       0.18276790       2.09582872  T       0.01837391      -0.49642254       0.20105903
O        4.47090110       5.34796740       1.77343574  T       0.04725918       0.69032600       0.37090644
44
Lattice="8.62960276 0.0 0.0 4.31480138 7.47345479 0.0 0.0 0.0 23.48680104" Properties=species:S:1:pos:R:3:move_mask:L:1:forces:R:3 energy=-160.39421757999997 stress="0.005755213432958365 -0.0005084144965199083 -3.549555602153498e-05 -0.0005084144965199083 0.005289013888973607 -8.090704752343369e-05 -3.549555602153498e-05 -8.090704752343369e-05 0.002119453645693842" free_energy=-160.38665526 pbc="T T T"
Ag       4.28984099       2.51099658       0.01264905  T       0.00522639       0.00200235       0.02002285
Ag       8.62599205       0.03987985      23.46238111  T      -0.00023060       0.00454188      -0.00952622
Ag       1.44489387       2.48199255      23.47958918  T      -0.01623599      -0.00430879       0.02541298
Ag       2.84957435       0.04558292       0.04153993  T      -0.01371962       0.00755079       0.00661185
Ag       5.81066052       0.11816429      23.41462939  T      -0.00270529       0.00479747       0.01403748
Ag      11.43154796       5.00151934       0.23411949  T      -0.01894950       0.00282723      -0.03283890
Ag       8.57913205       4.86722412      23.40752839  T      -0.02708106      -0.00053266       0.00110292
Ag       7.18161060       2.50040012      23.48451883  T       0.01813109      -0.00832995       0.02147211
Ag       5.77042577       4.96004047       0.02848080  T       0.00630958      -0.01201941      -0.02009891
Ag       1.45035283       0.81787501      21.13861087  T      -0.00233222       0.00249395       0.00990295
Ag       4.30381922       0.82663188      21.13717113  T       0.00165031      -0.00092244       0.00687868
Ag       2.87257665       3.34889762      21.17088103  T       0.00407887      -0.00102682       0.01297634
Ag       5.74574110       3.33452108      21.14035312  T      -0.00105529      -0.00055676       0.01690833
Ag       7.20085462       0.82477832      21.10988229  T       0.00054585      -0.00540967       0.00987509
Ag       4.29550839       5.81215997      21.17961131  T       0.00285181       0.00059145       0.00504411
Ag      10.07811476       5.81385660      21.17944056  T       0.00104220       0.00870323      -0.00128655
Ag       7.18146778       5.81544545      21.15393977  T       0.00409205      -0.00068147       0.00253740
Ag       8.62672298       3.31527716      21.10329706  T       0.00620327      -0.00623616       0.00875582
Ag       2.87653004       1.66077003      18.78943989  F      -0.00327993       0.04449024       0.13672476
Ag       4.31480004       4.15192003      18.78943989  F      -0.02541868       0.02395826       0.17941195
Ag       5.75307005       1.66077003      18.78943989  F      -0.01663194       0.02368610       0.11029081
Ag       7.19134005       4.15192003      18.78943989  F      -0.03375905       0.03493634       0.05062053
Ag       8.62960004       1.66077003      18.78943989  F       0.02779950      -0.00829628       0.05327643
Ag       5.75307005       6.64307004      18.78943989  F      -0.00577868      -0.04439502       0.11837097
Ag      11.50614005       6.64307004      18.78943989  F      -0.01372310      -0.07509559       0.06407722
Ag      10.06787004       4.15192003      18.78943989  F       0.04707290       0.03979767       0.12786922
Ag       8.62961005       6.64307004      18.78943989  F       0.01468332      -0.03923154       0.12508481
Ag       0.00000000       0.00000000      16.44076002  F       0.00024674      -0.00269284      -0.12535298
Ag       2.87653000       0.00000000      16.44076002  F      -0.00645043      -0.00223417      -0.13002948
Ag       1.43826724       2.49115000      16.44076002  F       0.00002220      -0.01468624      -0.10990785
Ag       4.31480000       2.49115000      16.44076002  F      -0.00649462      -0.00065210      -0.10649137
Ag       5.75307000       0.00000000      16.44076002  F       0.00589695      -0.01340611      -0.12167704
Ag       2.87654001       4.98231002      16.44076002  F       0.00558809       0.01712982      -0.12439467
Ag       8.62961001       4.98231002      16.44076002  F      -0.00753391       0.01025755      -0.12284454
Ag       7.19134001       2.49115000      16.44076002  F       0.00634490      -0.00077558      -0.12321062
Ag       5.75307000       4.98231002      16.44076002  F       0.00358176       0.00937673      -0.12918427
C        9.06602598       6.39140339       2.02475696  T       0.03227737       0.01149105      -0.00379604
O        7.76512225       6.53003986       1.92664930  T       0.03218094      -0.02455940      -0.03250080
O        9.85179437       7.40916327       2.13303487  T      -0.01594024      -0.01401062       0.00819522
O        9.56821570       5.17014656       1.92631109  T       0.03247504       0.00273020       0.00151252
C        4.62584967       6.44067274       2.60841641  T       0.01517154      -0.00363606       0.24538255
O        4.75418520       6.21374091       3.81731987  T      -0.04928263       0.05560632      -0.16276558
O        0.32031364       0.17055911       2.10059678  T       0.02214557      -0.02311187       0.01629624
O        4.47135364       5.37002007       1.78303597  T      -0.02901544      -0.00016109      -0.04274634
44
Lattice="8.62960276 0.0 0.0 4.31480138 7.47345479 0.0 0.0 0.0 23.48680104" Properties=species:S:1:pos:R:3:move_mask:L:1:forces:R:3 energy=-160.39526292 stress="0.005743641681280487 -0.0005069887797978284 -6.187160561018717e-05 -0.0005069887797978284 0.005283028955804871 -1.2095401810521787e-05 -6.187160561018717e-05 -1.2095401810521787e-05 0.001966731825375541" free_energy=-160.38767911 pbc="T T T"
Ag       4.29009323       2.51111347       0.01380789  T       0.00289355       0.00187798       0.01972302
Ag       8.62601233       0.03991109      23.46238628  T       0.00112466      -0.00479145       0.01412737
Ag       1.44403535       2.48179548      23.48103268  T      -0.01225562      -0.00200961       0.02402474
Ag       2.84880507       0.04601152       0.04194813  T      -0.01273190       0.00739411       0.00691793
Ag       5.81051533       0.11846450      23.41533846  T      -0.00272857       0.00549788       0.01118212
Ag      11.43058844       5.00171694       0.23241247  T      -0.01324145       0.00343397      -0.02596444
Ag       8.57772431       4.86724819      23.40771440  T      -0.02019999       0.00168251       0.00521478
Ag       7.18256784       2.49991024      23.48574108  T       0.01338031      -0.00887759       0.02061776
Ag       5.77060065       4.95944222       0.02765688  T      -0.00209647      -0.00785814      -0.00606522
Ag       1.45025117       0.81801880      21.13913369  T      -0.00078106       0.00236005       0.00757879
Ag       4.30389650       0.82660476      21.13757886  T       0.00066985       0.00028637       0.00706445
Ag       2.87278121       3.34883222      21.17161358  T       0.00259665      -0.00135038       0.01236723
Ag       5.74571512       3.33445128      21.14124492  T       0.00069042      -0.00240332       0.01300561
Ag       7.20086942       0.82451503      21.11041497  T       0.00003038      -0.00311395       0.00780304
Ag       4.29566071       5.81218553      21.17985158  T       0.00227713       0.00023444       0.00256828
Ag      10.07814946       5.81429813      21.17939382  T      -0.00016407       0.00577557      -0.00003480
Ag       7.18169004       5.81541563      21.15403747  T       0.00331071      -0.00016743       0.00026139
Ag       8.62706169       3.31494997      21.10377102  T       0.00511179      -0.00473861       0.00721182
Ag       2.87653004       1.66077003      18.78943989  F      -0.00333685       0.04461513       0.13807326
Ag       4.31480004       4.15192003      18.78943989  F      -0.02514907       0.02345003       0.18085867
Ag       5.75307005       1.66077003      18.78943989  F      -0.01634655       0.02410981       0.11195101
Ag       7.19134005       4.15192003      18.78943989  F      -0.03380889       0.03411234       0.05239784
Ag       8.62960004       1.66077003      18.78943989  F       0.02752617      -0.00830185       0.05460004
Ag       5.75307005       6.64307004      18.78943989  F      -0.00579124      -0.04413100       0.11918442
Ag      11.50614005       6.64307004      18.78943989  F      -0.01340037      -0.07482185       0.06410797
Ag      10.06787004       4.15192003      18.78943989  F       0.04722022       0.03939626       0.12904577
Ag       8.62961005       6.64307004      18.78943989  F       0.01456440      -0.03902376       0.12511854
Ag       0.00000000       0.00000000      16.44076002  F       0.00025157      -0.00276589      -0.12573527
Ag       2.87653000       0.00000000      16.44076002  F      -0.00647457      -0.00228081      -0.13047757
Ag       1.43826724       2.49115000      16.44076002  F       0.00003106      -0.01475434      -0.11031961
Ag       4.31480000       2.49115000      16.44076002  F      -0.00656287      -0.00063997      -0.10690744
Ag       5.75307000       0.00000000      16.44076002  F       0.00586116      -0.01349535      -0.12212480
Ag       2.87654001       4.98231002      16.44076002  F       0.00562317       0.01711054      -0.12484536
Ag       8.62961001       4.98231002      16.44076002  F      -0.00758381       0.01029224      -0.12332413
Ag       7.19134001       2.49115000      16.44076002  F       0.00634729      -0.00074922      -0.12358766
Ag       5.75307000       4.98231002      16.44076002  F       0.00351572       0.00936319      -0.12960744
C        9.06744792       6.39114384       2.02447370  T       0.02540875      -0.00139791      -0.00446931
O        7.76653556       6.52866587       1.92479971  T       0.02039787      -0.02495161      -0.03046603
O        9.85165492       7.40927896       2.13377564  T      -0.00097293       0.00058864       0.01360454
O        9.57015158       5.17019783       1.92634139  T       0.03484307      -0.00124605      -0.00048950
C        4.62564463       6.44066751       2.61287092  T      -0.02441872       0.04753205      -0.13598219
O        4.75220561       6.21502866       3.81627753  T      -0.01654233      -0.01792012       0.15463340
O        0.32160411       0.17025972       2.10124172  T       0.02264078      -0.01103517       0.01610771
O        4.46988936       5.37073379       1.78137827  T      -0.02172936       0.01371222      -0.01895069
44
Lattice="8.62960276 0.0 0.0 4.31480138 7.47345479 0.0 0.0 0.0 23.48680104" Properties=species:S:1:pos:R:3:move_mask:L:1:forces:R:3 energy=-160.39612448 stress="0.005811030681093809 -0.0005102828485861776 -5.2498775046412165e-05 -0.0005102828485861776 0.005328718444123236 -1.8809474316853046e-05 -5.2498775046412165e-05 -1.8809474316853046e-05 0.002084628034537352" free_energy=-160.38857124 pbc="T T T"
Ag       4.29020257       2.51118790       0.01469710  T       0.00148319       0.00138458       0.01839410
Ag       8.62603140       0.03971663      23.46284497  T      -0.00021415      -0.00435461       0.00811587
Ag       1.44350192       2.48173278      23.48210462  T      -0.01000710      -0.00044842       0.02178759
Ag       2.84826498       0.04635238       0.04222997  T      -0.01027801       0.00733495       0.00497385
Ag       5.81038670       0.11871493      23.41581876  T      -0.00297159       0.00532605       0.00952266
Ag      11.42994475       5.00185460       0.23117612  T      -0.01307124       0.00238503      -0.02620897
Ag       8.57683157       4.86734295      23.40799272  T      -0.01739371       0.00250748       0.00690077
Ag       7.18314275       2.49951519      23.48666787  T       0.01041846      -0.00780477       0.01885325
Ag       5.77050896       4.95907609       0.02734968  T      -0.00307363      -0.00739456      -0.00518599
Ag       1.45022533       0.81812530      21.13946931  T      -0.00019852       0.00214206       0.00675267
Ag       4.30392195       0.82662852      21.13789617  T       0.00031627       0.00091153       0.00654452
Ag       2.87289331       3.34876900      21.17217421  T       0.00202092      -0.00136841       0.01155026
Ag       5.74575663       3.33432931      21.14181682  T       0.00131829      -0.00293415       0.01102601
Ag       7.20087226       0.82438708      21.11076562  T       0.00013024      -0.00219150       0.00696019
Ag       4.29576262       5.81219674      21.17995375  T       0.00207564       0.00029687       0.00160287
Ag      10.07812913       5.81454229      21.17939594  T      -0.00085885       0.00422529       0.00040141
Ag       7.18183476       5.81541070      21.15403630  T       0.00265880      -0.00002426      -0.00042606
Ag       8.62728610       3.31474512      21.10409631  T       0.00426198      -0.00370960       0.00675916
Ag       2.87653004       1.66077003      18.78943989  F      -0.00326103       0.04481447       0.13900497
Ag       4.31480004       4.15192003      18.78943989  F      -0.02496554       0.02305409       0.18178803
Ag       5.75307005       1.66077003      18.78943989  F      -0.01621211       0.02439093       0.11303592
Ag       7.19134005       4.15192003      18.78943989  F      -0.03380522       0.03362221       0.05354904
Ag       8.62960004       1.66077003      18.78943989  F       0.02745360      -0.00834453       0.05545754
Ag       5.75307005       6.64307004      18.78943989  F      -0.00576327      -0.04386502       0.11955720
Ag      11.50614005       6.64307004      18.78943989  F      -0.01320812      -0.07459702       0.06410206
Ag      10.06787004       4.15192003      18.78943989  F       0.04742970       0.03912956       0.12997265
Ag       8.62961005       6.64307004      18.78943989  F       0.01459678      -0.03873121       0.12508212
Ag       0.00000000       0.00000000      16.44076002  F       0.00028459      -0.00267751      -0.12599997
Ag       2.87653000       0.00000000      16.44076002  F      -0.00643471      -0.00221543      -0.13065823
Ag       1.43826724       2.49115000      16.44076002  F       0.00010634      -0.01475613      -0.11054781
Ag       4.31480000       2.49115000      16.44076002  F      -0.00656268      -0.00062471      -0.10710882
Ag       5.75307000       0.00000000      16.44076002  F       0.00588272      -0.01348370      -0.12229067
Ag       2.87654001       4.98231002      16.44076002  F       0.00561058       0.01710165      -0.12508388
Ag       8.62961001       4.98231002      16.44076002  F      -0.00755937       0.01031146      -0.12350462
Ag       7.19134001       2.49115000      16.44076002  F       0.00637336      -0.00071663      -0.12384851
Ag       5.75307000       4.98231002      16.44076002  F       0.00361104       0.00934434      -0.12987942
C        9.06851044       6.39088368       2.02424706  T       0.02253269      -0.00518516      -0.00435241
O        7.76737501       6.52751742       1.92340624  T       0.01991724      -0.02546296      -0.02915339
O        9.85179338       7.40951460       2.13444924  T       0.00168973       0.00250858       0.01496829
O        9.57179202       5.17012197       1.92628760  T       0.03495346      -0.00052750      -0.00178124
C        4.62501329       6.44127315       2.61171184  T      -0.00613997      -0.00768406       0.04870609
O        4.75092105       6.21498778       3.81843925  T      -0.03637295       0.00978232      -0.02807724
O        0.32263845       0.17030382       2.10186812  T       0.02204786       0.00951693       0.01206713
O        4.46895564       5.37156185       1.78091816  T      -0.01882172       0.01901147      -0.00332899
44
Lattice="8.62960276 0.0 0.0 4.31480138 7.47345479 0.0 0.0 0.0 23.48680104" Properties=species:S:1:pos:R:3:move_mask:L:1:forces:R:3 energy=-160.39751085 stress="0.005838975739971053 -0.0005101010459083588 -6.770167445449221e-05 -0.0005101010459083588 0.005356284456151266 -7.466810989931031e-06 -6.770167445449221e-05 -7.466810989931031e-06 0.0020321329607058515" free_energy=-160.3899644 pbc="T T T"
Ag       4.29027152       2.51127250       0.01594472  T       0.00013152       0.00108888       0.01716808
Ag       8.62601146       0.03937584      23.46351646  T      -0.00018024      -0.00646344       0.01377790
Ag       1.44286591       2.48172859      23.48356198  T      -0.00811751       0.00024619       0.01941620
Ag       2.84759062       0.04683584       0.04256607  T      -0.00901990       0.00652226       0.00424343
Ag       5.81017847       0.11907261      23.41644703  T      -0.00319484       0.00507272       0.00809540
Ag      11.42912870       5.00202432       0.22945994  T      -0.00938645       0.00249982      -0.02292001
Ag       8.57569980       4.86752844      23.40849182  T      -0.01493369       0.00295862       0.00747702
Ag       7.18378720       2.49900774      23.48793052  T       0.00765442      -0.00653578       0.01696592
Ag       5.77022190       4.95861072       0.02712843  T      -0.00610353      -0.00580075      -0.00017224
Ag       1.45021575       0.81826729      21.13992096  T      -0.00006073       0.00194607       0.00633332
Ag       4.30393507       0.82670221      21.13833537  T      -0.00009308       0.00142579       0.00600743
Ag       2.87301447       3.34867408      21.17294505  T       0.00127966      -0.00143314       0.01056712
Ag       5.74586696       3.33411878      21.14253058  T       0.00205322      -0.00319325       0.00928604
Ag       7.20088732       0.82425263      21.11122878  T       0.00022349      -0.00152641       0.00640565
Ag       4.29589733       5.81221587      21.18005098  T       0.00166777       0.00025009       0.00101527
Ag      10.07805267       5.81479713      21.17944596  T      -0.00154039       0.00271023       0.00121062
Ag       7.18200023       5.81540868      21.15401023  T       0.00181466      -0.00019089      -0.00024672
Ag       8.62755655       3.31451374      21.10456018  T       0.00318500      -0.00260475       0.00677024
Ag       2.87653004       1.66077003      18.78943989  F      -0.00321301       0.04504192       0.14077816
Ag       4.31480004       4.15192003      18.78943989  F      -0.02482094       0.02247345       0.18380447
Ag       5.75307005       1.66077003      18.78943989  F      -0.01612929       0.02459025       0.11499540
Ag       7.19134005       4.15192003      18.78943989  F      -0.03385515       0.03294584       0.05553980
Ag       8.62960004       1.66077003      18.78943989  F       0.02727297      -0.00834409       0.05727594
Ag       5.75307005       6.64307004      18.78943989  F      -0.00583822      -0.04361693       0.12069248
Ag      11.50614005       6.64307004      18.78943989  F      -0.01311805      -0.07436881       0.06488707
Ag      10.06787004       4.15192003      18.78943989  F       0.04761056       0.03875000       0.13175120
Ag       8.62961005       6.64307004      18.78943989  F       0.01461771      -0.03839906       0.12580911
Ag       0.00000000       0.00000000      16.44076002  F       0.00028006      -0.00267513      -0.12618956
Ag       2.87653000       0.00000000      16.44076002  F      -0.00647697      -0.00221568      -0.13080518
Ag       1.43826724       2.49115000      16.44076002  F       0.00009734      -0.01483136      -0.11070285
Ag       4.31480000       2.49115000      16.44076002  F      -0.00665896      -0.00065384      -0.10728634
Ag       5.75307000       0.00000000      16.44076002  F       0.00582873      -0.01354496      -0.12241415
Ag       2.87654001       4.98231002      16.44076002  F       0.00555877       0.01706959      -0.12529227
Ag       8.62961001       4.98231002      16.44076002  F      -0.00762086       0.01029834      -0.12368856
Ag       7.19134001       2.49115000      16.44076002  F       0.00637778      -0.00070515      -0.12399004
Ag       5.75307000       4.98231002      16.44076002  F       0.00361089       0.00930625      -0.13009904
C        9.07003171       6.39042893       2.02395746  T       0.02138705      -0.00652343      -0.00475439
O        7.76867079       6.52577289       1.92146647  T       0.01617097      -0.02545178      -0.02604699
O        9.85198301       7.40976175       2.13548571  T       0.00432568       0.00514514       0.01528711
O        9.57418134       5.17007810       1.92613400  T       0.03611214      -0.00271699      -0.00282849
C        4.62441742       6.44130096       2.61314783  T      -0.01659014       0.02666686      -0.06683758
O        4.74862532       6.21531317       3.81813839  T      -0.02394980      -0.01224842       0.07526663
O        0.32411373       0.17082539       2.10260865  T       0.02077089       0.00668610       0.01240533
O        4.46771932       5.37280252       1.78051607  T      -0.01712954       0.01034962      -0.00895793
44
Lattice="8.62960276 0.0 0.0 4.31480138 7.47345479 0.0 0.0 0.0 23.48680104" Properties=species:S:1:pos:R:3:move_mask:L:1:forces:R:3 energy=-160.39722932 stress="0.0058100008632955835 -0.000509683376600673 -5.550252627927999e-05 -0.000509683376600673 0.005332900348860215 -1.7251612363559964e-05 -5.550252627927999e-05 -1.7251612363559964e-05 0.0021937980646883747" free_energy=-160.38966829 pbc="T T T"
Ag       4.29026500       2.51133311       0.01696076  T      -0.00061660       0.00060641       0.01575747
Ag       8.62597250       0.03902750      23.46419946  T      -0.00154650      -0.00404991       0.00523359
Ag       1.44239034       2.48176671      23.48470155  T      -0.00703104       0.00135566       0.01751494
Ag       2.84707677       0.04722110       0.04278003  T      -0.00683910       0.00571157       0.00251088
Ag       5.80997257       0.11938082      23.41689563  T      -0.00351467       0.00467074       0.00709305
Ag      11.42857045       5.00216422       0.22802677  T      -0.00907363       0.00186091      -0.02313964
Ag       8.57481035       4.86771109      23.40891458  T      -0.01349698       0.00294991       0.00739932
Ag       7.18421174       2.49862921      23.48892519  T       0.00554268      -0.00511296       0.01536957
Ag       5.76984802       4.95825999       0.02709837  T      -0.00537468      -0.00571902      -0.00137504
Ag       1.45020927       0.81838239      21.14030779  T      -0.00022171       0.00178156       0.00587663
Ag       4.30392497       0.82679697      21.13869495  T      -0.00024627       0.00166010       0.00514423
Ag       2.87308847       3.34858642      21.17357332  T       0.00105510      -0.00127196       0.00926740
Ag       5.74599727       3.33392074      21.14307806  T       0.00210591      -0.00307129       0.00787830
Ag       7.20090963       0.82416946      21.11161866  T       0.00044850      -0.00105528       0.00582742
Ag       4.29599735       5.81223276      21.18010829  T       0.00144174       0.00029603       0.00067443
Ag      10.07795322       5.81494608      21.17952276  T      -0.00186982       0.00204247       0.00110030
Ag       7.18209822       5.81539456      21.15400036  T       0.00113761      -0.00022093      -0.00021031
Ag       8.62774222       3.31436779      21.10497401  T       0.00256025      -0.00182243       0.00628302
Ag       2.87653004       1.66077003      18.78943989  F      -0.00327203       0.04528411       0.14204249
Ag       4.31480004       4.15192003      18.78943989  F      -0.02475729       0.02200577       0.18515871
Ag       5.75307005       1.66077003      18.78943989  F      -0.01600898       0.02472327       0.11637614
Ag       7.19134005       4.15192003      18.78943989  F      -0.03376896       0.03240557       0.05688996
Ag       8.62960004       1.66077003      18.78943989  F       0.02719917      -0.00830081       0.05865112
Ag       5.75307005       6.64307004      18.78943989  F      -0.00591122      -0.04325176       0.12137549
Ag      11.50614005       6.64307004      18.78943989  F      -0.01310191      -0.07408963       0.06548101
Ag      10.06787004       4.15192003      18.78943989  F       0.04771849       0.03842015       0.13308091
Ag       8.62961005       6.64307004      18.78943989  F       0.01466536      -0.03811489       0.12630483
Ag       0.00000000       0.00000000      16.44076002  F       0.00025947      -0.00271197      -0.12620539
Ag       2.87653000       0.00000000      16.44076002  F      -0.00645905      -0.00222842      -0.13077353
Ag       1.43826724       2.49115000      16.44076002  F       0.00013082      -0.01479836      -0.11065489
Ag       4.31480000       2.49115000      16.44076002  F      -0.00670983      -0.00061221      -0.10721483
Ag       5.75307000       0.00000000      16.44076002  F       0.00578209      -0.01359308      -0.12239555
Ag       2.87654001       4.98231002      16.44076002  F       0.00552542       0.01709138      -0.12530331
Ag       8.62961001       4.98231002      16.44076002  F      -0.00763861       0.01035914      -0.12367473
Ag       7.19134001       2.49115000      16.44076002  F       0.00634670      -0.00063478      -0.12394167
Ag       5.75307000       4.98231002      16.44076002  F       0.00358855       0.00931257      -0.13011152
C        9.07133862       6.38999898       2.02369559  T       0.02260339      -0.00645109      -0.00398489
O        7.76983406       6.52418194       1.91984282  T       0.01435728      -0.02548612      -0.02490679
O        9.85215677       7.40995852       2.13637398  T       0.00430547       0.00488655       0.01450477
O        9.57634142       5.17005583       1.92590970  T       0.03641130      -0.00343144      -0.00425714
C        4.62369857       6.44208343       2.61206579  T      -0.00089621      -0.02165063       0.09944875
O        4.74681992       6.21510571       3.81979092  T      -0.03987218       0.01517318      -0.08310143
O        0.32536536       0.17126348       2.10325736  T       0.01956166       0.01548985       0.00848183
O        4.46671199       5.37370292       1.78006794  T      -0.01451969       0.01959209       0.00052409
44
Lattice="8.62960276 0.0 0.0 4.31480138 7.47345479 0.0 0.0 0.0 23.48680104" Properties=species:S:1:pos:R:3:move_mask:L:1:forces:R:3 energy=-160.39809261 stress="0.005846510327508582 -0.0005101588734904101 -6.43384809525739e-05 -0.0005101588734904101 0.005360198013444887 -9.243787362597372e-06 -6.43384809525739e-05 -9.243787362597372e-06 0.0021678495896823914" free_energy=-160.39054262 pbc="T T T"
Ag       4.29019735       2.51138842       0.01812711  T      -0.00145328       0.00053998       0.01411531
Ag       8.62588987       0.03865839      23.46491604  T      -0.00145903      -0.00397234       0.00665303
Ag       1.44188412       2.48185788      23.48599779  T      -0.00609578       0.00161123       0.01574658
Ag       2.84656702       0.04762631       0.04299235  T      -0.00563315       0.00484321       0.00230536
Ag       5.80970445       0.11972878      23.41739895  T      -0.00365658       0.00431489       0.00631661
Ag      11.42799576       5.00231182       0.22639139  T      -0.00721541       0.00171382      -0.02122490
Ag       8.57381221       4.86793074      23.40945196  T      -0.01214225       0.00290583       0.00733834
Ag       7.18458031       2.49825673      23.49006124  T       0.00370374      -0.00416690       0.01381014
Ag       5.76937128       4.95787429       0.02715427  T      -0.00576129      -0.00486509       0.00042333
Ag       1.45018981       0.81851205      21.14073149  T      -0.00032400       0.00169864       0.00527104
Ag       4.30390072       0.82692432      21.13906651  T      -0.00036292       0.00179736       0.00439535
Ag       2.87315634       3.34848785      21.17423518  T       0.00078217      -0.00114789       0.00785240
Ag       5.74615838       3.33368951      21.14364127  T       0.00200571      -0.00290786       0.00681799
Ag       7.20094851       0.82409360      21.11203884  T       0.00048300      -0.00081328       0.00523873
Ag       4.29609978       5.81225399      21.18013859  T       0.00115965       0.00028201       0.00026082
Ag      10.07780488       5.81508120      21.17960943  T      -0.00218302       0.00148302       0.00117303
Ag       7.18216372       5.81537229      21.15398862  T       0.00044583      -0.00036578      -0.00006632
Ag       8.62791908       3.31424022      21.10543835  T       0.00180716      -0.00129619       0.00589480
Ag       2.87653004       1.66077003      18.78943989  F      -0.00330505       0.04544311       0.14332281
Ag       4.31480004       4.15192003      18.78943989  F      -0.02467385       0.02145432       0.18659010
Ag       5.75307005       1.66077003      18.78943989  F      -0.01588581       0.02474788       0.11777538
Ag       7.19134005       4.15192003      18.78943989  F      -0.03365425       0.03180178       0.05822060
Ag       8.62960004       1.66077003      18.78943989  F       0.02712156      -0.00825290       0.06014414
Ag       5.75307005       6.64307004      18.78943989  F      -0.00595056      -0.04296972       0.12201419
Ag      11.50614005       6.64307004      18.78943989  F      -0.01313889      -0.07387205       0.06600844
Ag      10.06787004       4.15192003      18.78943989  F       0.04779410       0.03801871       0.13440491
Ag       8.62961005       6.64307004      18.78943989  F       0.01472481      -0.03784180       0.12679320
Ag       0.00000000       0.00000000      16.44076002  F       0.00025941      -0.00274466      -0.12625520
Ag       2.87653000       0.00000000      16.44076002  F      -0.00646585      -0.00224758      -0.13076917
Ag       1.43826724       2.49115000      16.44076002  F       0.00014987      -0.01488293      -0.11065775
Ag       4.31480000       2.49115000      16.44076002  F      -0.00677017      -0.00066250      -0.10722529
Ag       5.75307000       0.00000000      16.44076002  F       0.00576924      -0.01366441      -0.12239373
Ag       2.87654001       4.98231002      16.44076002  F       0.00550855       0.01703416      -0.12535979
Ag       8.62961001       4.98231002      16.44076002  F      -0.00766837       0.01029883      -0.12370485
Ag       7.19134001       2.49115000      16.44076002  F       0.00636007      -0.00065148      -0.12395245
Ag       5.75307000       4.98231002      16.44076002  F       0.00359495       0.00924526      -0.13017900
C        9.07295896       6.38947890       2.02342901  T       0.02144271      -0.00710551      -0.00369517
O        7.77119339       6.52220088       1.91801250  T       0.01513098      -0.02586540      -0.02348911
O        9.85237493       7.41019214       2.13745297  T       0.00435441       0.00474527       0.01450544
O        9.57900948       5.16999672       1.92560367  T       0.03628558      -0.00321506      -0.00475033
C        4.62302866       6.44249013       2.61275113  T      -0.00486697      -0.00968086       0.05324224
O        4.74445183       6.21512776       3.81986960  T      -0.03505778       0.00687641      -0.03978311
O        0.32682109       0.17195612       2.10399391  T       0.01855397       0.01525657       0.00825983
O        4.46559351       5.37487984       1.77967547  T      -0.01371318       0.01707989      -0.00138798
44
Lattice="8.62960276 0.0 0.0 4.31480138 7.47345479 0.0 0.0 0.0 23.48680104" Properties=species:S:1:pos:R:3:move_mask:L:1:forces:R:3 energy=-160.39850529999998 stress="0.0058477543164509515 -0.0005097506912765956 -7.174875635284268e-05 -0.0005097506912765956 0.0053672811900763945 -3.470597390956512e-06 -7.174875635284268e-05 -3.470597390956512e-06 0.0021570690928409287" free_energy=-160.3909458 pbc="T T T"
Ag       4.29011088       2.51141816       0.01890406  T      -0.00165184       0.00056429       0.01306655
Ag       8.62581864       0.03842096      23.46538460  T      -0.00107186      -0.00409703       0.00964029
Ag       1.44154839       2.48193927      23.48686234  T      -0.00561619       0.00126323       0.01440965
Ag       2.84625286       0.04788900       0.04312952  T      -0.00513221       0.00426879       0.00248176
Ag       5.80949945       0.11996487      23.41774961  T      -0.00362036       0.00403715       0.00579040
Ag      11.42762969       5.00241481       0.22524241  T      -0.00536669       0.00188040      -0.01925348
Ag       8.57314138       4.86809493      23.40986556  T      -0.01145862       0.00276939       0.00709494
Ag       7.18476969       2.49802722      23.49081728  T       0.00250004      -0.00374515       0.01246951
Ag       5.76902717       4.95761877       0.02722214  T      -0.00648281      -0.00408191       0.00215559
Ag       1.45017195       0.81860472      21.14102203  T      -0.00032834       0.00160844       0.00483656
Ag       4.30387863       0.82702402      21.13930960  T      -0.00044452       0.00173366       0.00412603
Ag       2.87319660       3.34842320      21.17466241  T       0.00056153      -0.00111190       0.00708301
Ag       5.74627160       3.33352943      21.14401307  T       0.00197433      -0.00267301       0.00617936
Ag       7.20097573       0.82404973      21.11232726  T       0.00050816      -0.00070321       0.00497035
Ag       4.29616122       5.81226968      21.18015174  T       0.00095001       0.00030166       0.00027436
Ag      10.07767970       5.81516049      21.17967872  T      -0.00232219       0.00124126       0.00138960
Ag       7.18218249       5.81535024      21.15399073  T       0.00008350      -0.00041255       0.00033576
Ag       8.62801314       3.31417415      21.10576834  T       0.00139409      -0.00087879       0.00580194
Ag       2.87653004       1.66077003      18.78943989  F      -0.00333841       0.04557137       0.14446388
Ag       4.31480004       4.15192003      18.78943989  F      -0.02460043       0.02109300       0.18786492
Ag       5.75307005       1.66077003      18.78943989  F      -0.01577424       0.02476270       0.11902033
Ag       7.19134005       4.15192003      18.78943989  F      -0.03356633       0.03140350       0.05939771
Ag       8.62960004       1.66077003      18.78943989  F       0.02707402      -0.00817577       0.06147921
Ag       5.75307005       6.64307004      18.78943989  F      -0.00598352      -0.04275404       0.12278161
Ag      11.50614005       6.64307004      18.78943989  F      -0.01316967      -0.07369826       0.06672600
Ag      10.06787004       4.15192003      18.78943989  F       0.04782861       0.03776124       0.13559693
Ag       8.62961005       6.64307004      18.78943989  F       0.01476501      -0.03765806       0.12747852
Ag       0.00000000       0.00000000      16.44076002  F       0.00027608      -0.00278510      -0.12612979
Ag       2.87653000       0.00000000      16.44076002  F      -0.00645140      -0.00226061      -0.13062746
Ag       1.43826724       2.49115000      16.44076002  F       0.00018350      -0.01491496      -0.11050439
Ag       4.31480000       2.49115000      16.44076002  F      -0.00681013      -0.00067276      -0.10709228
Ag       5.75307000       0.00000000      16.44076002  F       0.00575945      -0.01371280      -0.12225949
Ag       2.87654001       4.98231002      16.44076002  F       0.00551455       0.01701572      -0.12525859
Ag       8.62961001       4.98231002      16.44076002  F      -0.00767674       0.01028673      -0.12359818
Ag       7.19134001       2.49115000      16.44076002  F       0.00638107      -0.00063014      -0.12378805
Ag       5.75307000       4.98231002      16.44076002  F       0.00359086       0.00921761      -0.13007319
C        9.07415403       6.38908901       2.02321810  T       0.02041849      -0.00735429      -0.00342683
O        7.77213281       6.52073235       1.91671673  T       0.01830908      -0.02629726      -0.02216607
O        9.85256499       7.41037980       2.13824612  T       0.00256109       0.00213045       0.01330915
O        9.58100326       5.16989807       1.92534390  T       0.03434771      -0.00012830      -0.00449941
C        4.62257616       6.44266553       2.61361592  T      -0.01058274       0.01291286      -0.01703940
O        4.74269156       6.21518052       3.81956145  T      -0.02771103      -0.00413820       0.02359104
O        0.32784387       0.17254757       2.10450968  T       0.01726873       0.00741650       0.00878495
O        4.46482724       5.37574340       1.77945141  T      -0.01308965       0.01364414      -0.00688332
44
Lattice="8.62960276 0.0 0.0 4.31480138 7.47345479 0.0 0.0 0.0 23.48680104" Properties=species:S:1:pos:R:3:move_mask:L:1:forces:R:3 energy=-160.39873967000003 stress="0.005830219988690027 -0.0005114555907018763 -6.396386557483838e-05 -0.0005114555907018763 0.00534491882407076 -1.0841488868640968e-05 -6.396386557483838e-05 -1.0841488868640968e-05 0.0022655686288741033" free_energy=-160.3911802 pbc="T T T"
Ag       4.28997583       2.51146629       0.01988416  T      -0.00202960       0.00030629       0.01166321
Ag       8.62573312       0.03813203      23.46607864  T      -0.00186234      -0.00191140       0.00237218
Ag       1.44112679       2.48203994      23.48792700  T      -0.00502121       0.00170672       0.01232001
Ag       2.84587346       0.04820461       0.04330590  T      -0.00371334       0.00374291       0.00161316
Ag       5.80921761       0.12027277      23.41816110  T      -0.00348236       0.00363181       0.00487746
Ag      11.42724714       5.00255157       0.22377238  T      -0.00581585       0.00134151      -0.01963776
Ag       8.57226496       4.86829208      23.41037499  T      -0.01066055       0.00226363       0.00673485
Ag       7.18493270       2.49775908      23.49174243  T       0.00136495      -0.00282265       0.01085522
Ag       5.76853542       4.95731258       0.02738185  T      -0.00471582      -0.00425078      -0.00014715
Ag       1.45013929       0.81872721      21.14137949  T      -0.00041209       0.00140138       0.00434531
Ag       4.30384243       0.82715802      21.13960201  T      -0.00049376       0.00165070       0.00327772
Ag       2.87323431       3.34834039      21.17518076  T       0.00037093      -0.00095842       0.00599201
Ag       5.74641218       3.33333063      21.14446402  T       0.00150175      -0.00227302       0.00515127
Ag       7.20101793       0.82400085      21.11269342  T       0.00044300      -0.00057926       0.00445829
Ag       4.29622966       5.81229539      21.18016278  T       0.00070202       0.00036832       0.00011499
Ag      10.07749676       5.81525152      21.17977807  T      -0.00246702       0.00105046       0.00122527
Ag       7.18217524       5.81532080      21.15401539  T      -0.00036951      -0.00033459       0.00042293
Ag       8.62811277       3.31411160      21.10620425  T       0.00093865      -0.00057643       0.00531728
Ag       2.87653004       1.66077003      18.78943989  F      -0.00342958       0.04577475       0.14565610
Ag       4.31480004       4.15192003      18.78943989  F      -0.02451634       0.02069733       0.18912869
Ag       5.75307005       1.66077003      18.78943989  F      -0.01562214       0.02483842       0.12034151
Ag       7.19134005       4.15192003      18.78943989  F      -0.03343600       0.03095279       0.06068630
Ag       8.62960004       1.66077003      18.78943989  F       0.02701005      -0.00802374       0.06296000
Ag       5.75307005       6.64307004      18.78943989  F      -0.00603220      -0.04243895       0.12348536
Ag      11.50614005       6.64307004      18.78943989  F      -0.01323835      -0.07342130       0.06740284
Ag      10.06787004       4.15192003      18.78943989  F       0.04779968       0.03745333       0.13689296
Ag       8.62961005       6.64307004      18.78943989  F       0.01477491      -0.03741947       0.12810640
Ag       0.00000000       0.00000000      16.44076002  F       0.00026445      -0.00279651      -0.12618816
Ag       2.87653000       0.00000000      16.44076002  F      -0.00643533      -0.00224552      -0.13061038
Ag       1.43826724       2.49115000      16.44076002  F       0.00022318      -0.01488463      -0.11050516
Ag       4.31480000       2.49115000      16.44076002  F      -0.00685098      -0.00064091      -0.10707606
Ag       5.75307000       0.00000000      16.44076002  F       0.00574223      -0.01372379      -0.12225973
Ag       2.87654001       4.98231002      16.44076002  F       0.00549266       0.01701895      -0.12529906
Ag       8.62961001       4.98231002      16.44076002  F      -0.00768721       0.01029857      -0.12361375
Ag       7.19134001       2.49115000      16.44076002  F       0.00636196      -0.00056906      -0.12378835
Ag       5.75307000       4.98231002      16.44076002  F       0.00358040       0.00921028      -0.13011894
C        9.07574520       6.38853171       2.02298934  T       0.02083782      -0.00899872      -0.00378260
O        7.77363117       6.51867954       1.91498458  T       0.01167394      -0.02554680      -0.02198034
O        9.85270760       7.41048271       2.13924947  T       0.00647125       0.00695544       0.01297522
O        9.58363507       5.16991189       1.92498033  T       0.03558454      -0.00412420      -0.00498811
C        4.62180632       6.44353828       2.61277955  T       0.00139830      -0.02999769       0.11928968
O        4.74047802       6.21496177       3.82096291  T      -0.03983648       0.01852572      -0.10653738
O        0.32916161       0.17306294       2.10514476  T       0.01633043       0.01918377       0.00561022
O        4.46384126       5.37687017       1.77890018  T      -0.01073904       0.02016475       0.00325650
44
Lattice="8.62960276 0.0 0.0 4.31480138 7.47345479 0.0 0.0 0.0 23.48680104" Properties=species:S:1:pos:R:3:move_mask:L:1:forces:R:3 energy=-160.39894051 stress="0.005796688304790423 -0.0005081544003516145 -7.444412710281885e-05 -0.0005081544003516145 0.005324309080069183 2.143103297990653e-06 -7.444412710281885e-05 2.143103297990653e-06 0.0022321923086196615" free_energy=-160.391346 pbc="T T T"
Ag       4.28987231       2.51148550       0.02045888  T      -0.00205060       0.00047606       0.01073007
Ag       8.62566356       0.03799751      23.46639383  T      -0.00091472      -0.00309772       0.00947931
Ag       1.44087308       2.48211602      23.48854165  T      -0.00483189       0.00120472       0.01161104
Ag       2.84567692       0.04838524       0.04339774  T      -0.00406931       0.00327307       0.00206202
Ag       5.80903699       0.12045393      23.41840630  T      -0.00349746       0.00355834       0.00433572
Ag      11.42701073       5.00263116       0.22282445  T      -0.00333654       0.00185270      -0.01757567
Ag       8.57173683       4.86841150      23.41070240  T      -0.01014730       0.00222036       0.00615524
Ag       7.18499384       2.49761746      23.49227981  T       0.00079493      -0.00265645       0.01011235
Ag       5.76825612       4.95712014       0.02744245  T      -0.00633779      -0.00316486       0.00253257
Ag       1.45011815       0.81880045      21.14160285  T      -0.00050957       0.00144444       0.00401914
Ag       4.30381546       0.82724329      21.13977535  T      -0.00057944       0.00163897       0.00309179
Ag       2.87325023       3.34829025      21.17548703  T       0.00025793      -0.00101082       0.00544975
Ag       5.74648613       3.33321913      21.14472895  T       0.00129035      -0.00210448       0.00478256
Ag       7.20104089       0.82397365      21.11292242  T       0.00051782      -0.00049200       0.00414613
Ag       4.29626288       5.81231363      21.18017452  T       0.00054608       0.00038971       0.00000060
Ag      10.07737193       5.81530286      21.17984712  T      -0.00250847       0.00097610       0.00116787
Ag       7.18215366       5.81530181      21.15404616  T      -0.00056018      -0.00034647       0.00046439
Ag       8.62815704       3.31408469      21.10648257  T       0.00077374      -0.00049643       0.00518064
Ag       2.87653004       1.66077003      18.78943989  F      -0.00346784       0.04587734       0.14684996
Ag       4.31480004       4.15192003      18.78943989  F      -0.02443695       0.02043635       0.19046498
Ag       5.75307005       1.66077003      18.78943989  F      -0.01546993       0.02483343       0.12166962
Ag       7.19134005       4.15192003      18.78943989  F      -0.03330612       0.03065942       0.06196070
Ag       8.62960004       1.66077003      18.78943989  F       0.02698393      -0.00788638       0.06444070
Ag       5.75307005       6.64307004      18.78943989  F      -0.00604786      -0.04222624       0.12449879
Ag      11.50614005       6.64307004      18.78943989  F      -0.01325973      -0.07323293       0.06841825
Ag      10.06787004       4.15192003      18.78943989  F       0.04780167       0.03727621       0.13817011
Ag       8.62961005       6.64307004      18.78943989  F       0.01481266      -0.03727455       0.12907248
Ag       0.00000000       0.00000000      16.44076002  F       0.00031676      -0.00284447      -0.12576564
Ag       2.87653000       0.00000000      16.44076002  F      -0.00639409      -0.00225511      -0.13022779
Ag       1.43826724       2.49115000      16.44076002  F       0.00028125      -0.01489705      -0.11008282
Ag       4.31480000       2.49115000      16.44076002  F      -0.00687390      -0.00061798      -0.10669959
Ag       5.75307000       0.00000000      16.44076002  F       0.00576021      -0.01376583      -0.12189086
Ag       2.87654001       4.98231002      16.44076002  F       0.00554129       0.01704349      -0.12493469
Ag       8.62961001       4.98231002      16.44076002  F      -0.00766620       0.01034034      -0.12327087
Ag       7.19134001       2.49115000      16.44076002  F       0.00642255      -0.00051745      -0.12333219
Ag       5.75307000       4.98231002      16.44076002  F       0.00357410       0.00923215      -0.12972360
C        9.07678865       6.38816589       2.02279816  T       0.01969658      -0.00867004      -0.00361714
O        7.77445586       6.51736055       1.91387835  T       0.01771623      -0.02606586      -0.02173908
O        9.85286517       7.41061544       2.13987516  T       0.00314540       0.00267725       0.01253886
O        9.58538149       5.16982064       1.92473559  T       0.03415123      -0.00173786      -0.00495394
C        4.62149815       6.44344113       2.61437055  T      -0.01260385       0.02057117      -0.04419096
O        4.73886373       6.21516677       3.81976273  T      -0.02546146      -0.00781348       0.04737678
O        0.32997694       0.17363795       2.10551632  T       0.01569131       0.00465314       0.00716521
O        4.46325821       5.37763971       1.77873506  T      -0.01174484       0.01253969      -0.00994283
44
Lattice="8.62960276 0.0 0.0 4.31480138 7.47345479 0.0 0.0 0.0 23.48680104" Properties=species:S:1:pos:R:3:move_mask:L:1:forces:R:3 energy=-160.39973637000003 stress="0.0058551803079712 -0.0005096251994941106 -7.628130907251347e-05 -0.0005096251994941106 0.005370075020632832 -2.7455150342935273e-06 -7.628130907251347e-05 -2.7455150342935273e-06 0.0022409188371549605" free_energy=-160.3921759 pbc="T T T"
Ag       4.28976151       2.51150732       0.02101552  T      -0.00218667       0.00024354       0.01006442
Ag       8.62560350       0.03786493      23.46679263  T      -0.00126314      -0.00194627       0.00575199
Ag       1.44062028       2.48218634      23.48913962  T      -0.00460427       0.00142511       0.01063363
Ag       2.84547836       0.04855399       0.04349474  T      -0.00315727       0.00288321       0.00174676
Ag       5.80885059       0.12064062      23.41863365  T      -0.00349227       0.00336318       0.00434880
Ag      11.42681911       5.00272062       0.22188310  T      -0.00387462       0.00141186      -0.01767412
Ag       8.57120235       4.86852428      23.41102487  T      -0.00974409       0.00210437       0.00646146
Ag       7.18502620       2.49748861      23.49280098  T       0.00030459      -0.00216835       0.00930319
Ag       5.76794420       4.95694668       0.02754156  T      -0.00523478      -0.00322029       0.00114467
Ag       1.45009023       0.81887601      21.14180977  T      -0.00054506       0.00141423       0.00380024
Ag       4.30378444       0.82732826      21.13992825  T      -0.00059720       0.00156243       0.00265196
Ag       2.87326175       3.34823935      21.17576300  T       0.00013632      -0.00090634       0.00480947
Ag       5.74655021       3.33311353      21.14497157  T       0.00102853      -0.00179869       0.00430266
Ag       7.20106656       0.82394832      21.11313427  T       0.00035657      -0.00045213       0.00383453
Ag       4.29628881       5.81233478      21.18017217  T       0.00036577       0.00038694      -0.00003001
Ag      10.07723830       5.81535345      21.17990442  T      -0.00247206       0.00088510       0.00103361
Ag       7.18212169       5.81528485      21.15406824  T      -0.00069726      -0.00031887       0.00045421
Ag       8.62819333       3.31406190      21.10674727  T       0.00049658      -0.00026807       0.00481586
Ag       2.87653004       1.66077003      18.78943989  F      -0.00352273       0.04598220       0.14669005
Ag       4.31480004       4.15192003      18.78943989  F      -0.02441097       0.02026892       0.19034405
Ag       5.75307005       1.66077003      18.78943989  F      -0.01539317       0.02487158       0.12161865
Ag       7.19134005       4.15192003      18.78943989  F      -0.03322689       0.03048258       0.06194093
Ag       8.62960004       1.66077003      18.78943989  F       0.02693524      -0.00775556       0.06450648
Ag       5.75307005       6.64307004      18.78943989  F      -0.00603828      -0.04206890       0.12416016
Ag      11.50614005       6.64307004      18.78943989  F      -0.01334715      -0.07309392       0.06801816
Ag      10.06787004       4.15192003      18.78943989  F       0.04773570       0.03714491       0.13820387
Ag       8.62961005       6.64307004      18.78943989  F       0.01481064      -0.03716661       0.12872520
Ag       0.00000000       0.00000000      16.44076002  F       0.00030670      -0.00279717      -0.12618150
Ag       2.87653000       0.00000000      16.44076002  F      -0.00640819      -0.00220188      -0.13057774
Ag       1.43826724       2.49115000      16.44076002  F       0.00028870      -0.01490116      -0.11046433
Ag       4.31480000       2.49115000      16.44076002  F      -0.00690024      -0.00061107      -0.10706473
Ag       5.75307000       0.00000000      16.44076002  F       0.00575477      -0.01375391      -0.12223323
Ag       2.87654001       4.98231002      16.44076002  F       0.00551907       0.01705453      -0.12533726
Ag       8.62961001       4.98231002      16.44076002  F      -0.00768602       0.01035095      -0.12361353
Ag       7.19134001       2.49115000      16.44076002  F       0.00642113      -0.00049763      -0.12374279
Ag       5.75307000       4.98231002      16.44076002  F       0.00359822       0.00923922      -0.13013318
C        9.07786558       6.38773863       2.02261801  T       0.01939083      -0.00811170      -0.00367967
O        7.77536201       6.51597998       1.91275709  T       0.01439884      -0.02547479      -0.02023458
O        9.85301624       7.41073106       2.14051706  T       0.00475316       0.00429791       0.01244881
O        9.58718745       5.16973074       1.92448076  T       0.03469165      -0.00349768      -0.00460259
C        4.62098551       6.44398423       2.61386065  T      -0.00691529       0.00134245       0.01914615
O        4.73737417       6.21504645       3.82058877  T      -0.03000875       0.00164939      -0.01003699
O        0.33079705       0.17401588       2.10587567  T       0.01504948       0.01127831       0.00769672
O        4.46266665       5.37837809       1.77834683  T      -0.01061612       0.01336813      -0.00305043
44
Lattice="8.62960276 0.0 0.0 4.31480138 7.47345479 0.0 0.0 0.0 23.48680104" Properties=species:S:1:pos:R:3:move_mask:L:1:forces:R:3 energy=-160.39984597 stress="0.005858010189484348 -0.0005048964699011042 -9.118484073687964e-05 -0.0005048964699011042 0.005385997204035597 8.503082508592303e-06 -9.118484073687964e-05 8.503082508592303e-06 0.0021677834047196206" free_energy=-160.39227539 pbc="T T T"
Ag       4.28953628       2.51153407       0.02198271  T      -0.00217925       0.00052875       0.00870638
Ag       8.62548735       0.03769035      23.46739084  T      -0.00022603      -0.00297578       0.01321247
Ag       1.44017404       2.48232535      23.49017022  T      -0.00422478       0.00103492       0.00944365
Ag       2.84517153       0.04883417       0.04367934  T      -0.00362784       0.00264085       0.00222971
Ag       5.80850273       0.12097124      23.41907098  T      -0.00344135       0.00318703       0.00442358
Ag      11.42646970       5.00286680       0.22018782  T      -0.00128874       0.00170947      -0.01492705
Ag       8.57024788       4.86872524      23.41168273  T      -0.00919213       0.00164847       0.00515538
Ag       7.18502806       2.49728959      23.49369747  T      -0.00040487      -0.00186654       0.00830099
Ag       5.76741184       4.95663997       0.02768272  T      -0.00645515      -0.00226233       0.00363263
Ag       1.45003422       0.81901352      21.14219143  T      -0.00062975       0.00129563       0.00308064
Ag       4.30372412       0.82747818      21.14019412  T      -0.00072236       0.00126852       0.00217113
Ag       2.87326317       3.34815453      21.17622545  T      -0.00028259      -0.00079487       0.00389682
Ag       5.74664544       3.33293753      21.14538775  T       0.00081294      -0.00161584       0.00348589
Ag       7.20109853       0.82390639      21.11352133  T       0.00022746      -0.00044283       0.00317681
Ag       4.29631703       5.81237618      21.18018039  T       0.00005285       0.00048555      -0.00019547
Ag      10.07698813       5.81543716      21.18001904  T      -0.00250616       0.00076509       0.00100146
Ag       7.18204674       5.81525294      21.15413165  T      -0.00087931      -0.00029761       0.00051209
Ag       8.62822970       3.31404135      21.10722828  T       0.00016037      -0.00001727       0.00438019
Ag       2.87653004       1.66077003      18.78943989  F      -0.00362467       0.04611189       0.14807508
Ag       4.31480004       4.15192003      18.78943989  F      -0.02433967       0.01990162       0.19185060
Ag       5.75307005       1.66077003      18.78943989  F      -0.01518869       0.02485893       0.12320455
Ag       7.19134005       4.15192003      18.78943989  F      -0.03306408       0.03003970       0.06343231
Ag       8.62960004       1.66077003      18.78943989  F       0.02685943      -0.00755552       0.06641405
Ag       5.75307005       6.64307004      18.78943989  F      -0.00609786      -0.04174722       0.12524247
Ag      11.50614005       6.64307004      18.78943989  F      -0.01341422      -0.07280866       0.06905400
Ag      10.06787004       4.15192003      18.78943989  F       0.04766817       0.03684849       0.13973130
Ag       8.62961005       6.64307004      18.78943989  F       0.01480643      -0.03694095       0.12973696
Ag       0.00000000       0.00000000      16.44076002  F       0.00033327      -0.00283177      -0.12593398
Ag       2.87653000       0.00000000      16.44076002  F      -0.00640084      -0.00218196      -0.13033279
Ag       1.43826724       2.49115000      16.44076002  F       0.00034208      -0.01493915      -0.11020677
Ag       4.31480000       2.49115000      16.44076002  F      -0.00694069      -0.00058382      -0.10687117
Ag       5.75307000       0.00000000      16.44076002  F       0.00580191      -0.01379028      -0.12200660
Ag       2.87654001       4.98231002      16.44076002  F       0.00556412       0.01706310      -0.12514542
Ag       8.62961001       4.98231002      16.44076002  F      -0.00768892       0.01034373      -0.12343699
Ag       7.19134001       2.49115000      16.44076002  F       0.00647235      -0.00045184      -0.12346218
Ag       5.75307000       4.98231002      16.44076002  F       0.00358947       0.00922654      -0.12991747
C        9.07983261       6.38686977       2.02226548  T       0.02295626      -0.00039328      -0.00245374
O        7.77700064       6.51341905       1.91075085  T       0.01842108      -0.02628250      -0.01820591
O        9.85337751       7.41100421       2.14172028  T      -0.00242840      -0.00577298       0.00968842
O        9.59057431       5.16950579       1.92398355  T       0.03275209      -0.00169334      -0.00413033
C        4.62025674       6.44412637       2.61557190  T      -0.02066194       0.06022691      -0.15438126
O        4.73436188       6.21525742       3.81957061  T      -0.01374718      -0.02612013       0.15125526
O        0.33226542       0.17511859       2.10652719  T       0.01358530      -0.00923332       0.01205402
O        4.46163860       5.37975858       1.77792970  T      -0.01074810       0.00441460      -0.01494170
44
Lattice="8.62960276 0.0 0.0 4.31480138 7.47345479 0.0 0.0 0.0 23.48680104" Properties=species:S:1:pos:R:3:move_mask:L:1:forces:R:3 energy=-160.40032301999997 stress="0.005832273189290568 -0.0005081591251740228 -7.296284846650036e-05 -0.0005081591251740228 0.0053540632840571286 -8.453275265767754e-06 -7.296284846650036e-05 -8.453275265767754e-06 0.002359090740016371" free_energy=-160.39276112 pbc="T T T"
Ag       4.28931890       2.51157652       0.02274697  T      -0.00245478       0.00019438       0.00716862
Ag       8.62540511       0.03756046      23.46803109  T      -0.00152607       0.00037496       0.00034900
Ag       1.43980016       2.48245232      23.49099461  T      -0.00403726       0.00157698       0.00740558
Ag       2.84491687       0.04905479       0.04386442  T      -0.00194736       0.00229821       0.00120028
Ag       5.80819664       0.12126794      23.41942304  T      -0.00343299       0.00294121       0.00397843
Ag      11.42627243       5.00299505       0.21873446  T      -0.00339972       0.00082361      -0.01675240
Ag       8.56943169       4.86886574      23.41219052  T      -0.00831177       0.00124247       0.00546551
Ag       7.18497179       2.49714237      23.49442227  T      -0.00088101      -0.00132829       0.00673567
Ag       5.76691119       4.95640523       0.02785159  T      -0.00361716      -0.00299432      -0.00097191
Ag       1.44997252       0.81913414      21.14248455  T      -0.00073539       0.00119940       0.00288632
Ag       4.30365672       0.82759118      21.14037919  T      -0.00070696       0.00113646       0.00156055
Ag       2.87323828       3.34808555      21.17656531  T      -0.00027545      -0.00069881       0.00309646
Ag       5.74670028       3.33279979      21.14570295  T       0.00027094      -0.00130998       0.00304929
Ag       7.20111886       0.82387149      21.11382384  T       0.00002376      -0.00034780       0.00304516
Ag       4.29631932       5.81242289      21.18017664  T      -0.00014124       0.00055858      -0.00009414
Ag      10.07675073       5.81550666      21.18011111  T      -0.00248444       0.00069569       0.00079547
Ag       7.18195725       5.81523216      21.15418708  T      -0.00111265      -0.00015582       0.00050863
Ag       8.62823691       3.31403903      21.10761886  T      -0.00015245       0.00004505       0.00382216
Ag       2.87653004       1.66077003      18.78943989  F      -0.00380215       0.04626307       0.14874099
Ag       4.31480004       4.15192003      18.78943989  F      -0.02430984       0.01963071       0.19250560
Ag       5.75307005       1.66077003      18.78943989  F      -0.01504147       0.02490479       0.12407224
Ag       7.19134005       4.15192003      18.78943989  F      -0.03293508       0.02971316       0.06432980
Ag       8.62960004       1.66077003      18.78943989  F       0.02676543      -0.00737383       0.06750994
Ag       5.75307005       6.64307004      18.78943989  F      -0.00615667      -0.04146950       0.12566686
Ag      11.50614005       6.64307004      18.78943989  F      -0.01356750      -0.07256342       0.06942806
Ag      10.06787004       4.15192003      18.78943989  F       0.04747578       0.03661544       0.14060789
Ag       8.62961005       6.64307004      18.78943989  F       0.01474766      -0.03684261       0.13008113
Ag       0.00000000       0.00000000      16.44076002  F       0.00030705      -0.00284235      -0.12608734
Ag       2.87653000       0.00000000      16.44076002  F      -0.00637449      -0.00216024      -0.13036886
Ag       1.43826724       2.49115000      16.44076002  F       0.00038356      -0.01490660      -0.11028590
Ag       4.31480000       2.49115000      16.44076002  F      -0.00700423      -0.00057811      -0.10689808
Ag       5.75307000       0.00000000      16.44076002  F       0.00574157      -0.01381196      -0.12206616
Ag       2.87654001       4.98231002      16.44076002  F       0.00550759       0.01705268      -0.12525439
Ag       8.62961001       4.98231002      16.44076002  F      -0.00770516       0.01036171      -0.12348898
Ag       7.19134001       2.49115000      16.44076002  F       0.00643268      -0.00039279      -0.12354818
Ag       5.75307000       4.98231002      16.44076002  F       0.00357354       0.00920614      -0.13003774
C        9.08164979       6.38615672       2.02201722  T       0.02236701      -0.00272116      -0.00289085
O        7.77855863       6.51102007       1.90903396  T       0.01792751      -0.02617334      -0.01753877
O        9.85362216       7.41110181       2.14273327  T      -0.00101608      -0.00391300       0.00873395
O        9.59364636       5.16932911       1.92356360  T       0.03248252      -0.00126005      -0.00447175
C        4.61932716       6.44543363       2.61365021  T       0.00122710      -0.02516431       0.11626215
O        4.73192751       6.21495766       3.82195288  T      -0.03751001       0.02034251      -0.10785936
O        0.33350429       0.17554084       2.10712634  T       0.01301096       0.01395006       0.00571527
O        4.46076844       5.38093319       1.77725986  T      -0.00760531       0.01788101       0.00389379
44
Lattice="8.62960276 0.0 0.0 4.31480138 7.47345479 0.0 0.0 0.0 23.48680104" Properties=species:S:1:pos:R:3:move_mask:L:1:forces:R:3 energy=-160.40082605999999 stress="0.005862078617343909 -0.0005080224735732207 -8.535434746995405e-05 -0.0005080224735732207 0.005383290754606922 1.8751428281982332e-06 -8.535434746995405e-05 1.8751428281982332e-06 0.002297228777537783" free_energy=-160.3932658 pbc="T T T"
Ag       4.28919079       2.51159528       0.02311477  T      -0.00248121       0.00035970       0.00703945
Ag       8.62535423       0.03752631      23.46827254  T      -0.00078151      -0.00087330       0.00590341
Ag       1.43959318       2.48252295      23.49137416  T      -0.00380407       0.00130421       0.00716700
Ag       2.84480210       0.04916778       0.04395696  T      -0.00225360       0.00208757       0.00188323
Ag       5.80802538       0.12142271      23.41960742  T      -0.00339827       0.00284674       0.00373398
Ag      11.42615261       5.00305551       0.21792604  T      -0.00168611       0.00129208      -0.01504218
Ag       8.56901151       4.86893644      23.41249139  T      -0.00795728       0.00114686       0.00556782
Ag       7.18492692       2.49707032      23.49476964  T      -0.00103930      -0.00136838       0.00668109
Ag       5.76667630       4.95627534       0.02788353  T      -0.00472286      -0.00217726       0.00128488
Ag       1.44993606       0.81919834      21.14263392  T      -0.00073163       0.00115627       0.00283380
Ag       4.30361893       0.82765126      21.14046750  T      -0.00080377       0.00102044       0.00160948
Ag       2.87322115       3.34804975      21.17672502  T      -0.00040301      -0.00068356       0.00287493
Ag       5.74671499       3.33273560      21.14585819  T       0.00019498      -0.00118159       0.00279665
Ag       7.20111825       0.82385535      21.11398191  T      -0.00005135      -0.00032348       0.00294913
Ag       4.29631021       5.81245166      21.18017476  T      -0.00024933       0.00055734      -0.00001993
Ag      10.07662193       5.81554231      21.18015644  T      -0.00252570       0.00070584       0.00087349
Ag       7.18190051       5.81522177      21.15421785  T      -0.00110632      -0.00019364       0.00066765
Ag       8.62822776       3.31404307      21.10781944  T      -0.00025640       0.00007122       0.00373641
Ag       2.87653004       1.66077003      18.78943989  F      -0.00385069       0.04629881       0.14903961
Ag       4.31480004       4.15192003      18.78943989  F      -0.02427987       0.01949460       0.19288416
Ag       5.75307005       1.66077003      18.78943989  F      -0.01495067       0.02487699       0.12450542
Ag       7.19134005       4.15192003      18.78943989  F      -0.03284561       0.02955753       0.06476951
Ag       8.62960004       1.66077003      18.78943989  F       0.02671119      -0.00725382       0.06810704
Ag       5.75307005       6.64307004      18.78943989  F      -0.00616389      -0.04134138       0.12596588
Ag      11.50614005       6.64307004      18.78943989  F      -0.01363535      -0.07244603       0.06967079
Ag      10.06787004       4.15192003      18.78943989  F       0.04738461       0.03651607       0.14106446
Ag       8.62961005       6.64307004      18.78943989  F       0.01474771      -0.03677913       0.13034965
Ag       0.00000000       0.00000000      16.44076002  F       0.00032517      -0.00285209      -0.12623128
Ag       2.87653000       0.00000000      16.44076002  F      -0.00635832      -0.00214300      -0.13050371
Ag       1.43826724       2.49115000      16.44076002  F       0.00041478      -0.01492189      -0.11043617
Ag       4.31480000       2.49115000      16.44076002  F      -0.00702649      -0.00058595      -0.10707428
Ag       5.75307000       0.00000000      16.44076002  F       0.00575112      -0.01382560      -0.12220018
Ag       2.87654001       4.98231002      16.44076002  F       0.00552249       0.01705314      -0.12542940
Ag       8.62961001       4.98231002      16.44076002  F      -0.00770176       0.01035549      -0.12363663
Ag       7.19134001       2.49115000      16.44076002  F       0.00646439      -0.00037633      -0.12370086
Ag       5.75307000       4.98231002      16.44076002  F       0.00358622       0.00920061      -0.13020305
C        9.08266182       6.38577177       2.02183614  T       0.02104301      -0.00515991      -0.00288124
O        7.77939432       6.50968142       1.90810600  T       0.01881272      -0.02621512      -0.01730946
O        9.85376464       7.41115831       2.14325538  T      -0.00028245      -0.00283124       0.00931341
O        9.59536616       5.16919280       1.92331535  T       0.03209032      -0.00047898      -0.00436118
C        4.61898702       6.44552264       2.61471439  T      -0.00855440       0.00925467      -0.00443185
O        4.73041625       6.21514592       3.82113084  T      -0.02702797      -0.00013351       0.00773407
O        0.33416230       0.17606682       2.10745633  T       0.01226185       0.00684279       0.00654803
O        4.46032556       5.38154975       1.77712363  T      -0.00838140       0.01214624      -0.00409303
44
Lattice="8.62960276 0.0 0.0 4.31480138 7.47345479 0.0 0.0 0.0 23.48680104" Properties=species:S:1:pos:R:3:move_mask:L:1:forces:R:3 energy=-160.40185029999998 stress="0.005956784568005102 -0.0005147257669932915 -8.869477194658115e-05 -0.0005147257669932915 0.005463370359024028 -1.05078302737895e-05 -8.869477194658115e-05 -1.05078302737895e-05 0.002313042870485506" free_energy=-160.39434647 pbc="T T T"
Ag       4.28890550       2.51164236       0.02385437  T      -0.00267759       0.00000509       0.00572216
Ag       8.62527294       0.03744739      23.46894356  T      -0.00142666       0.00101480      -0.00070126
Ag       1.43917193       2.48267159      23.49213301  T      -0.00350210       0.00168896       0.00587094
Ag       2.84455486       0.04940245       0.04418102  T      -0.00117891       0.00189163       0.00206552
Ag       5.80765811       0.12174766      23.41999049  T      -0.00298168       0.00258080       0.00301434
Ag      11.42598390       5.00320363       0.21625425  T      -0.00300032       0.00090731      -0.01533941
Ag       8.56813626       4.86905908      23.41311167  T      -0.00704307       0.00147674       0.00712224
Ag       7.18479821       2.49692123      23.49547284  T      -0.00134903      -0.00099844       0.00560610
Ag       5.76613496       4.95604142       0.02802234  T      -0.00300552      -0.00239366      -0.00114983
Ag       1.44985015       0.81932740      21.14295382  T      -0.00075825       0.00107706       0.00279065
Ag       4.30352594       0.82776852      21.14064882  T      -0.00082089       0.00096089       0.00133120
Ag       2.87316631       3.34797704      21.17701978  T      -0.00053242      -0.00055473       0.00198981
Ag       5.74672798       3.33261326      21.14616751  T      -0.00015965      -0.00084530       0.00247817
Ag       7.20111212       0.82382934      21.11431143  T      -0.00026226      -0.00014685       0.00279395
Ag       4.29627552       5.81252146      21.18017922  T      -0.00044522       0.00064184       0.00019010
Ag      10.07633793       5.81561734      21.18025039  T      -0.00250027       0.00065233       0.00067469
Ag       7.18177198       5.81520167      21.15430123  T      -0.00110863      -0.00017633       0.00074769
Ag       8.62818988       3.31406235      21.10824009  T      -0.00055641       0.00041842       0.00351725
Ag       2.87653004       1.66077003      18.78943989  F      -0.00397014       0.04639599       0.14941348
Ag       4.31480004       4.15192003      18.78943989  F      -0.02422919       0.01932278       0.19327125
Ag       5.75307005       1.66077003      18.78943989  F      -0.01482276       0.02490437       0.12515195
Ag       7.19134005       4.15192003      18.78943989  F      -0.03272172       0.02936840       0.06548803
Ag       8.62960004       1.66077003      18.78943989  F       0.02661327      -0.00702982       0.06906892
Ag       5.75307005       6.64307004      18.78943989  F      -0.00615247      -0.04104146       0.12631208
Ag      11.50614005       6.64307004      18.78943989  F      -0.01378178      -0.07213719       0.06985008
Ag      10.06787004       4.15192003      18.78943989  F       0.04715862       0.03634248       0.14179101
Ag       8.62961005       6.64307004      18.78943989  F       0.01467569      -0.03660837       0.13060224
Ag       0.00000000       0.00000000      16.44076002  F       0.00033624      -0.00272408      -0.12682562
Ag       2.87653000       0.00000000      16.44076002  F      -0.00634661      -0.00198992      -0.13098020
Ag       1.43826724       2.49115000      16.44076002  F       0.00048586      -0.01489642      -0.11100537
Ag       4.31480000       2.49115000      16.44076002  F      -0.00706851      -0.00057280      -0.10763816
Ag       5.75307000       0.00000000      16.44076002  F       0.00574790      -0.01375837      -0.12264949
Ag       2.87654001       4.98231002      16.44076002  F       0.00548019       0.01703859      -0.12601180
Ag       8.62961001       4.98231002      16.44076002  F      -0.00771144       0.01034735      -0.12410041
Ag       7.19134001       2.49115000      16.44076002  F       0.00647048      -0.00030727      -0.12433261
Ag       5.75307000       4.98231002      16.44076002  F       0.00367491       0.00917921      -0.13080026
C        9.08496045       6.38495619       2.02149887  T       0.01258336      -0.01644543      -0.00537065
O        7.78128010       6.50674189       1.90608754  T       0.01311289      -0.02530856      -0.01785211
O        9.85399048       7.41115218       2.14436067  T       0.01067819       0.01049732       0.01196560
O        9.59907758       5.16889117       1.92275636  T       0.03361815      -0.00413696      -0.00528099
C        4.61795807       6.44666809       2.61367088  T       0.00185580      -0.03074653       0.12428377
O        4.72739041       6.21504346       3.82256072  T      -0.03703985       0.02144848      -0.11489461
O        0.33552901       0.17692261       2.10811349  T       0.01130148       0.01721758       0.00501970
O        4.45938848       5.38282352       1.77654374  T      -0.00663970       0.01744007       0.00679986
44
Lattice="8.62960276 0.0 0.0 4.31480138 7.47345479 0.0 0.0 0.0 23.48680104" Properties=species:S:1:pos:R:3:move_mask:L:1:forces:R:3 energy=-160.40126369 stress="0.0058508172122242975 -0.0005112358146825357 -8.18119539995225e-05 -0.0005112358146825357 0.005367561458802184 -2.244814930706047e-06 -8.18119539995225e-05 -2.244814930706047e-06 0.002417413991514911" free_energy=-160.39372338 pbc="T T T"
Ag       4.28870335       2.51166890       0.02430626  T      -0.00240189       0.00045978       0.00503476
Ag       8.62520883       0.03744216      23.46931159  T      -0.00129126       0.00153950      -0.00060283
Ag       1.43889940       2.48278160      23.49259711  T      -0.00316633       0.00157553       0.00508119
Ag       2.84441083       0.04954430       0.04436234  T      -0.00133388       0.00205284       0.00152261
Ag       5.80741156       0.12195333      23.42023381  T      -0.00297907       0.00264381       0.00213301
Ag      11.42589022       5.00329040       0.21513534  T      -0.00214169       0.00038825      -0.01537568
Ag       8.56757145       4.86913471      23.41354218  T      -0.00709902       0.00067003       0.00416820
Ag       7.18468084       2.49683319      23.49591251  T      -0.00166508      -0.00075296       0.00489059
Ag       5.76578667       4.95589898       0.02809820  T      -0.00272719      -0.00224386      -0.00132880
Ag       1.44978405       0.81940259      21.14314829  T      -0.00087905       0.00087212       0.00191666
Ag       4.30345617       0.82783541      21.14074629  T      -0.00089197       0.00088962       0.00062898
Ag       2.87311522       3.34793160      21.17716281  T      -0.00065414      -0.00043011       0.00105959
Ag       5.74671603       3.33254428      21.14634531  T      -0.00031144      -0.00068147       0.00159035
Ag       7.20110017       0.82381805      21.11450684  T      -0.00017800      -0.00006962       0.00193555
Ag       4.29623785       5.81257251      21.18017758  T      -0.00051128       0.00080920      -0.00040853
Ag      10.07613617       5.81566502      21.18030323  T      -0.00249413       0.00063067       0.00026775
Ag       7.18167830       5.81519218      21.15435337  T      -0.00124364       0.00004267       0.00030036
Ag       8.62814794       3.31409075      21.10850032  T      -0.00054361       0.00045258       0.00257587
Ag       2.87653004       1.66077003      18.78943989  F      -0.00415439       0.04649941       0.14955405
Ag       4.31480004       4.15192003      18.78943989  F      -0.02417457       0.01922560       0.19338501
Ag       5.75307005       1.66077003      18.78943989  F      -0.01461293       0.02498036       0.12542951
Ag       7.19134005       4.15192003      18.78943989  F      -0.03255284       0.02908712       0.06569262
Ag       8.62960004       1.66077003      18.78943989  F       0.02657067      -0.00680550       0.06966564
Ag       5.75307005       6.64307004      18.78943989  F      -0.00626405      -0.04084146       0.12627685
Ag      11.50614005       6.64307004      18.78943989  F      -0.01385085      -0.07195106       0.06984672
Ag      10.06787004       4.15192003      18.78943989  F       0.04698528       0.03622856       0.14187380
Ag       8.62961005       6.64307004      18.78943989  F       0.01467058      -0.03658615       0.13051766
Ag       0.00000000       0.00000000      16.44076002  F       0.00035229      -0.00285915      -0.12593886
Ag       2.87653000       0.00000000      16.44076002  F      -0.00630233      -0.00206000      -0.13010512
Ag       1.43826724       2.49115000      16.44076002  F       0.00051943      -0.01486474      -0.11006502
Ag       4.31480000       2.49115000      16.44076002  F      -0.00706754      -0.00049446      -0.10668804
Ag       5.75307000       0.00000000      16.44076002  F       0.00579855      -0.01382981      -0.12187196
Ag       2.87654001       4.98231002      16.44076002  F       0.00556779       0.01713883      -0.12514136
Ag       8.62961001       4.98231002      16.44076002  F      -0.00767096       0.01043684      -0.12330389
Ag       7.19134001       2.49115000      16.44076002  F       0.00651751      -0.00023009      -0.12332364
Ag       5.75307000       4.98231002      16.44076002  F       0.00357402       0.00927420      -0.12987686
C        9.08640414       6.38426019       2.02126870  T       0.01812279      -0.01010175      -0.00184868
O        7.78260017       6.50471195       1.90472930  T       0.02101058      -0.02592948      -0.01595341
O        9.85426179       7.41125965       2.14512798  T       0.00031506      -0.00257336       0.00925504
O        9.60162163       5.16874551       1.92239913  T       0.02889229       0.00227685      -0.00393673
C        4.61734986       6.44701381       2.61406992  T       0.00122358      -0.02026785       0.11072442
O        4.72524941       6.21518007       3.82263212  T      -0.03619192       0.02055317      -0.10051323
O        0.33641039       0.17759888       2.10844700  T       0.01087968       0.00730254       0.00678077
O        4.45881577       5.38380531       1.77616279  T      -0.00564504       0.01754278       0.00417506
44
Lattice="8.62960276 0.0 0.0 4.31480138 7.47345479 0.0 0.0 0.0 23.48680104" Properties=species:S:1:pos:R:3:move_mask:L:1:forces:R:3 energy=-160.40181323 stress="0.005859443034009849 -0.000509838172268504 -9.213099110527229e-05 -0.000509838172268504 0.005374394519438491 3.3256071339622437e-06 -9.213099110527229e-05 3.3256071339622437e-06 0.0023422294279429796" free_energy=-160.39426742 pbc="T T T"
Ag       4.28857257       2.51169483       0.02457236  T      -0.00243687       0.00044963       0.00473919
Ag       8.62516844       0.03745830      23.46950771  T      -0.00067219       0.00011245       0.00420545
Ag       1.43872435       2.48285372      23.49286839  T      -0.00330020       0.00126317       0.00471061
Ag       2.84432182       0.04964063       0.04447789  T      -0.00148044       0.00180278       0.00233652
Ag       5.80725096       0.12208845      23.42036745  T      -0.00296461       0.00229919       0.00286640
Ag      11.42583275       5.00333718       0.21438047  T      -0.00070315       0.00092985      -0.01328138
Ag       8.56719762       4.86917566      23.41378739  T      -0.00670569       0.00082842       0.00505931
Ag       7.18459118       2.49678207      23.49617227  T      -0.00160677      -0.00083113       0.00467439
Ag       5.76558288       4.95580863       0.02811722  T      -0.00391501      -0.00149372       0.00063574
Ag       1.44973642       0.81944997      21.14325961  T      -0.00083240       0.00089131       0.00231656
Ag       4.30340595       0.82788085      21.14079773  T      -0.00092854       0.00083470       0.00123495
Ag       2.87307617       3.34790402      21.17723257  T      -0.00072313      -0.00048061       0.00147053
Ag       5.74670097       3.33250534      21.14644348  T      -0.00032181      -0.00064984       0.00203560
Ag       7.20108973       0.82381447      21.11461840  T      -0.00027065      -0.00004292       0.00229248
Ag       4.29620739       5.81261227      21.18016630  T      -0.00061174       0.00070175       0.00012746
Ag      10.07600086       5.81569940      21.18032954  T      -0.00247834       0.00066071       0.00072760
Ag       7.18161099       5.81519008      21.15437991  T      -0.00121451      -0.00005653       0.00076401
Ag       8.62811506       3.31411302      21.10865346  T      -0.00067262       0.00047814       0.00309092
Ag       2.87653004       1.66077003      18.78943989  F      -0.00420911       0.04647034       0.15026990
Ag       4.31480004       4.15192003      18.78943989  F      -0.02415747       0.01911736       0.19416967
Ag       5.75307005       1.66077003      18.78943989  F      -0.01457726       0.02492238       0.12628750
Ag       7.19134005       4.15192003      18.78943989  F      -0.03254297       0.02897662       0.06657272
Ag       8.62960004       1.66077003      18.78943989  F       0.02649295      -0.00673599       0.07065114
Ag       5.75307005       6.64307004      18.78943989  F      -0.00629329      -0.04076655       0.12708936
Ag      11.50614005       6.64307004      18.78943989  F      -0.01391114      -0.07186088       0.07057745
Ag      10.06787004       4.15192003      18.78943989  F       0.04687319       0.03614363       0.14273094
Ag       8.62961005       6.64307004      18.78943989  F       0.01461370      -0.03656017       0.13126211
Ag       0.00000000       0.00000000      16.44076002  F       0.00035734      -0.00286096      -0.12620135
Ag       2.87653000       0.00000000      16.44076002  F      -0.00630926      -0.00203809      -0.13036720
Ag       1.43826724       2.49115000      16.44076002  F       0.00053532      -0.01490931      -0.11034938
Ag       4.31480000       2.49115000      16.44076002  F      -0.00710693      -0.00053010      -0.10701373
Ag       5.75307000       0.00000000      16.44076002  F       0.00578402      -0.01385049      -0.12210780
Ag       2.87654001       4.98231002      16.44076002  F       0.00554862       0.01709479      -0.12544084
Ag       8.62961001       4.98231002      16.44076002  F      -0.00768857       0.01040012      -0.12356848
Ag       7.19134001       2.49115000      16.44076002  F       0.00652663      -0.00024000      -0.12360647
Ag       5.75307000       4.98231002      16.44076002  F       0.00358999       0.00921983      -0.13016512
C        9.08739473       6.38375887       2.02112120  T       0.01797484      -0.00714788      -0.00327610
O        7.78348648       6.50334991       1.90384690  T       0.01633355      -0.02490763      -0.01623071
O        9.85441147       7.41128932       2.14562144  T       0.00221749      -0.00034353       0.00896815
O        9.60327868       5.16866794       1.92217271  T       0.03113972      -0.00364747      -0.00441828
C        4.61701693       6.44718257       2.61509324  T      -0.00731495       0.00397681       0.00573092
O        4.72376041       6.21543529       3.82183521  T      -0.02627012       0.00202399      -0.00181735
O        0.33698461       0.17789632       2.10875468  T       0.01052840       0.00979672       0.00435104
O        4.45848284       5.38449421       1.77600989  T      -0.00629601       0.01055913      -0.00410445
44
Lattice="8.62960276 0.0 0.0 4.31480138 7.47345479 0.0 0.0 0.0 23.48680104" Properties=species:S:1:pos:R:3:move_mask:L:1:forces:R:3 energy=-160.40236347 stress="0.005861341969470836 -0.0005105296753060698 -0.0001071890313280497 -0.0005105296753060698 0.00538237145521079 1.3823488442205088e-05 -0.0001071890313280497 1.3823488442205088e-05 0.0022517754928907774" free_energy=-160.3948196 pbc="T T T"
Ag       4.28826811       2.51175208       0.02514426  T      -0.00217012       0.00057571       0.00380077
Ag       8.62507662       0.03751435      23.46999647  T       0.00039102      -0.00147216       0.01202342
Ag       1.43830746       2.48301530      23.49344733  T      -0.00298337       0.00061640       0.00414315
Ag       2.84413813       0.04987657       0.04478956  T      -0.00207806       0.00152188       0.00333149
Ag       5.80686406       0.12238970      23.42072398  T      -0.00273303       0.00195517       0.00270939
Ag      11.42575901       5.00344129       0.21262272  T       0.00108540       0.00107848      -0.01054911
Ag       8.56631399       4.86925944      23.41441848  T      -0.00614902       0.00078980       0.00535821
Ag       7.18436008       2.49667221      23.49674840  T      -0.00167962      -0.00097279       0.00415178
Ag       5.76507564       4.95561611       0.02817782  T      -0.00507389      -0.00053845       0.00310789
Ag       1.44962212       0.81956050      21.14353582  T      -0.00080799       0.00082936       0.00217952
Ag       4.30328052       0.82798361      21.14093419  T      -0.00101991       0.00070355       0.00161116
Ag       2.87297270       3.34784289      21.17737537  T      -0.00085388      -0.00041433       0.00133502
Ag       5.74664971       3.33242478      21.14667600  T      -0.00038006      -0.00046138       0.00204007
Ag       7.20105116       0.82380879      21.11489460  T      -0.00043554      -0.00002962       0.00224037
Ag       4.29612066       5.81271196      21.18015808  T      -0.00079419       0.00069201       0.00036382
Ag      10.07566762       5.81578557      21.18040540  T      -0.00245221       0.00053431       0.00098290
Ag       7.18144737       5.81518949      21.15446446  T      -0.00122876      -0.00008323       0.00107933
Ag       8.62801681       3.31418050      21.10902337  T      -0.00087447       0.00055177       0.00301132
Ag       2.87653004       1.66077003      18.78943989  F      -0.00438132       0.04646206       0.15101866
Ag       4.31480004       4.15192003      18.78943989  F      -0.02411057       0.01894485       0.19494899
Ag       5.75307005       1.66077003      18.78943989  F      -0.01444486       0.02487945       0.12735145
Ag       7.19134005       4.15192003      18.78943989  F      -0.03243215       0.02870979       0.06759698
Ag       8.62960004       1.66077003      18.78943989  F       0.02635198      -0.00645987       0.07210280
Ag       5.75307005       6.64307004      18.78943989  F      -0.00636529      -0.04053538       0.12791929
Ag      11.50614005       6.64307004      18.78943989  F      -0.01409313      -0.07159497       0.07127255
Ag      10.06787004       4.15192003      18.78943989  F       0.04656164       0.03598394       0.14365871
Ag       8.62961005       6.64307004      18.78943989  F       0.01452510      -0.03645858       0.13199690
Ag       0.00000000       0.00000000      16.44076002  F       0.00037233      -0.00289048      -0.12624777
Ag       2.87653000       0.00000000      16.44076002  F      -0.00631369      -0.00200828      -0.13038157
Ag       1.43826724       2.49115000      16.44076002  F       0.00057049      -0.01494862      -0.11039175
Ag       4.31480000       2.49115000      16.44076002  F      -0.00716401      -0.00053186      -0.10711237
Ag       5.75307000       0.00000000      16.44076002  F       0.00580678      -0.01388694      -0.12213965
Ag       2.87654001       4.98231002      16.44076002  F       0.00556396       0.01709540      -0.12554144
Ag       8.62961001       4.98231002      16.44076002  F      -0.00769660       0.01038969      -0.12363928
Ag       7.19134001       2.49115000      16.44076002  F       0.00657243      -0.00020599      -0.12363900
Ag       5.75307000       4.98231002      16.44076002  F       0.00357780       0.00921313      -0.13022472
C        9.08982884       6.38268142       2.02076702  T       0.01659279      -0.01090908      -0.00463391
O        7.78560448       6.50005524       1.90167508  T       0.01455397      -0.02390052      -0.01548305
O        9.85474699       7.41125599       2.14681410  T       0.00400900       0.00141652       0.00896117
O        9.60734681       5.16824800       1.92156582  T       0.02955973      -0.00310308      -0.00438211
C        4.61610771       6.44749675       2.61669926  T      -0.01896859       0.06073572      -0.16385589
O        4.72018806       6.21591965       3.82080602  T      -0.01086606      -0.02597098       0.15544466
O        0.33836681       0.17905800       2.10926458  T       0.00945254      -0.00584445       0.00827651
O        4.45769535       5.38607866       1.77548731  T      -0.00699658      -0.00045794      -0.01579664
44
Lattice="8.62960276 0.0 0.0 4.31480138 7.47345479 0.0 0.0 0.0 23.48680104" Properties=species:S:1:pos:R:3:move_mask:L:1:forces:R:3 energy=-160.40248108 stress="0.00587330232998991 -0.000507613436272656 -9.230695797205831e-05 -0.000507613436272656 0.005393042594570858 -2.3559262761650204e-06 -9.230695797205831e-05 -2.3559262761650204e-06 0.0023939480081071472" free_energy=-160.39497232 pbc="T T T"
Ag       4.28807986       2.51178174       0.02542094  T      -0.00211554       0.00006513       0.00316677
Ag       8.62504167       0.03753274      23.47040772  T      -0.00103041       0.00168546      -0.00060368
Ag       1.43806255       2.48310244      23.49373505  T      -0.00275160       0.00136157       0.00323677
Ag       2.84402595       0.05000317       0.04499672  T      -0.00079087       0.00182106       0.00167892
Ag       5.80663058       0.12255928      23.42091093  T      -0.00301767       0.00159955       0.00367045
Ag      11.42575146       5.00349442       0.21156582  T      -0.00124027       0.00036943      -0.01310814
Ag       8.56577748       4.86929950      23.41481094  T      -0.00603918       0.00034598       0.00452131
Ag       7.18419905       2.49660615      23.49705138  T      -0.00198646      -0.00055996       0.00349934
Ag       5.76474689       4.95552456       0.02822691  T      -0.00241139      -0.00143478      -0.00142682
Ag       1.44954682       0.81962201      21.14369341  T      -0.00083907       0.00065613       0.00167724
Ag       4.30319180       0.82803891      21.14102320  T      -0.00099164       0.00055780       0.00073690
Ag       2.87290069       3.34781053      21.17744301  T      -0.00080282      -0.00019006       0.00048869
Ag       5.74660449       3.33238487      21.14680682  T      -0.00065890      -0.00035144       0.00122923
Ag       7.20101375       0.82380468      21.11506066  T      -0.00052414      -0.00007449       0.00168170
Ag       4.29605197       5.81277623      21.18015973  T      -0.00087116       0.00078561      -0.00006864
Ag      10.07545270       5.81583228      21.18045613  T      -0.00245558       0.00058952       0.00046214
Ag       7.18133610       5.81519001      21.15452435  T      -0.00115919       0.00012652       0.00065812
Ag       8.62793962       3.31422138      21.10924063  T      -0.00095890       0.00061191       0.00227405
Ag       2.87653004       1.66077003      18.78943989  F      -0.00456055       0.04648892       0.15067982
Ag       4.31480004       4.15192003      18.78943989  F      -0.02410977       0.01893598       0.19449089
Ag       5.75307005       1.66077003      18.78943989  F      -0.01437081       0.02492766       0.12719932
Ag       7.19134005       4.15192003      18.78943989  F      -0.03239312       0.02860293       0.06744443
Ag       8.62960004       1.66077003      18.78943989  F       0.02625252      -0.00636201       0.07216720
Ag       5.75307005       6.64307004      18.78943989  F      -0.00643951      -0.04039175       0.12752691
Ag      11.50614005       6.64307004      18.78943989  F      -0.01421527      -0.07146847       0.07081096
Ag      10.06787004       4.15192003      18.78943989  F       0.04632034       0.03592782       0.14345976
Ag       8.62961005       6.64307004      18.78943989  F       0.01441615      -0.03646055       0.13158038
Ag       0.00000000       0.00000000      16.44076002  F       0.00033182      -0.00289722      -0.12616539
Ag       2.87653000       0.00000000      16.44076002  F      -0.00631363      -0.00198396      -0.13021490
Ag       1.43826724       2.49115000      16.44076002  F       0.00058897      -0.01492553      -0.11026513
Ag       4.31480000       2.49115000      16.44076002  F      -0.00720387      -0.00052475      -0.10693135
Ag       5.75307000       0.00000000      16.44076002  F       0.00578082      -0.01390637      -0.12199834
Ag       2.87654001       4.98231002      16.44076002  F       0.00551985       0.01711408      -0.12543083
Ag       8.62961001       4.98231002      16.44076002  F      -0.00771247       0.01040401      -0.12347966
Ag       7.19134001       2.49115000      16.44076002  F       0.00653318      -0.00017074      -0.12351877
Ag       5.75307000       4.98231002      16.44076002  F       0.00356134       0.00921027      -0.13012292
C        9.09126312       6.38181099       2.02047484  T       0.02386378       0.00251736      -0.00222390
O        7.78674173       6.49801521       1.90033492  T       0.02168043      -0.02501004      -0.01387658
O        9.85517623       7.41149335       2.14754877  T      -0.00752125      -0.01396367       0.00523572
O        9.60995489       5.16789354       1.92118885  T       0.02729178       0.00053819      -0.00365818
C        4.61534253       6.44871104       2.61457723  T       0.00033895      -0.01661623       0.09536951
O        4.71829041       6.21572683       3.82302482  T      -0.03189719       0.01890145      -0.08934783
O        0.33918006       0.17957307       2.10964107  T       0.00930192       0.00889370       0.00486307
O        4.45722831       5.38685590       1.77497858  T      -0.00439963       0.01425397       0.00263146
44
Lattice="8.62960276 0.0 0.0 4.31480138 7.47345479 0.0 0.0 0.0 23.48680104" Properties=species:S:1:pos:R:3:move_mask:L:1:forces:R:3 energy=-160.40257567 stress="0.005838840255532458 -0.000511160910331516 -9.551124889314076e-05 -0.000511160910331516 0.005359189541607872 4.017871635641333e-06 -9.551124889314076e-05 4.017871635641333e-06 0.002411066938469709" free_energy=-160.39504481 pbc="T T T"
Ag       4.28796176       2.51179841       0.02559286  T      -0.00201293       0.00029774       0.00264937
Ag       8.62501043       0.03757040      23.47057918  T      -0.00063689       0.00112713       0.00187056
Ag       1.43790721       2.48316611      23.49391637  T      -0.00267252       0.00122117       0.00273254
Ag       2.84396334       0.05008993       0.04512590  T      -0.00097354       0.00151948       0.00226102
Ag       5.80648030       0.12265920      23.42105843  T      -0.00257005       0.00197720       0.00209485
Ag      11.42573416       5.00352918       0.21089597  T      -0.00022216       0.00054894      -0.01238732
Ag       8.56544796       4.86932229      23.41507329  T      -0.00591558       0.00005962       0.00401562
Ag       7.18409287       2.49656676      23.49723740  T      -0.00197957      -0.00067323       0.00287163
Ag       5.76456347       4.95547172       0.02822785  T      -0.00317130      -0.00102649      -0.00047573
Ag       1.44949901       0.81965997      21.14378713  T      -0.00082707       0.00068569       0.00123207
Ag       4.30313502       0.82807120      21.14107135  T      -0.00100983       0.00054592       0.00048634
Ag       2.87285314       3.34779797      21.17747166  T      -0.00088834      -0.00022498       0.00007481
Ag       5.74656984       3.33236611      21.14687682  T      -0.00064429      -0.00033059       0.00083577
Ag       7.20098531       0.82380161      21.11515813  T      -0.00052794      -0.00001536       0.00134671
Ag       4.29600347       5.81281898      21.18016067  T      -0.00086413       0.00081818      -0.00034312
Ag      10.07531700       5.81586314      21.18048572  T      -0.00244781       0.00054485       0.00018672
Ag       7.18127029       5.81519352      21.15456358  T      -0.00118318       0.00008464       0.00037066
Ag       8.62788607       3.31425494      21.10937098  T      -0.00094964       0.00056566       0.00198027
Ag       2.87653004       1.66077003      18.78943989  F      -0.00463459       0.04646605       0.15127644
Ag       4.31480004       4.15192003      18.78943989  F      -0.02406750       0.01886348       0.19508371
Ag       5.75307005       1.66077003      18.78943989  F      -0.01429926       0.02489252       0.12793127
Ag       7.19134005       4.15192003      18.78943989  F      -0.03231932       0.02847139       0.06815821
Ag       8.62960004       1.66077003      18.78943989  F       0.02621385      -0.00627620       0.07307607
Ag       5.75307005       6.64307004      18.78943989  F      -0.00648667      -0.04029950       0.12818844
Ag      11.50614005       6.64307004      18.78943989  F      -0.01425475      -0.07134720       0.07144092
Ag      10.06787004       4.15192003      18.78943989  F       0.04618131       0.03583910       0.14408501
Ag       8.62961005       6.64307004      18.78943989  F       0.01438080      -0.03643554       0.13218353
Ag       0.00000000       0.00000000      16.44076002  F       0.00036047      -0.00294564      -0.12576538
Ag       2.87653000       0.00000000      16.44076002  F      -0.00627492      -0.00199124      -0.12980628
Ag       1.43826724       2.49115000      16.44076002  F       0.00064358      -0.01493276      -0.10987158
Ag       4.31480000       2.49115000      16.44076002  F      -0.00721542      -0.00052847      -0.10655113
Ag       5.75307000       0.00000000      16.44076002  F       0.00578818      -0.01392195      -0.12160832
Ag       2.87654001       4.98231002      16.44076002  F       0.00555119       0.01707898      -0.12504387
Ag       8.62961001       4.98231002      16.44076002  F      -0.00769128       0.01038442      -0.12309901
Ag       7.19134001       2.49115000      16.44076002  F       0.00654841      -0.00015022      -0.12310657
Ag       5.75307000       4.98231002      16.44076002  F       0.00354400       0.00918016      -0.12971473
C        9.09229099       6.38144553       2.02031725  T       0.01757161      -0.00642944      -0.00191618
O        7.78775705       6.49666842       1.89953919  T       0.01603784      -0.02396658      -0.01478873
O        9.85515392       7.41123888       2.14794546  T       0.00141806      -0.00205673       0.00770181
O        9.61150675       5.16788009       1.92096855  T       0.02934416      -0.00400127      -0.00431310
C        4.61501659       6.44897320       2.61517474  T      -0.00374163      -0.00352664       0.03991589
O        4.71693504       6.21593743       3.82264832  T      -0.02757992       0.00990139      -0.03689972
O        0.33968291       0.17994943       2.10988815  T       0.00896798       0.00726507       0.00342979
O        4.45696084       5.38743248       1.77481136  T      -0.00448942       0.01274124      -0.00178926
44
Lattice="8.62960276 0.0 0.0 4.31480138 7.47345479 0.0 0.0 0.0 23.48680104" Properties=species:S:1:pos:R:3:move_mask:L:1:forces:R:3 energy=-160.40277916 stress="0.005825206440311079 -0.0005116341353119313 -9.881956704682432e-05 -0.0005116341353119313 0.005348668704029064 7.899459919519005e-06 -9.881956704682432e-05 7.899459919519005e-06 0.002402063717593351" free_energy=-160.39524107 pbc="T T T"
Ag       4.28785165       2.51181650       0.02573331  T      -0.00198994       0.00036154       0.00221437
Ag       8.62498295       0.03761263      23.47074429  T      -0.00041113       0.00064236       0.00347508
Ag       1.43776496       2.48323046      23.49405917  T      -0.00250455       0.00112177       0.00228418
Ag       2.84390432       0.05016930       0.04525625  T      -0.00107529       0.00141902       0.00232539
Ag       5.80634050       0.12276368      23.42117140  T      -0.00260330       0.00187916       0.00184681
Ag      11.42573834       5.00356662       0.21024797  T       0.00027336       0.00068633      -0.01143345
Ag       8.56513272       4.86933051      23.41530158  T      -0.00569222       0.00016941       0.00392170
Ag       7.18398430       2.49652895      23.49739053  T      -0.00201593      -0.00064591       0.00251565
Ag       5.76437577       4.95542569       0.02822667  T      -0.00349227      -0.00077674       0.00002521
Ag       1.44945362       0.81969794      21.14386252  T      -0.00083242       0.00068383       0.00142415
Ag       4.30307884       0.82810064      21.14110916  T      -0.00105022       0.00051888       0.00075447
Ag       2.87280343       3.34778482      21.17748458  T      -0.00094654      -0.00023027       0.00024856
Ag       5.74653584       3.33234817      21.14693037  T      -0.00062114      -0.00028102       0.00096352
Ag       7.20095614       0.82380101      21.11523892  T      -0.00057985      -0.00001020       0.00144675
Ag       4.29595554       5.81286285      21.18015221  T      -0.00090908       0.00079233      -0.00006728
Ag      10.07518385       5.81589453      21.18050545  T      -0.00243355       0.00059055       0.00042128
Ag       7.18120618       5.81519801      21.15459317  T      -0.00110956       0.00013327       0.00057121
Ag       8.62783304       3.31428536      21.10948794  T      -0.00100829       0.00061862       0.00215587
Ag       2.87653004       1.66077003      18.78943989  F      -0.00471549       0.04647201       0.15157009
Ag       4.31480004       4.15192003      18.78943989  F      -0.02407861       0.01884905       0.19538619
Ag       5.75307005       1.66077003      18.78943989  F      -0.01427895       0.02487689       0.12834896
Ag       7.19134005       4.15192003      18.78943989  F      -0.03229876       0.02840687       0.06856848
Ag       8.62960004       1.66077003      18.78943989  F       0.02612377      -0.00617020       0.07360225
Ag       5.75307005       6.64307004      18.78943989  F      -0.00655278      -0.04022733       0.12855044
Ag      11.50614005       6.64307004      18.78943989  F      -0.01434015      -0.07124993       0.07175141
Ag      10.06787004       4.15192003      18.78943989  F       0.04602814       0.03582112       0.14443825
Ag       8.62961005       6.64307004      18.78943989  F       0.01432681      -0.03641605       0.13251468
Ag       0.00000000       0.00000000      16.44076002  F       0.00034274      -0.00294822      -0.12592205
Ag       2.87653000       0.00000000      16.44076002  F      -0.00629585      -0.00196808      -0.12995126
Ag       1.43826724       2.49115000      16.44076002  F       0.00063226      -0.01494460      -0.11002235
Ag       4.31480000       2.49115000      16.44076002  F      -0.00726249      -0.00051803      -0.10671407
Ag       5.75307000       0.00000000      16.44076002  F       0.00577746      -0.01393447      -0.12175670
Ag       2.87654001       4.98231002      16.44076002  F       0.00553882       0.01710018      -0.12520613
Ag       8.62961001       4.98231002      16.44076002  F      -0.00771404       0.01039609      -0.12325314
Ag       7.19134001       2.49115000      16.44076002  F       0.00655388      -0.00012613      -0.12324151
Ag       5.75307000       4.98231002      16.44076002  F       0.00350933       0.00918598      -0.12985964
C        9.09323675       6.38100557       2.02017679  T       0.01721524      -0.00822799      -0.00279341
O        7.78855844       6.49537723       1.89873195  T       0.01549157      -0.02380478      -0.01409806
O        9.85529734       7.41121257       2.14836447  T       0.00173261      -0.00191078       0.00705334
O        9.61309248       5.16766179       1.92072358  T       0.02809090      -0.00216932      -0.00402736
C        4.61468413       6.44921572       2.61565011  T      -0.00730673       0.00826708      -0.00846031
O        4.71560216       6.21617666       3.82227277  T      -0.02197085       0.00120550       0.00972484
O        0.34016224       0.18029209       2.11005303  T       0.00849019       0.00646482       0.00328301
O        4.45671904       5.38803678       1.77458354  T      -0.00403709       0.00989739      -0.00457943
44
Lattice="8.62960276 0.0 0.0 4.31480138 7.47345479 0.0 0.0 0.0 23.48680104" Properties=species:S:1:pos:R:3:move_mask:L:1:forces:R:3 energy=-160.40317051999997 stress="0.00587208618441975 -0.0005150682323575197 -9.760490695583617e-05 -0.0005150682323575197 0.0053822915763769965 -3.2404979155216993e-06 -9.760490695583617e-05 -3.2404979155216993e-06 0.002416576349782672" free_energy=-160.39567146 pbc="T T T"
Ag       4.28767388       2.51184699       0.02592403  T      -0.00204948       0.00009608       0.00195727
Ag       8.62494860       0.03767032      23.47105572  T      -0.00096827       0.00192756      -0.00204678
Ag       1.43754779       2.48332724      23.49425340  T      -0.00242336       0.00140182       0.00190848
Ag       2.84381271       0.05029344       0.04547350  T      -0.00038099       0.00123477       0.00211739
Ag       5.80610991       0.12292899      23.42133839  T      -0.00250532       0.00169136       0.00199519
Ag      11.42576867       5.00363186       0.20925072  T      -0.00090543       0.00049850      -0.01209050
Ag       8.56463091       4.86934546      23.41565905  T      -0.00538680       0.00026455       0.00480985
Ag       7.18380205       2.49647230      23.49760920  T      -0.00208335      -0.00047166       0.00225961
Ag       5.76407115       4.95536111       0.02822550  T      -0.00214661      -0.00114876      -0.00199530
Ag       1.44937893       0.81975720      21.14398559  T      -0.00083162       0.00063998       0.00161529
Ag       4.30298374       0.82814638      21.14117187  T      -0.00106508       0.00053417       0.00075216
Ag       2.87271955       3.34776793      21.17749820  T      -0.00079322      -0.00009095       0.00016055
Ag       5.74647837       3.33232725      21.14700787  T      -0.00070056      -0.00008476       0.00085319
Ag       7.20090074       0.82380221      21.11536152  T      -0.00076840       0.00003427       0.00157226
Ag       4.29587269       5.81293445      21.18014329  T      -0.00094951       0.00081742       0.00008742
Ag      10.07497113       5.81594700      21.18054350  T      -0.00237462       0.00059398       0.00050632
Ag       7.18110456       5.81521213      21.15464179  T      -0.00115786       0.00017791       0.00069848
Ag       8.62774299       3.31434073      21.10967208  T      -0.00100468       0.00061633       0.00210839
Ag       2.87653004       1.66077003      18.78943989  F      -0.00483583       0.04647312       0.15137934
Ag       4.31480004       4.15192003      18.78943989  F      -0.02407714       0.01887085       0.19509855
Ag       5.75307005       1.66077003      18.78943989  F      -0.01427270       0.02490210       0.12832691
Ag       7.19134005       4.15192003      18.78943989  F      -0.03227589       0.02838297       0.06858675
Ag       8.62960004       1.66077003      18.78943989  F       0.02603403      -0.00602106       0.07384210
Ag       5.75307005       6.64307004      18.78943989  F      -0.00659356      -0.04009550       0.12850389
Ag      11.50614005       6.64307004      18.78943989  F      -0.01446616      -0.07110432       0.07155347
Ag      10.06787004       4.15192003      18.78943989  F       0.04578301       0.03579030       0.14443879
Ag       8.62961005       6.64307004      18.78943989  F       0.01422852      -0.03634834       0.13238040
Ag       0.00000000       0.00000000      16.44076002  F       0.00032470      -0.00289473      -0.12628835
Ag       2.87653000       0.00000000      16.44076002  F      -0.00631681      -0.00189509      -0.13023994
Ag       1.43826724       2.49115000      16.44076002  F       0.00064995      -0.01491571      -0.11038381
Ag       4.31480000       2.49115000      16.44076002  F      -0.00729156      -0.00050583      -0.10707102
Ag       5.75307000       0.00000000      16.44076002  F       0.00576586      -0.01390051      -0.12204742
Ag       2.87654001       4.98231002      16.44076002  F       0.00549197       0.01710297      -0.12557888
Ag       8.62961001       4.98231002      16.44076002  F      -0.00773118       0.01039664      -0.12354512
Ag       7.19134001       2.49115000      16.44076002  F       0.00652881      -0.00008927      -0.12364984
Ag       5.75307000       4.98231002      16.44076002  F       0.00353785       0.00919327      -0.13023310
C        9.09475846       6.38025367       2.01992713  T       0.01531556      -0.01071237      -0.00345621
O        7.78987825       6.49326194       1.89746413  T       0.01202845      -0.02323627      -0.01465436
O        9.85550514       7.41111392       2.14899556  T       0.00554450       0.00283566       0.00757977
O        9.61562143       5.16736711       1.92034967  T       0.02912063      -0.00561322      -0.00490572
C        4.61401853       6.45007248       2.61463618  T       0.00150825      -0.02698504       0.10954854
O        4.71366468       6.21623667       3.82343537  T      -0.03066779       0.02143855      -0.10285498
O        0.34090413       0.18084184       2.11035131  T       0.00815807       0.01645608       0.00199510
O        4.45636656       5.38888315       1.77416735  T      -0.00299641       0.01374217       0.00440587
44
Lattice="8.62960276 0.0 0.0 4.31480138 7.47345479 0.0 0.0 0.0 23.48680104" Properties=species:S:1:pos:R:3:move_mask:L:1:forces:R:3 energy=-160.40352230000002 stress="0.005858274280218482 -0.0005135110881777761 -0.00010687802316981607 -0.0005135110881777761 0.005373764694994107 1.1524603317941513e-05 -0.00010687802316981607 1.1524603317941513e-05 0.002367742382925177" free_energy=-160.39600265 pbc="T T T"
Ag       4.28756666       2.51185977       0.02602619  T      -0.00188959       0.00043096       0.00184982
Ag       8.62492193       0.03772876      23.47115202  T      -0.00012290       0.00030012       0.00513663
Ag       1.43742081       2.48338845      23.49435698  T      -0.00238174       0.00097827       0.00207154
Ag       2.84377146       0.05035965       0.04559540  T      -0.00113973       0.00123680       0.00269094
Ag       5.80597508       0.12302024      23.42144408  T      -0.00230281       0.00175746       0.00177444
Ag      11.42577549       5.00366758       0.20865016  T       0.00082227       0.00085765      -0.01016137
Ag       8.56433889       4.86935294      23.41588664  T      -0.00536988       0.00003848       0.00417883
Ag       7.18369090       2.49643986      23.49772827  T      -0.00204553      -0.00070966       0.00225678
Ag       5.76391383       4.95531852       0.02819121  T      -0.00364595      -0.00044005       0.00057007
Ag       1.44933376       0.81978792      21.14407132  T      -0.00087830       0.00054632       0.00127440
Ag       4.30292895       0.82817179      21.14121344  T      -0.00104455       0.00045875       0.00058928
Ag       2.87267468       3.34776270      21.17750948  T      -0.00091406      -0.00005650      -0.00006931
Ag       5.74644324       3.33232112      21.14705625  T      -0.00063959      -0.00008557       0.00063298
Ag       7.20086247       0.82380199      21.11544466  T      -0.00067963       0.00001384       0.00114541
Ag       4.29582204       5.81297884      21.18014845  T      -0.00097849       0.00086069      -0.00010639
Ag      10.07484509       5.81597711      21.18057638  T      -0.00234507       0.00055220       0.00044308
Ag       7.18104252       5.81521975      21.15468430  T      -0.00116977       0.00015489       0.00056552
Ag       8.62768975       3.31437152      21.10978834  T      -0.00100377       0.00058266       0.00188670
Ag       2.87653004       1.66077003      18.78943989  F      -0.00490210       0.04644144       0.15198148
Ag       4.31480004       4.15192003      18.78943989  F      -0.02405510       0.01882507       0.19570520
Ag       5.75307005       1.66077003      18.78943989  F      -0.01422453       0.02486421       0.12902694
Ag       7.19134005       4.15192003      18.78943989  F      -0.03221364       0.02827764       0.06925055
Ag       8.62960004       1.66077003      18.78943989  F       0.02598398      -0.00593532       0.07473450
Ag       5.75307005       6.64307004      18.78943989  F      -0.00664864      -0.04001729       0.12916412
Ag      11.50614005       6.64307004      18.78943989  F      -0.01450596      -0.07101634       0.07216707
Ag      10.06787004       4.15192003      18.78943989  F       0.04565332       0.03573928       0.14503836
Ag       8.62961005       6.64307004      18.78943989  F       0.01418813      -0.03632378       0.13298583
Ag       0.00000000       0.00000000      16.44076002  F       0.00034267      -0.00293784      -0.12607895
Ag       2.87653000       0.00000000      16.44076002  F      -0.00629805      -0.00189890      -0.13004765
Ag       1.43826724       2.49115000      16.44076002  F       0.00067932      -0.01493336      -0.11019438
Ag       4.31480000       2.49115000      16.44076002  F      -0.00731316      -0.00050710      -0.10692555
Ag       5.75307000       0.00000000      16.44076002  F       0.00578198      -0.01391955      -0.12187245
Ag       2.87654001       4.98231002      16.44076002  F       0.00552193       0.01709100      -0.12540491
Ag       8.62961001       4.98231002      16.44076002  F      -0.00772258       0.01037652      -0.12339581
Ag       7.19134001       2.49115000      16.44076002  F       0.00655512      -0.00007099      -0.12342997
Ag       5.75307000       4.98231002      16.44076002  F       0.00351287       0.00917251      -0.13003460
C        9.09563842       6.37979315       2.01975755  T       0.01566183      -0.01029469      -0.00328790
O        7.79068098       6.49200132       1.89669705  T       0.01274976      -0.02314422      -0.01436978
O        9.85563420       7.41104165       2.14935044  T       0.00461996       0.00154084       0.00758505
O        9.61709796       5.16720150       1.92010635  T       0.02841732      -0.00574832      -0.00477901
C        4.61379243       6.45001926       2.61602472  T      -0.00987084       0.01954728      -0.04903236
O        4.71236921       6.21663994       3.82213678  T      -0.01822062      -0.00557258       0.04892060
O        0.34132655       0.18131207       2.11050304  T       0.00777648       0.00598096       0.00267381
O        4.45618353       5.38944904       1.77407411  T      -0.00374035       0.00698619      -0.00710957
44
Lattice="8.62960276 0.0 0.0 4.31480138 7.47345479 0.0 0.0 0.0 23.48680104" Properties=species:S:1:pos:R:3:move_mask:L:1:forces:R:3 energy=-160.40340737 stress="0.005824261400931311 -0.0005132568527865515 -0.00010185789624024952 -0.0005132568527865515 0.005346676620285882 6.293944044049803e-06 -0.00010185789624024952 6.293944044049803e-06 0.002423880294833472" free_energy=-160.39588687 pbc="T T T"
Ag       4.28746875       2.51187763       0.02611450  T      -0.00183813       0.00033736       0.00149322
Ag       8.62490476       0.03776897      23.47131807  T      -0.00052982       0.00118791       0.00136811
Ag       1.43730012       2.48344427      23.49445351  T      -0.00223681       0.00118475       0.00163269
Ag       2.84372318       0.05042400       0.04572246  T      -0.00062181       0.00121360       0.00227682
Ag       5.80585090       0.12310917      23.42153639  T      -0.00241879       0.00171940       0.00158724
Ag      11.42580229       5.00370517       0.20809658  T       0.00028723       0.00063776      -0.01081474
Ag       8.56406239       4.86935174      23.41608745  T      -0.00524982      -0.00008405       0.00357203
Ag       7.18358195       2.49640676      23.49783678  T      -0.00215226      -0.00051834       0.00188771
Ag       5.76374443       4.95528758       0.02818510  T      -0.00295566      -0.00070763      -0.00067950
Ag       1.44929272       0.81981520      21.14414037  T      -0.00071810       0.00050831       0.00110985
Ag       4.30287492       0.82819600      21.14124421  T      -0.00103529       0.00046101       0.00033921
Ag       2.87262734       3.34775889      21.17750736  T      -0.00091953      -0.00005560      -0.00027181
Ag       5.74640864       3.33231604      21.14709148  T      -0.00069637      -0.00006496       0.00037795
Ag       7.20082795       0.82380273      21.11550643  T      -0.00066191       0.00003443       0.00097480
Ag       4.29577142       5.81302316      21.18014610  T      -0.00097981       0.00084399      -0.00020057
Ag      10.07472424       5.81600574      21.18060269  T      -0.00227398       0.00056032       0.00024649
Ag       7.18098258       5.81522760      21.15471718  T      -0.00114256       0.00018422       0.00043340
Ag       8.62763732       3.31440104      21.10988863  T      -0.00101440       0.00059301       0.00168290
Ag       2.87653004       1.66077003      18.78943989  F      -0.00499650       0.04643604       0.15197240
Ag       4.31480004       4.15192003      18.78943989  F      -0.02405495       0.01881650       0.19563723
Ag       5.75307005       1.66077003      18.78943989  F      -0.01419362       0.02486209       0.12910915
Ag       7.19134005       4.15192003      18.78943989  F      -0.03216895       0.02821356       0.06934312
Ag       8.62960004       1.66077003      18.78943989  F       0.02592978      -0.00585846       0.07494114
Ag       5.75307005       6.64307004      18.78943989  F      -0.00669856      -0.03995226       0.12919444
Ag      11.50614005       6.64307004      18.78943989  F      -0.01458423      -0.07094636       0.07215318
Ag      10.06787004       4.15192003      18.78943989  F       0.04550033       0.03571489       0.14507702
Ag       8.62961005       6.64307004      18.78943989  F       0.01414116      -0.03634402       0.13300244
Ag       0.00000000       0.00000000      16.44076002  F       0.00033081      -0.00297491      -0.12605328
Ag       2.87653000       0.00000000      16.44076002  F      -0.00629611      -0.00190933      -0.12999186
Ag       1.43826724       2.49115000      16.44076002  F       0.00069000      -0.01493324      -0.11015169
Ag       4.31480000       2.49115000      16.44076002  F      -0.00733685      -0.00050363      -0.10686882
Ag       5.75307000       0.00000000      16.44076002  F       0.00577349      -0.01394969      -0.12183630
Ag       2.87654001       4.98231002      16.44076002  F       0.00551541       0.01710171      -0.12537268
Ag       8.62961001       4.98231002      16.44076002  F      -0.00772551       0.01038957      -0.12335207
Ag       7.19134001       2.49115000      16.44076002  F       0.00654726      -0.00005515      -0.12337564
Ag       5.75307000       4.98231002      16.44076002  F       0.00348182       0.00917482      -0.12998999
C        9.09649262       6.37932120       2.01959784  T       0.01621902      -0.00898907      -0.00265228
O        7.79140383       6.49079174       1.89596379  T       0.01359995      -0.02318519      -0.01360227
O        9.85579074       7.41100503       2.14970439  T       0.00287135      -0.00107479       0.00655809
O        9.61852559       5.16698693       1.91986819  T       0.02695423      -0.00340245      -0.00417687
C        4.61343362       6.45050070       2.61549768  T      -0.00488087       0.00077852       0.01726521
O        4.71128239       6.21672454       3.82269224  T      -0.02210445       0.00600284      -0.01295805
O        0.34172394       0.18164553       2.11062893  T       0.00746679       0.00780154       0.00204025
O        4.45601236       5.38992951       1.77382092  T      -0.00282297       0.01075098      -0.00292766
44
Lattice="8.62960276 0.0 0.0 4.31480138 7.47345479 0.0 0.0 0.0 23.48680104" Properties=species:S:1:pos:R:3:move_mask:L:1:forces:R:3 energy=-160.40377557000002 stress="0.005861133958696197 -0.0005139934070369878 -0.00010637129376841299 -0.0005139934070369878 0.00537741818108547 6.566641819268769e-06 -0.00010637129376841299 6.566641819268769e-06 0.002385336548034093" free_energy=-160.39628059 pbc="T T T"
Ag       4.28732529       2.51190281       0.02623288  T      -0.00175120       0.00024818       0.00150871
Ag       8.62486912       0.03783907      23.47150127  T      -0.00038326       0.00092396       0.00195738
Ag       1.43712416       2.48353306      23.49458504  T      -0.00211276       0.00108383       0.00169031
Ag       2.84366700       0.05052220       0.04592210  T      -0.00065364       0.00128675       0.00270647
Ag       5.80565906       0.12324429      23.42167519  T      -0.00239222       0.00164417       0.00197198
Ag      11.42583918       5.00375801       0.20725975  T       0.00047150       0.00056165      -0.01032669
Ag       8.56364973       4.86934711      23.41638667  T      -0.00508347      -0.00007866       0.00397128
Ag       7.18341359       2.49636236      23.49799015  T      -0.00208339      -0.00053341       0.00199152
Ag       5.76350263       4.95523601       0.02815198  T      -0.00281235      -0.00060526      -0.00047750
Ag       1.44923672       0.81985600      21.14423032  T      -0.00066428       0.00050754       0.00120767
Ag       4.30279221       0.82823165      21.14127709  T      -0.00102813       0.00040899       0.00052500
Ag       2.87255317       3.34775343      21.17748740  T      -0.00093312      -0.00006965      -0.00021226
Ag       5.74635229       3.33231215      21.14712437  T      -0.00074639      -0.00002084       0.00047407
Ag       7.20077277       0.82380505      21.11558723  T      -0.00074434       0.00002651       0.00113901
Ag       4.29569281       5.81308937      21.18013131  T      -0.00098736       0.00083143      -0.00011734
Ag      10.07454534       5.81604923      21.18062664  T      -0.00220421       0.00054015       0.00044653
Ag       7.18089197       5.81524120      21.15475523  T      -0.00110927       0.00018323       0.00060962
Ag       8.62755685       3.31444910      21.11002109  T      -0.00101288       0.00062782       0.00170732
Ag       2.87653004       1.66077003      18.78943989  F      -0.00508568       0.04640290       0.15176533
Ag       4.31480004       4.15192003      18.78943989  F      -0.02405940       0.01882562       0.19536650
Ag       5.75307005       1.66077003      18.78943989  F      -0.01417529       0.02484009       0.12902874
Ag       7.19134005       4.15192003      18.78943989  F      -0.03211932       0.02816983       0.06927245
Ag       8.62960004       1.66077003      18.78943989  F       0.02586781      -0.00575335       0.07509282
Ag       5.75307005       6.64307004      18.78943989  F      -0.00672993      -0.03988427       0.12909790
Ag      11.50614005       6.64307004      18.78943989  F      -0.01468609      -0.07087478       0.07193395
Ag      10.06787004       4.15192003      18.78943989  F       0.04530615       0.03568764       0.14498591
Ag       8.62961005       6.64307004      18.78943989  F       0.01407824      -0.03633587       0.13286173
Ag       0.00000000       0.00000000      16.44076002  F       0.00033151      -0.00296482      -0.12620555
Ag       2.87653000       0.00000000      16.44076002  F      -0.00630298      -0.00187308      -0.13010672
Ag       1.43826724       2.49115000      16.44076002  F       0.00070625      -0.01496160      -0.11030011
Ag       4.31480000       2.49115000      16.44076002  F      -0.00735570      -0.00052517      -0.10702871
Ag       5.75307000       0.00000000      16.44076002  F       0.00578518      -0.01395659      -0.12195973
Ag       2.87654001       4.98231002      16.44076002  F       0.00551051       0.01708676      -0.12554156
Ag       8.62961001       4.98231002      16.44076002  F      -0.00772891       0.01036085      -0.12347560
Ag       7.19134001       2.49115000      16.44076002  F       0.00656113      -0.00005675      -0.12354672
Ag       5.75307000       4.98231002      16.44076002  F       0.00349550       0.00915603      -0.13015375
C        9.09777023       6.37862632       2.01936885  T       0.01593593      -0.00856389      -0.00287184
O        7.79247891       6.48895178       1.89488176  T       0.01369109      -0.02301561      -0.01336303
O        9.85602011       7.41092716       2.15022908  T       0.00237319      -0.00163860       0.00637541
O        9.62067790       5.16666617       1.91952928  T       0.02631587      -0.00338061      -0.00418263
C        4.61296468       6.45097049       2.61556579  T      -0.00500076       0.00439128       0.00820282
O        4.70962970       6.21699022       3.82278384  T      -0.02073239       0.00473162      -0.00630456
O        0.34230976       0.18223212       2.11083514  T       0.00709199       0.00719690       0.00279361
O        4.45577634       5.39067087       1.77354096  T      -0.00284314       0.00936908      -0.00250976
