108
Lattice="12.515153631 0.0 0.0 0.0 12.515153631 0.0 0.0 0.0 25.30973" Properties=species:S:1:pos:R:3:move_mask:L:1:forces:R:3 stress="0.007948393351065931 -4.581267698398311e-06 0.0005562682593352195 -4.581267698398311e-06 0.0085894587533854 2.9260194782140715e-05 0.0005562682593352195 2.9260194782140715e-05 0.0026966128102922323" free_energy=-444.93629625 energy=-444.93372221 pbc="T T T"
Cu       1.25152000       1.25152000      10.00000000  F       0.00006900      -0.01491000      -0.07076300
Cu       3.75455000       1.25152000      10.00000000  F       0.00239600       0.00668700      -0.07307700
Cu       6.25758000       1.25152000      10.00000000  F       0.00260400       0.02647900      -0.05733100
Cu       8.76061000       1.25152000      10.00000000  F       0.00310200       0.01380500      -0.06125800
Cu      11.26364000       1.25152000      10.00000000  F      -0.00907000      -0.00648500      -0.07412100
Cu       1.25152000       3.75455000      10.00000000  F       0.00371500       0.01053900      -0.07232600
Cu       3.75455000       3.75455000      10.00000000  F       0.01383000      -0.01318900      -0.05077400
Cu       6.25758000       3.75455000      10.00000000  F      -0.00617500      -0.02539100      -0.07887800
Cu       8.76061000       3.75455000      10.00000000  F       0.00608200      -0.02105600      -0.08253800
Cu      11.26364000       3.75455000      10.00000000  F      -0.01335800       0.00435400      -0.05546800
Cu       1.25152000       6.25758000      10.00000000  F       0.00280900      -0.00898600      -0.07394800
Cu       3.75455000       6.25758000      10.00000000  F       0.01533300       0.01406200      -0.05176300
Cu       6.25758000       6.25758000      10.00000000  F      -0.00606600       0.02763500      -0.08274100
Cu       8.76061000       6.25758000      10.00000000  F       0.00459400       0.02178200      -0.08331200
Cu      11.26364000       6.25758000      10.00000000  F      -0.01263500      -0.00293700      -0.05676100
Cu       1.25152000       8.76061000      10.00000000  F       0.00026500       0.01156200      -0.06990200
Cu       3.75455000       8.76061000      10.00000000  F       0.00181400      -0.00883600      -0.07203100
Cu       6.25758000       8.76061000      10.00000000  F       0.00242300      -0.03071000      -0.05544800
Cu       8.76061000       8.76061000      10.00000000  F       0.00380000      -0.01587300      -0.06067100
Cu      11.26364000       8.76061000      10.00000000  F      -0.00920400       0.00350100      -0.07332800
Cu       1.25152000      11.26364000      10.00000000  F      -0.00226100       0.00178900      -0.01915400
Cu       3.75455000      11.26364000      10.00000000  F      -0.00790100       0.00139800      -0.06796100
Cu       6.25758000      11.26364000      10.00000000  F      -0.00589100       0.00199500      -0.07099400
Cu       8.76061000      11.26364000      10.00000000  F       0.00039400       0.00131500      -0.06883100
Cu      11.26364000      11.26364000      10.00000000  F       0.00950000       0.00168300      -0.06963400
Cu       0.00000000       0.00000000      11.76991000  F      -0.01141300       0.03245500       0.14260100
Cu       2.50303000       0.00000000      11.76991000  F       0.04088500       0.03220300       0.11398000
Cu       5.00606000       0.00000000      11.76991000  F       0.04920800       0.09442000       0.11386600
Cu       7.50909000       0.00000000      11.76991000  F       0.01843800       0.06571000       0.10974700
Cu      10.01212000       0.00000000      11.76991000  F      -0.01231200       0.07467900       0.11327700
Cu       0.00000000       2.50303000      11.76991000  F      -0.05996900       0.03394300       0.12603700
Cu       2.50303000       2.50303000      11.76991000  F       0.07064900       0.02700700       0.11812800
Cu       5.00606000       2.50303000      11.76991000  F       0.00100100      -0.02207600       0.13700900
Cu       7.50909000       2.50303000      11.76991000  F      -0.02689600       0.00185000       0.13845900
Cu      10.01212000       2.50303000      11.76991000  F       0.07432600      -0.07197900       0.05133800
Cu       0.00000000       5.00606000      11.76991000  F      -0.07372000       0.00089800       0.09259800
Cu       2.50303000       5.00606000      11.76991000  F       0.05882500      -0.00142600       0.09094300
Cu       5.00606000       5.00606000      11.76991000  F      -0.01449700       0.00157700       0.24910300
Cu       7.50909000       5.00606000      11.76991000  F      -0.03368700       0.00366300       0.17059800
Cu      10.01212000       5.00606000      11.76991000  F       0.04927300       0.00102100       0.05520100
Cu       0.00000000       7.50909000      11.76991000  F      -0.05603400      -0.03981600       0.12702500
Cu       2.50303000       7.50909000      11.76991000  F       0.07057800      -0.03033300       0.11616400
Cu       5.00606000       7.50909000      11.76991000  F       0.00590500       0.02134100       0.13680100
Cu       7.50909000       7.50909000      11.76991000  F      -0.02436100      -0.00230700       0.13794500
Cu      10.01212000       7.50909000      11.76991000  F       0.08021900       0.07091300       0.04861300
Cu       0.00000000      10.01212000      11.76991000  F      -0.00958900      -0.03214000       0.13879300
Cu       2.50303000      10.01212000      11.76991000  F       0.04196900      -0.03097300       0.11213900
Cu       5.00606000      10.01212000      11.76991000  F       0.04999400      -0.08705700       0.11138300
Cu       7.50909000      10.01212000      11.76991000  F       0.02072400      -0.05559000       0.10601100
Cu      10.01212000      10.01212000      11.76991000  F      -0.00986300      -0.06986400       0.10936100
Cu       1.26936000       1.24326000      13.58668000  T      -0.00102400      -0.01511200       0.00308400
Cu       3.79106000       1.26175000      13.60931000  T      -0.00937600      -0.01009100      -0.02037500
Cu       6.29399000       1.28180000      13.61715000  T       0.00693200      -0.00120100      -0.01014700
Cu       8.77850000       1.27691000      13.61407000  T       0.00406800      -0.00711400      -0.00410000
Cu      11.26862000       1.26402000      13.61377000  T       0.01124500      -0.01121500      -0.01515900
Cu       1.24881000       3.75556000      13.58027000  T      -0.00837500       0.00347000      -0.00963900
Cu       3.76766000       3.76254000      13.61333000  T      -0.02382800       0.00546500      -0.00810100
Cu       6.26192000       3.78225000      13.60523000  T      -0.00881000       0.02088200      -0.02708300
Cu       8.75087000       3.76780000      13.56244000  T      -0.01049200       0.00008800      -0.05014000
Cu      11.22809000       3.75963000      13.60978000  T       0.00470700      -0.00197300      -0.00568400
Cu       1.25049000       6.25466000      13.58042000  T      -0.00943500      -0.00225000      -0.00825800
Cu       3.76922000       6.24889000      13.61110000  T      -0.02552800      -0.00623200      -0.00842500
Cu       6.26441000       6.23281000      13.60462000  T      -0.00867000      -0.02270300      -0.02443000
Cu       8.75340000       6.24582000      13.56202000  T      -0.01241000      -0.00247500      -0.05072500
Cu      11.23016000       6.25267000      13.60945000  T       0.00348600       0.00142700      -0.00728700
Cu       1.27073000       8.76712000      13.58661000  T      -0.00130500       0.01271700       0.00249600
Cu       3.79164000       8.75098000      13.60819000  T      -0.00981400       0.01006200      -0.01713700
Cu       6.29584000       8.73485000      13.61537000  T       0.00512800       0.00181600      -0.00740600
Cu       8.78141000       8.73811000      13.61200000  T       0.00252100       0.00881500      -0.00165600
Cu      11.27079000       8.74768000      13.61374000  T       0.00925300       0.01281100      -0.01394700
Cu       1.24567000      11.26275000      13.61006000  T      -0.01448200       0.00159900      -0.01111300
Cu       3.74000000      11.26396000      13.58156000  T      -0.01302700       0.00165500       0.00127600
Cu       6.25436000      11.26587000      13.57301000  T      -0.00145300       0.00251700      -0.01397300
Cu       8.76443000      11.26502000      13.57936000  T      -0.00687700       0.00084600      -0.00771700
Cu      11.26876000      11.26331000      13.58993000  T       0.02437600       0.00167800       0.00120200
Cu      12.50831000       0.00657000      15.40059000  T       0.00142800       0.01015300      -0.08060800
Cu       2.50401000      12.51358000      15.39682000  T       0.01211700       0.01282100      -0.08147200
Cu       5.00365000      12.48353000      15.37042000  T       0.00654100      -0.00219200      -0.04833500
Cu       7.51009000      12.49404000      15.36415000  T      -0.00410400       0.00375700      -0.05930500
Cu      10.01201000      12.49891000      15.38127000  T      -0.01321800       0.00205300      -0.06016800
Cu       0.07787000       2.50747000      15.37352000  T       0.02119300       0.00420500      -0.04345300
Cu       2.54107000       2.49111000      15.36613000  T       0.02148300       0.01842000      -0.04479900
Cu       5.02204000       2.42353000      15.46066000  T      -0.05427900      -0.05458800      -0.08591200
Cu       7.63027000       2.49675000      15.46135000  T       0.05885100      -0.07609800      -0.11747400
Cu      10.13593000       2.46307000      15.47972000  T       0.04014300      -0.04962000      -0.06998800
Cu      12.43500000       5.00641000      15.35722000  T      -0.02309700       0.00289100      -0.06072300
Cu       2.31922000       5.00315000      15.43216000  T      -0.02915300       0.00312900      -0.04423400
Pd       4.79770000       5.01039000      15.68779000  T      -0.07511200      -0.00231600      -0.04564000
Y        7.49481000       5.01058000      17.26726000  T      -0.12425800       0.00074300       0.09507600
Cu       9.95088000       5.00652000      15.46877000  T       0.08408100       0.00153200      -0.14838300
Cu       0.08309000       7.50495000      15.37412000  T       0.02008900      -0.01221700      -0.04216300
Cu       2.54516000       7.51504000      15.36599000  T       0.02286800      -0.01874800      -0.04499300
Cu       5.02339000       7.59532000      15.45661000  T      -0.05182400       0.05291200      -0.08448800
Cu       7.63938000       7.52439000      15.45756000  T       0.05825700       0.06920900      -0.11172200
Cu      10.14246000       7.54870000      15.48092000  T       0.03772000       0.05163600      -0.06943200
Cu      12.50789000      10.00537000      15.40103000  T       0.00116900      -0.00867700      -0.08106200
Cu       2.50387000      10.00813000      15.39670000  T       0.01303800      -0.01142500      -0.08252900
Cu       5.00344000      10.04880000      15.36944000  T       0.00873000      -0.00069500      -0.04744800
Cu       7.51025000      10.03925000      15.36312000  T      -0.00493800      -0.01104200      -0.05935500
Cu      10.01135000      10.02676000      15.38105000  T      -0.01352400      -0.00275500      -0.06060100
O        6.28051000       3.37829000      16.54385000  T      -0.08611600       0.01519200       0.06630500
O        6.28865000       6.63742000      16.52709000  T      -0.08496600      -0.01540700       0.06773100
O        9.04590000       6.42676000      16.58060000  T       0.03931400       0.11033100       0.10045600
O        9.03737000       3.58769000      16.57580000  T       0.04695800      -0.10499800       0.10576500
C        4.09815000       5.00593000      17.57763000  T       0.45573500       0.02029000       0.29707900
O        5.20916000       5.04309000      18.52878000  T      -0.43077200      -0.03170700      -0.54703400
O        2.97146000       4.97133000      18.02704000  T      -0.03538900       0.01022700       0.16990400
H        4.79097000       5.03757000      19.41089000  T      -0.12560100      -0.01083500       0.31934300
108
Lattice="12.515153631 0.0 0.0 0.0 12.515153631 0.0 0.0 0.0 25.30973" Properties=species:S:1:pos:R:3:move_mask:L:1:forces:R:3 stress="0.008038870267354734 -3.6575243477675893e-06 0.00048489660248074445 -3.6575243477675893e-06 0.008653995957747034 2.7556262790774586e-05 0.00048489660248074445 2.7556262790774586e-05 0.002797644118512904" free_energy=-444.94837668 energy=-444.94582987 pbc="T T T"
Cu       1.25152000       1.25152000      10.00000000  F       0.00024100      -0.01497600      -0.07068600
Cu       3.75455000       1.25152000      10.00000000  F       0.00259700       0.00666300      -0.07289400
Cu       6.25758000       1.25152000      10.00000000  F       0.00245700       0.02641500      -0.05699600
Cu       8.76061000       1.25152000      10.00000000  F       0.00257000       0.01387000      -0.06119500
Cu      11.26364000       1.25152000      10.00000000  F      -0.00919400      -0.00657000      -0.07412000
Cu       1.25152000       3.75455000      10.00000000  F       0.00392400       0.01058800      -0.07233800
Cu       3.75455000       3.75455000      10.00000000  F       0.01394700      -0.01305900      -0.05073700
Cu       6.25758000       3.75455000      10.00000000  F      -0.00637100      -0.02537900      -0.07887100
Cu       8.76061000       3.75455000      10.00000000  F       0.00569800      -0.02107400      -0.08255300
Cu      11.26364000       3.75455000      10.00000000  F      -0.01354700       0.00437200      -0.05548600
Cu       1.25152000       6.25758000      10.00000000  F       0.00301500      -0.00907800      -0.07398800
Cu       3.75455000       6.25758000      10.00000000  F       0.01543800       0.01386800      -0.05174700
Cu       6.25758000       6.25758000      10.00000000  F      -0.00626800       0.02755400      -0.08277300
Cu       8.76061000       6.25758000      10.00000000  F       0.00422100       0.02173200      -0.08335400
Cu      11.26364000       6.25758000      10.00000000  F      -0.01281300      -0.00300600      -0.05679400
Cu       1.25152000       8.76061000      10.00000000  F       0.00043000       0.01163300      -0.06984700
Cu       3.75455000       8.76061000      10.00000000  F       0.00200000      -0.00880000      -0.07188700
Cu       6.25758000       8.76061000      10.00000000  F       0.00227400      -0.03062800      -0.05519500
Cu       8.76061000       8.76061000      10.00000000  F       0.00326900      -0.01592800      -0.06065900
Cu      11.26364000       8.76061000      10.00000000  F      -0.00931500       0.00358600      -0.07333600
Cu       1.25152000      11.26364000      10.00000000  F      -0.00227400       0.00180000      -0.01929600
Cu       3.75455000      11.26364000      10.00000000  F      -0.00774700       0.00142300      -0.06760200
Cu       6.25758000      11.26364000      10.00000000  F      -0.00607800       0.00201800      -0.07086500
Cu       8.76061000      11.26364000      10.00000000  F      -0.00001900       0.00134400      -0.06877800
Cu      11.26364000      11.26364000      10.00000000  F       0.00948900       0.00169900      -0.06972300
Cu       0.00000000       0.00000000      11.76991000  F      -0.01125700       0.03229600       0.14154300
Cu       2.50303000       0.00000000      11.76991000  F       0.04100900       0.03198200       0.11341500
Cu       5.00606000       0.00000000      11.76991000  F       0.04918600       0.09431300       0.11351700
Cu       7.50909000       0.00000000      11.76991000  F       0.01804600       0.06575500       0.10916800
Cu      10.01212000       0.00000000      11.76991000  F      -0.01255700       0.07419300       0.11295500
Cu       0.00000000       2.50303000      11.76991000  F      -0.05968800       0.03388800       0.12561800
Cu       2.50303000       2.50303000      11.76991000  F       0.07064400       0.02687800       0.11777000
Cu       5.00606000       2.50303000      11.76991000  F       0.00070800      -0.02214000       0.13677800
Cu       7.50909000       2.50303000      11.76991000  F      -0.02752800       0.00128300       0.13749200
Cu      10.01212000       2.50303000      11.76991000  F       0.07428100      -0.07229800       0.05062600
Cu       0.00000000       5.00606000      11.76991000  F      -0.07366200       0.00089800       0.09180600
Cu       2.50303000       5.00606000      11.76991000  F       0.05868800      -0.00141800       0.08994800
Cu       5.00606000       5.00606000      11.76991000  F      -0.01533200       0.00159200       0.24806800
Cu       7.50909000       5.00606000      11.76991000  F      -0.03457500       0.00364800       0.16852100
Cu      10.01212000       5.00606000      11.76991000  F       0.04957300       0.00098300       0.05384700
Cu       0.00000000       7.50909000      11.76991000  F      -0.05578000      -0.03974700       0.12663600
Cu       2.50303000       7.50909000      11.76991000  F       0.07059800      -0.03019800       0.11582900
Cu       5.00606000       7.50909000      11.76991000  F       0.00559600       0.02140500       0.13670000
Cu       7.50909000       7.50909000      11.76991000  F      -0.02504000      -0.00171800       0.13710700
Cu      10.01212000       7.50909000      11.76991000  F       0.08012600       0.07126100       0.04796900
Cu       0.00000000      10.01212000      11.76991000  F      -0.00943300      -0.03199200       0.13780700
Cu       2.50303000      10.01212000      11.76991000  F       0.04211100      -0.03078700       0.11167300
Cu       5.00606000      10.01212000      11.76991000  F       0.04996200      -0.08696600       0.11114300
Cu       7.50909000      10.01212000      11.76991000  F       0.02028800      -0.05564200       0.10551600
Cu      10.01212000      10.01212000      11.76991000  F      -0.01011700      -0.06937700       0.10909400
Cu       1.26935000       1.24312000      13.58671000  T      -0.00034000      -0.01332300       0.00062000
Cu       3.79097000       1.26166000      13.60911000  T      -0.00873800      -0.00996000      -0.02274200
Cu       6.29406000       1.28178000      13.61705000  T       0.00598400      -0.00091300      -0.01246800
Cu       8.77854000       1.27684000      13.61403000  T       0.00464700      -0.00764100      -0.00835800
Cu      11.26873000       1.26391000      13.61363000  T       0.01086700      -0.01061800      -0.01748300
Cu       1.24872000       3.75560000      13.58018000  T      -0.00771000       0.00279200      -0.01142600
Cu       3.76743000       3.76259000      13.61325000  T      -0.02241500       0.00569800      -0.01005200
Cu       6.26183000       3.78246000      13.60497000  T      -0.00937300       0.01831700      -0.02556800
Cu       8.75076000       3.76780000      13.56196000  T      -0.01030300       0.00003000      -0.04727100
Cu      11.22813000       3.75961000      13.60972000  T       0.00440100      -0.00324300      -0.00881700
Cu       1.25040000       6.25464000      13.58034000  T      -0.00873400      -0.00167500      -0.01026600
Cu       3.76897000       6.24883000      13.61102000  T      -0.02396700      -0.00644700      -0.01032000
Cu       6.26433000       6.23259000      13.60439000  T      -0.00930200      -0.02002600      -0.02312200
Cu       8.75328000       6.24580000      13.56154000  T      -0.01218600      -0.00227100      -0.04785700
Cu      11.23019000       6.25269000      13.60938000  T       0.00312800       0.00279900      -0.01035800
Cu       1.27072000       8.76725000      13.58663000  T      -0.00072400       0.01115700       0.00020200
Cu       3.79155000       8.75108000      13.60802000  T      -0.00917800       0.00994400      -0.01977200
Cu       6.29589000       8.73487000      13.61530000  T       0.00428800       0.00139800      -0.00995400
Cu       8.78144000       8.73820000      13.61198000  T       0.00310300       0.00909200      -0.00611700
Cu      11.27088000       8.74780000      13.61361000  T       0.00908100       0.01205500      -0.01627700
Cu       1.24553000      11.26276000      13.60995000  T      -0.01257400       0.00141100      -0.01287400
Cu       3.73988000      11.26398000      13.58158000  T      -0.01169700       0.00150200      -0.00143100
Cu       6.25434000      11.26590000      13.57288000  T      -0.00221700       0.00231800      -0.01563000
Cu       8.76437000      11.26503000      13.57928000  T      -0.00642400       0.00078300      -0.00983600
Cu      11.26899000      11.26332000      13.58994000  T       0.02143100       0.00160400      -0.00094500
Cu      12.50832000       0.00667000      15.39982000  T       0.00128100       0.00964500      -0.07691400
Cu       2.50412000      12.51371000      15.39603000  T       0.01173300       0.01225600      -0.07832000
Cu       5.00371000      12.48351000      15.36995000  T       0.00648000      -0.00344100      -0.04718100
Cu       7.51005000      12.49408000      15.36358000  T      -0.00468300       0.00157200      -0.05706700
Cu      10.01189000      12.49893000      15.38069000  T      -0.01274100       0.00021600      -0.05817900
Cu       0.07807000       2.50751000      15.37310000  T       0.02118500       0.00397800      -0.04200900
Cu       2.54127000       2.49129000      15.36570000  T       0.01958700       0.01852600      -0.04251700
Cu       5.02152000       2.42300000      15.45983000  T      -0.04518500      -0.04643400      -0.07904700
Cu       7.63084000       2.49601000      15.46022000  T       0.04696900      -0.06038800      -0.10006300
Cu      10.13632000       2.46259000      15.47904000  T       0.03393400      -0.04181200      -0.06168100
Cu      12.43478000       5.00644000      15.35663000  T      -0.02057500       0.00253400      -0.05802100
Cu       2.31894000       5.00318000      15.43174000  T      -0.02793100       0.00292800      -0.03241400
Pd       4.79698000       5.01037000      15.68735000  T      -0.06883300      -0.00189700      -0.03181700
Y        7.49361000       5.01059000      17.26817000  T      -0.07283000       0.00057800       0.05493500
Cu       9.95170000       5.00654000      15.46734000  T       0.06503200       0.00109900      -0.12860500
Cu       0.08328000       7.50483000      15.37371000  T       0.02007800      -0.01146300      -0.04079400
Cu       2.54538000       7.51486000      15.36555000  T       0.02084100      -0.01864900      -0.04287800
Cu       5.02289000       7.59583000      15.45580000  T      -0.04266700       0.04444100      -0.07765000
Cu       7.63994000       7.52506000      15.45648000  T       0.04647800       0.05428200      -0.09502200
Cu      10.14283000       7.54920000      15.48025000  T       0.03180200       0.04381400      -0.06147600
Cu      12.50790000      10.00528000      15.40025000  T       0.00107300      -0.00839600      -0.07753700
Cu       2.50399000      10.00802000      15.39590000  T       0.01265700      -0.01075600      -0.07948500
Cu       5.00353000      10.04879000      15.36898000  T       0.00856200       0.00072200      -0.04638100
Cu       7.51020000      10.03914000      15.36255000  T      -0.00542700      -0.00864100      -0.05720900
Cu      10.01122000      10.02673000      15.38047000  T      -0.01300900      -0.00085400      -0.05853900
O        6.27968000       3.37844000      16.54449000  T      -0.07860100       0.00863600       0.05802500
O        6.28783000       6.63727000      16.52774000  T      -0.07747800      -0.00859400       0.05988000
O        9.04628000       6.42783000      16.58157000  T       0.03355100       0.09974100       0.09203200
O        9.03782000       3.58668000      16.57682000  T       0.04116500      -0.09502800       0.09724400
C        4.10255000       5.00612000      17.58049000  T       0.17084300       0.01045800       0.29448600
O        5.20501000       5.04278000      18.52350000  T      -0.45728500      -0.02904900      -0.20884200
O        2.97111000       4.97143000      18.02868000  T       0.15209400       0.01663100       0.08075700
H        4.78976000       5.03746000      19.41397000  T      -0.02294000      -0.00959500       0.06158500
108
Lattice="12.515153631 0.0 0.0 0.0 12.515153631 0.0 0.0 0.0 25.30973" Properties=species:S:1:pos:R:3:move_mask:L:1:forces:R:3 stress="0.007889785580373886 -8.232550537040018e-06 0.00038867749779612814 -8.232550537040018e-06 0.008664999738335965 2.500348555828833e-05 0.00038867749779612814 2.500348555828833e-05 0.002729449389803504" free_energy=-444.96384792 energy=-444.96135463 pbc="T T T"
Cu       1.25152000       1.25152000      10.00000000  F      -0.00021900      -0.01516300      -0.07065600
Cu       3.75455000       1.25152000      10.00000000  F       0.00221100       0.00647600      -0.07307900
Cu       6.25758000       1.25152000      10.00000000  F       0.00255600       0.02627900      -0.05697500
Cu       8.76061000       1.25152000      10.00000000  F       0.00253600       0.01389100      -0.06133900
Cu      11.26364000       1.25152000      10.00000000  F      -0.00901400      -0.00670800      -0.07412800
Cu       1.25152000       3.75455000      10.00000000  F       0.00372900       0.01038700      -0.07231400
Cu       3.75455000       3.75455000      10.00000000  F       0.01367700      -0.01268400      -0.05097000
Cu       6.25758000       3.75455000      10.00000000  F      -0.00639500      -0.02511700      -0.07916100
Cu       8.76061000       3.75455000      10.00000000  F       0.00575800      -0.02108000      -0.08245700
Cu      11.26364000       3.75455000      10.00000000  F      -0.01377100       0.00415700      -0.05523200
Cu       1.25152000       6.25758000      10.00000000  F       0.00282000      -0.00886500      -0.07395800
Cu       3.75455000       6.25758000      10.00000000  F       0.01517100       0.01350700      -0.05192800
Cu       6.25758000       6.25758000      10.00000000  F      -0.00629000       0.02730000      -0.08304200
Cu       8.76061000       6.25758000      10.00000000  F       0.00427400       0.02174500      -0.08324600
Cu      11.26364000       6.25758000      10.00000000  F      -0.01303200      -0.00278200      -0.05654300
Cu       1.25152000       8.76061000      10.00000000  F      -0.00002200       0.01179400      -0.06975800
Cu       3.75455000       8.76061000      10.00000000  F       0.00160200      -0.00864600      -0.07203200
Cu       6.25758000       8.76061000      10.00000000  F       0.00237600      -0.03052300      -0.05511900
Cu       8.76061000       8.76061000      10.00000000  F       0.00322100      -0.01598900      -0.06078500
Cu      11.26364000       8.76061000      10.00000000  F      -0.00911400       0.00368400      -0.07333000
Cu       1.25152000      11.26364000      10.00000000  F      -0.00283400       0.00175800      -0.01930100
Cu       3.75455000      11.26364000      10.00000000  F      -0.00813800       0.00138100      -0.06755600
Cu       6.25758000      11.26364000      10.00000000  F      -0.00603000       0.00198300      -0.07155600
Cu       8.76061000      11.26364000      10.00000000  F       0.00000200       0.00132200      -0.06916100
Cu      11.26364000      11.26364000      10.00000000  F       0.00969600       0.00166800      -0.06928500
Cu       0.00000000       0.00000000      11.76991000  F      -0.01121500       0.03228100       0.13687200
Cu       2.50303000       0.00000000      11.76991000  F       0.03970500       0.03148900       0.10977900
Cu       5.00606000       0.00000000      11.76991000  F       0.04879500       0.09414800       0.11072000
Cu       7.50909000       0.00000000      11.76991000  F       0.01864400       0.06601200       0.10594600
Cu      10.01212000       0.00000000      11.76991000  F      -0.01183200       0.07288000       0.11090300
Cu       0.00000000       2.50303000      11.76991000  F      -0.05938000       0.03336600       0.12309100
Cu       2.50303000       2.50303000      11.76991000  F       0.06896700       0.02659300       0.11554700
Cu       5.00606000       2.50303000      11.76991000  F      -0.00022000      -0.02162200       0.13509400
Cu       7.50909000       2.50303000      11.76991000  F      -0.02816100      -0.00013000       0.13333000
Cu      10.01212000       2.50303000      11.76991000  F       0.07560600      -0.07339400       0.04724500
Cu       0.00000000       5.00606000      11.76991000  F      -0.07434300       0.00089200       0.08877500
Cu       2.50303000       5.00606000      11.76991000  F       0.05681100      -0.00141800       0.08587600
Cu       5.00606000       5.00606000      11.76991000  F      -0.01818100       0.00162900       0.24360500
Cu       7.50909000       5.00606000      11.76991000  F      -0.03651900       0.00358700       0.16050800
Cu      10.01212000       5.00606000      11.76991000  F       0.05210200       0.00086100       0.04878600
Cu       0.00000000       7.50909000      11.76991000  F      -0.05561200      -0.03916400       0.12414200
Cu       2.50303000       7.50909000      11.76991000  F       0.06898300      -0.02989600       0.11364400
Cu       5.00606000       7.50909000      11.76991000  F       0.00465800       0.02088600       0.13543900
Cu       7.50909000       7.50909000      11.76991000  F      -0.02583100      -0.00020500       0.13338700
Cu      10.01212000       7.50909000      11.76991000  F       0.08125200       0.07249800       0.04483100
Cu       0.00000000      10.01212000      11.76991000  F      -0.00941100      -0.03197800       0.13342000
Cu       2.50303000      10.01212000      11.76991000  F       0.04084400      -0.03034000       0.10837600
Cu       5.00606000      10.01212000      11.76991000  F       0.04954900      -0.08678000       0.10875400
Cu       7.50909000      10.01212000      11.76991000  F       0.02074000      -0.05589200       0.10262400
Cu      10.01212000      10.01212000      11.76991000  F      -0.00942000      -0.06803900       0.10725200
Cu       1.26934000       1.24258000      13.58666000  T       0.00071800      -0.00607800      -0.00868900
Cu       3.79059000       1.26123000      13.60807000  T      -0.00649200      -0.00758200      -0.02879500
Cu       6.29431000       1.28176000      13.61646000  T       0.00394700       0.00113400      -0.01848400
Cu       8.77878000       1.27650000      13.61356000  T       0.00750300      -0.00723100      -0.02013300
Cu      11.26919000       1.26347000      13.61281000  T       0.00886400      -0.00684800      -0.02396000
Cu       1.24839000       3.75570000      13.57964000  T      -0.00657300       0.00091100      -0.01640100
Cu       3.76649000       3.76284000      13.61278000  T      -0.01646900       0.00645300      -0.01375600
Cu       6.26142000       3.78319000      13.60391000  T      -0.01015600       0.01004200      -0.01788700
Cu       8.75034000       3.76780000      13.55999000  T      -0.00765900      -0.00047400      -0.03479300
Cu      11.22831000       3.75944000      13.60927000  T       0.00234800      -0.00640600      -0.01748200
Cu       1.25002000       6.25458000      13.57985000  T      -0.00747800      -0.00019100      -0.01608500
Cu       3.76797000       6.24855000      13.61054000  T      -0.01732600      -0.00717300      -0.01387600
Cu       6.26392000       6.23179000      13.60343000  T      -0.01029100      -0.01132000      -0.01603800
Cu       8.75278000       6.24571000      13.55954000  T      -0.00920200      -0.00119700      -0.03533100
Cu      11.23031000       6.25284000      13.60886000  T       0.00092100       0.00631700      -0.01873100
Cu       1.27069000       8.76769000      13.58657000  T      -0.00005700       0.00473000      -0.00855800
Cu       3.79116000       8.75150000      13.60710000  T      -0.00686700       0.00756700      -0.02689200
Cu       6.29607000       8.73491000      13.61481000  T       0.00270900      -0.00116700      -0.01687300
Cu       8.78160000       8.73859000      13.61161000  T       0.00590600       0.00764300      -0.01874900
Cu      11.27127000       8.74830000      13.61284000  T       0.00783600       0.00770300      -0.02305400
Cu       1.24501000      11.26282000      13.60933000  T      -0.00715000       0.00069100      -0.01962400
Cu       3.73939000      11.26404000      13.58144000  T      -0.00759100       0.00092100      -0.01065800
Cu       6.25423000      11.26599000      13.57215000  T      -0.00353200       0.00158800      -0.02052600
Cu       8.76412000      11.26506000      13.57879000  T      -0.00310900       0.00050400      -0.01702700
Cu      11.26985000      11.26339000      13.58983000  T       0.01111800       0.00122100      -0.00980800
Cu      12.50837000       0.00707000      15.39656000  T       0.00026900       0.00808000      -0.06213300
Cu       2.50461000      12.51423000      15.39271000  T       0.00960200       0.01071000      -0.06525400
Cu       5.00399000      12.48333000      15.36794000  T       0.00620300      -0.00610400      -0.04115500
Cu       7.50984000      12.49410000      15.36116000  T      -0.00496700      -0.00402100      -0.04790400
Cu      10.01136000      12.49890000      15.37821000  T      -0.00981800      -0.00415600      -0.04997100
Cu       0.07899000       2.50769000      15.37132000  T       0.01966100       0.00421900      -0.03551000
Cu       2.54207000       2.49210000      15.36390000  T       0.01234800       0.01873000      -0.03487200
Cu       5.01978000       2.42119000      15.45658000  T      -0.01500300      -0.01784000      -0.05292200
Cu       7.63260000       2.49377000      15.45629000  T       0.01048800      -0.01156300      -0.04420500
Cu      10.13765000       2.46098000      15.47656000  T       0.01450100      -0.01547000      -0.03504200
Cu      12.43395000       5.00654000      15.35418000  T      -0.01255600       0.00090900      -0.04788000
Cu       2.31770000       5.00330000      15.43041000  T      -0.02773800       0.00217700      -0.01437500
Pd       4.79411000       5.01029000      15.68652000  T      -0.05400900      -0.00115700       0.02329100
Y        7.49112000       5.01059000      17.26984000  T       0.00885600      -0.00167000      -0.03302100
Cu       9.95406000       5.00659000      15.46223000  T       0.00573100       0.00119100      -0.06430800
Cu       0.08415000       7.50435000      15.37197000  T       0.01855200      -0.00974000      -0.03492700
Cu       2.54623000       7.51404000      15.36374000  T       0.01319500      -0.01830900      -0.03531300
Cu       5.02125000       7.59755000      15.45261000  T      -0.01327000       0.01608500      -0.05220800
Cu       7.64168000       7.52705000      15.45276000  T       0.00894500       0.00686200      -0.04095900
Cu      10.14407000       7.55091000      15.47777000  T       0.01382000       0.01811400      -0.03642200
Cu      12.50794000      10.00493000      15.39696000  T       0.00018100      -0.00744100      -0.06348100
Cu       2.50452000      10.00757000      15.39253000  T       0.01028900      -0.00881300      -0.06633400
Cu       5.00389000      10.04886000      15.36700000  T       0.00791700       0.00409800      -0.04108800
Cu       7.50997000      10.03882000      15.36012000  T      -0.00547800      -0.00177500      -0.04803100
Cu      10.01068000      10.02674000      15.37797000  T      -0.01023900       0.00420400      -0.05021900
O        6.27648000       3.37869000      16.54679000  T      -0.04874700      -0.00814100       0.02554300
O        6.28467000       6.63703000      16.53014000  T      -0.04837400       0.00885500       0.03001000
O        9.04763000       6.43184000      16.58527000  T       0.01873600       0.05506800       0.04908400
O        9.03950000       3.58286000      16.58074000  T       0.02479200      -0.05142600       0.05237100
C        4.10999000       5.00655000      17.59047000  T      -0.08201700      -0.00065100       0.05296500
O        5.18814000       5.04164000      18.51686000  T      -0.04196800      -0.01345400       0.06338300
O        2.97483000       4.97207000      18.03277000  T       0.02168000       0.01313000       0.04275800
H        4.78857000       5.03704000      19.41606000  T      -0.06480400      -0.01049500       0.01530800
108
Lattice="12.515153631 0.0 0.0 0.0 12.515153631 0.0 0.0 0.0 25.30973" Properties=species:S:1:pos:R:3:move_mask:L:1:forces:R:3 stress="0.0078271645193139 -9.212467469803689e-06 0.00037939637372593973 -9.212467469803689e-06 0.008641107241402084 2.447919879171414e-05 0.00037939637372593973 2.447919879171414e-05 0.0026610549328020755" free_energy=-444.96842608 energy=-444.96595835 pbc="T T T"
Cu       1.25152000       1.25152000      10.00000000  F      -0.00029000      -0.01489400      -0.07075700
Cu       3.75455000       1.25152000      10.00000000  F       0.00165700       0.00666400      -0.07336100
Cu       6.25758000       1.25152000      10.00000000  F       0.00228300       0.02642300      -0.05760100
Cu       8.76061000       1.25152000      10.00000000  F       0.00274900       0.01412600      -0.06208000
Cu      11.26364000       1.25152000      10.00000000  F      -0.00854900      -0.00641900      -0.07454600
Cu       1.25152000       3.75455000      10.00000000  F       0.00360700       0.01045700      -0.07221100
Cu       3.75455000       3.75455000      10.00000000  F       0.01313000      -0.01249400      -0.05117200
Cu       6.25758000       3.75455000      10.00000000  F      -0.00667200      -0.02495100      -0.07972000
Cu       8.76061000       3.75455000      10.00000000  F       0.00604200      -0.02097000      -0.08280700
Cu      11.26364000       3.75455000      10.00000000  F      -0.01339000       0.00427600      -0.05532000
Cu       1.25152000       6.25758000      10.00000000  F       0.00270400      -0.00893600      -0.07385800
Cu       3.75455000       6.25758000      10.00000000  F       0.01462400       0.01332400      -0.05210600
Cu       6.25758000       6.25758000      10.00000000  F      -0.00656800       0.02714000      -0.08357300
Cu       8.76061000       6.25758000      10.00000000  F       0.00455400       0.02164700      -0.08356600
Cu      11.26364000       6.25758000      10.00000000  F      -0.01265500      -0.00289800      -0.05663000
Cu       1.25152000       8.76061000      10.00000000  F      -0.00009000       0.01146400      -0.06982400
Cu       3.75455000       8.76061000      10.00000000  F       0.00104800      -0.00890000      -0.07228000
Cu       6.25758000       8.76061000      10.00000000  F       0.00211400      -0.03073200      -0.05569700
Cu       8.76061000       8.76061000      10.00000000  F       0.00342500      -0.01629700      -0.06149300
Cu      11.26364000       8.76061000      10.00000000  F      -0.00865400       0.00332200      -0.07372000
Cu       1.25152000      11.26364000      10.00000000  F      -0.00287800       0.00170500      -0.01957700
Cu       3.75455000      11.26364000      10.00000000  F      -0.00864800       0.00132400      -0.06794600
Cu       6.25758000      11.26364000      10.00000000  F      -0.00632400       0.00192400      -0.07253800
Cu       8.76061000      11.26364000      10.00000000  F       0.00017600       0.00126900      -0.07012500
Cu      11.26364000      11.26364000      10.00000000  F       0.01006800       0.00161700      -0.06965200
Cu       0.00000000       0.00000000      11.76991000  F      -0.01060900       0.03251900       0.13255500
Cu       2.50303000       0.00000000      11.76991000  F       0.03891600       0.03142500       0.10581300
Cu       5.00606000       0.00000000      11.76991000  F       0.04821900       0.09423500       0.10717900
Cu       7.50909000       0.00000000      11.76991000  F       0.01862700       0.06645900       0.10240600
Cu      10.01212000       0.00000000      11.76991000  F      -0.01096700       0.07227300       0.10761700
Cu       0.00000000       2.50303000      11.76991000  F      -0.05858500       0.03351200       0.11961300
Cu       2.50303000       2.50303000      11.76991000  F       0.06796200       0.02701000       0.11263600
Cu       5.00606000       2.50303000      11.76991000  F      -0.00105600      -0.02056500       0.13284100
Cu       7.50909000       2.50303000      11.76991000  F      -0.02887700      -0.00022800       0.12962700
Cu      10.01212000       2.50303000      11.76991000  F       0.07653400      -0.07349200       0.04338300
Cu       0.00000000       5.00606000      11.76991000  F      -0.07451600       0.00088300       0.08534000
Cu       2.50303000       5.00606000      11.76991000  F       0.05592200      -0.00141200       0.08235800
Cu       5.00606000       5.00606000      11.76991000  F      -0.01997400       0.00166900       0.24038100
Cu       7.50909000       5.00606000      11.76991000  F      -0.03838400       0.00356300       0.15528600
Cu      10.01212000       5.00606000      11.76991000  F       0.05367900       0.00078900       0.04465900
Cu       0.00000000       7.50909000      11.76991000  F      -0.05490300      -0.03928200       0.12066400
Cu       2.50303000       7.50909000      11.76991000  F       0.06802000      -0.03030800       0.11077900
Cu       5.00606000       7.50909000      11.76991000  F       0.00381300       0.01981400       0.13343400
Cu       7.50909000       7.50909000      11.76991000  F      -0.02666600      -0.00009500       0.12991800
Cu      10.01212000       7.50909000      11.76991000  F       0.08204200       0.07267100       0.04108800
Cu       0.00000000      10.01212000      11.76991000  F      -0.00882800      -0.03230000       0.12927400
Cu       2.50303000      10.01212000      11.76991000  F       0.04007600      -0.03041700       0.10462400
Cu       5.00606000      10.01212000      11.76991000  F       0.04896600      -0.08696200       0.10545200
Cu       7.50909000      10.01212000      11.76991000  F       0.02062300      -0.05642100       0.09928600
Cu      10.01212000      10.01212000      11.76991000  F      -0.00858000      -0.06751300       0.10412100
Cu       1.26936000       1.24237000      13.58637000  T       0.00167900      -0.00178400      -0.01345500
Cu       3.79036000       1.26098000      13.60710000  T      -0.00465500      -0.00433900      -0.02951500
Cu       6.29444000       1.28179000      13.61584000  T       0.00263700       0.00269300      -0.02015500
Cu       8.77903000       1.27626000      13.61291000  T       0.00725600      -0.00461000      -0.02261100
Cu      11.26950000       1.26323000      13.61201000  T       0.00738100      -0.00380300      -0.02508000
Cu       1.24816000       3.75573000      13.57909000  T      -0.00510000       0.00089100      -0.01858800
Cu       3.76592000       3.76305000      13.61232000  T      -0.01234100       0.00664500      -0.01418600
Cu       6.26108000       3.78354000      13.60330000  T      -0.01021100       0.00680200      -0.01311200
Cu       8.75009000       3.76778000      13.55880000  T      -0.00624600      -0.00089900      -0.02713900
Cu      11.22839000       3.75924000      13.60869000  T       0.00072400      -0.00632400      -0.01985600
Cu       1.24976000       6.25457000      13.57931000  T      -0.00594000      -0.00042300      -0.01881900
Cu       3.76737000       6.24832000      13.61007000  T      -0.01291100      -0.00723300      -0.01431900
Cu       6.26357000       6.23139000      13.60289000  T      -0.01048100      -0.00782500      -0.01167500
Cu       8.75247000       6.24567000      13.55833000  T      -0.00752200      -0.00040900      -0.02757600
Cu      11.23035000       6.25305000      13.60824000  T      -0.00059800       0.00641800      -0.02090900
Cu       1.27068000       8.76786000      13.58629000  T       0.00081400       0.00081800      -0.01317400
Cu       3.79091000       8.75175000      13.60620000  T      -0.00511700       0.00430800      -0.02835600
Cu       6.29616000       8.73488000      13.61424000  T       0.00166600      -0.00304000      -0.01915500
Cu       8.78180000       8.73884000      13.61100000  T       0.00560800       0.00433700      -0.02163300
Cu      11.27154000       8.74857000      13.61207000  T       0.00661000       0.00437000      -0.02449800
Cu       1.24476000      11.26284000      13.60867000  T      -0.00410800       0.00029800      -0.02242600
Cu       3.73912000      11.26407000      13.58108000  T      -0.00524800       0.00053800      -0.01537400
Cu       6.25412000      11.26605000      13.57146000  T      -0.00398300       0.00109600      -0.02262700
Cu       8.76402000      11.26507000      13.57822000  T      -0.00200900       0.00025800      -0.02038900
Cu      11.27025000      11.26343000      13.58951000  T       0.00638400       0.00089500      -0.01450200
Cu      12.50838000       0.00734000      15.39445000  T       0.00019500       0.00661100      -0.05148500
Cu       2.50493000      12.51458000      15.39051000  T       0.00739300       0.00947500      -0.05526300
Cu       5.00419000      12.48314000      15.36655000  T       0.00499400      -0.00522700      -0.03622800
Cu       7.50968000      12.49398000      15.35955000  T      -0.00435600      -0.00405800      -0.04080800
Cu      10.01103000      12.49877000      15.37652000  T      -0.00730400      -0.00436100      -0.04297000
Cu       0.07964000       2.50783000      15.37011000  T       0.01666900       0.00423400      -0.03082100
Cu       2.54248000       2.49271000      15.36271000  T       0.00942700       0.01684600      -0.03070900
Cu       5.01921000       2.42053000      15.45474000  T      -0.00328800      -0.00664900      -0.04103800
Cu       7.63304000       2.49326000      15.45468000  T      -0.00233300       0.00546100      -0.02291700
Cu      10.13818000       2.46040000      15.47532000  T       0.00792300      -0.00638100      -0.02506700
Cu      12.43350000       5.00657000      15.35255000  T      -0.01146100       0.00004700      -0.04118200
Cu       2.31673000       5.00337000      15.42981000  T      -0.02720900       0.00177600      -0.01296500
Pd       4.79253000       5.01026000      15.68709000  T      -0.02995000      -0.00067700       0.02667600
Y        7.49097000       5.01054000      17.26917000  T       0.00604400      -0.00106900      -0.03230000
Cu       9.95440000       5.00663000      15.45992000  T      -0.01364500       0.00117100      -0.03948200
Cu       0.08477000       7.50402000      15.37079000  T       0.01574900      -0.00837300      -0.03034400
Cu       2.54668000       7.51345000      15.36253000  T       0.00997500      -0.01633900      -0.03116500
Cu       5.02074000       7.59816000      15.45080000  T      -0.00224000       0.00516100      -0.04062300
Cu       7.64207000       7.52740000      15.45125000  T      -0.00412600      -0.00924800      -0.02097100
Cu      10.14457000       7.55157000      15.47648000  T       0.00709600       0.00818400      -0.02657900
Cu      12.50795000      10.00468000      15.39480000  T       0.00011900      -0.00639600      -0.05275600
Cu       2.50486000      10.00728000      15.39028000  T       0.00803900      -0.00738100      -0.05616100
Cu       5.00415000      10.04898000      15.36561000  T       0.00650000       0.00356200      -0.03651300
Cu       7.50979000      10.03874000      15.35850000  T      -0.00472300      -0.00083300      -0.04100600
Cu      10.01034000      10.02687000      15.37627000  T      -0.00762500       0.00466000      -0.04310500
O        6.27468000       3.37840000      16.54767000  T      -0.04027100      -0.01517300       0.00601300
O        6.28288000       6.63734000      16.53116000  T      -0.04091800       0.01567200       0.01174500
O        9.04844000       6.43398000      16.58705000  T       0.01906600       0.04545000       0.03206200
O        9.04052000       3.58086000      16.58265000  T       0.02483200      -0.04226300       0.03540100
C        4.10953000       5.00661000      17.59277000  T      -0.06246000      -0.00083300       0.01138400
O        5.18491000       5.04110000      18.51748000  T       0.01331500      -0.01148200       0.06529000
O        2.97491000       4.97251000      18.03492000  T      -0.04119300       0.01212700       0.04999900
H        4.78648000       5.03669000      19.41695000  T      -0.07343800      -0.01038700       0.02484100
108
Lattice="12.515153631 0.0 0.0 0.0 12.515153631 0.0 0.0 0.0 25.30973" Properties=species:S:1:pos:R:3:move_mask:L:1:forces:R:3 stress="0.007817565078278292 -9.33105614319547e-06 0.0003731361400726788 -9.33105614319547e-06 0.008633405219140746 2.414839880804233e-05 0.0003731361400726788 2.414839880804233e-05 0.0026332552511553913" free_energy=-444.97066497 energy=-444.96822129 pbc="T T T"
Cu       1.25152000       1.25152000      10.00000000  F      -0.00021300      -0.01451000      -0.07122600
Cu       3.75455000       1.25152000      10.00000000  F       0.00186800       0.00697200      -0.07400600
Cu       6.25758000       1.25152000      10.00000000  F       0.00207400       0.02667200      -0.05828200
Cu       8.76061000       1.25152000      10.00000000  F       0.00245500       0.01436800      -0.06272600
Cu      11.26364000       1.25152000      10.00000000  F      -0.00871100      -0.00605400      -0.07513700
Cu       1.25152000       3.75455000      10.00000000  F       0.00367400       0.01061500      -0.07295600
Cu       3.75455000       3.75455000      10.00000000  F       0.01323500      -0.01233200      -0.05200100
Cu       6.25758000       3.75455000      10.00000000  F      -0.00683100      -0.02480700      -0.08050600
Cu       8.76061000       3.75455000      10.00000000  F       0.00578400      -0.02083100      -0.08345100
Cu      11.26364000       3.75455000      10.00000000  F      -0.01347100       0.00438700      -0.05594100
Cu       1.25152000       6.25758000      10.00000000  F       0.00277600      -0.00915300      -0.07462100
Cu       3.75455000       6.25758000      10.00000000  F       0.01473200       0.01311000      -0.05292900
Cu       6.25758000       6.25758000      10.00000000  F      -0.00672100       0.02695300      -0.08435600
Cu       8.76061000       6.25758000      10.00000000  F       0.00429100       0.02146700      -0.08422000
Cu      11.26364000       6.25758000      10.00000000  F      -0.01274200      -0.00306200      -0.05727200
Cu       1.25152000       8.76061000      10.00000000  F      -0.00000600       0.01109600      -0.07031100
Cu       3.75455000       8.76061000      10.00000000  F       0.00126500      -0.00919500      -0.07293600
Cu       6.25758000       8.76061000      10.00000000  F       0.00191800      -0.03096700      -0.05639200
Cu       8.76061000       8.76061000      10.00000000  F       0.00312000      -0.01653200      -0.06216100
Cu      11.26364000       8.76061000      10.00000000  F      -0.00882300       0.00296900      -0.07432500
Cu       1.25152000      11.26364000      10.00000000  F      -0.00275100       0.00172900      -0.02019300
Cu       3.75455000      11.26364000      10.00000000  F      -0.00840800       0.00134800      -0.06849000
Cu       6.25758000      11.26364000      10.00000000  F      -0.00647700       0.00194300      -0.07319300
Cu       8.76061000      11.26364000      10.00000000  F      -0.00014800       0.00129300      -0.07070100
Cu      11.26364000      11.26364000      10.00000000  F       0.00981000       0.00164200      -0.07010100
Cu       0.00000000       0.00000000      11.76991000  F      -0.01057900       0.03259600       0.12866500
Cu       2.50303000       0.00000000      11.76991000  F       0.03851600       0.03136300       0.10217300
Cu       5.00606000       0.00000000      11.76991000  F       0.04830500       0.09416100       0.10386800
Cu       7.50909000       0.00000000      11.76991000  F       0.01866700       0.06669500       0.09918700
Cu      10.01212000       0.00000000      11.76991000  F      -0.01073500       0.07168900       0.10441400
Cu       0.00000000       2.50303000      11.76991000  F      -0.05838700       0.03329800       0.11632700
Cu       2.50303000       2.50303000      11.76991000  F       0.06742500       0.02716000       0.10989300
Cu       5.00606000       2.50303000      11.76991000  F      -0.00114100      -0.01994600       0.13057300
Cu       7.50909000       2.50303000      11.76991000  F      -0.02944800      -0.00043800       0.12654300
Cu      10.01212000       2.50303000      11.76991000  F       0.07673600      -0.07381000       0.03990100
Cu       0.00000000       5.00606000      11.76991000  F      -0.07520600       0.00084200       0.08229000
Cu       2.50303000       5.00606000      11.76991000  F       0.05544800      -0.00144500       0.07913600
Cu       5.00606000       5.00606000      11.76991000  F      -0.02091500       0.00167500       0.23776300
Cu       7.50909000       5.00606000      11.76991000  F      -0.03977100       0.00352800       0.15117000
Cu      10.01212000       5.00606000      11.76991000  F       0.05433800       0.00070900       0.04122100
Cu       0.00000000       7.50909000      11.76991000  F      -0.05477900      -0.03903700       0.11734000
Cu       2.50303000       7.50909000      11.76991000  F       0.06751800      -0.03045000       0.10805000
Cu       5.00606000       7.50909000      11.76991000  F       0.00373100       0.01918500       0.13130300
Cu       7.50909000       7.50909000      11.76991000  F      -0.02733200       0.00012200       0.12696800
Cu      10.01212000       7.50909000      11.76991000  F       0.08212600       0.07306100       0.03767900
Cu       0.00000000      10.01212000      11.76991000  F      -0.00882400      -0.03233200       0.12547800
Cu       2.50303000      10.01212000      11.76991000  F       0.03968300      -0.03035700       0.10112400
Cu       5.00606000      10.01212000      11.76991000  F       0.04906000      -0.08685300       0.10231000
Cu       7.50909000      10.01212000      11.76991000  F       0.02059300      -0.05662100       0.09620600
Cu      10.01212000      10.01212000      11.76991000  F      -0.00838100      -0.06689800       0.10102700
Cu       1.26939000       1.24225000      13.58601000  T       0.00203900       0.00081900      -0.01578100
Cu       3.79018000       1.26080000      13.60618000  T      -0.00275500      -0.00196400      -0.02823500
Cu       6.29455000       1.28185000      13.61522000  T       0.00213600       0.00339600      -0.02029400
Cu       8.77926000       1.27608000      13.61223000  T       0.00612600      -0.00246300      -0.02210500
Cu      11.26976000       1.26307000      13.61123000  T       0.00558300      -0.00181100      -0.02420100
Cu       1.24797000       3.75577000      13.57852000  T      -0.00426100       0.00085100      -0.01913000
Cu       3.76546000       3.76326000      13.61187000  T      -0.00877800       0.00654800      -0.01355000
Cu       6.26075000       3.78382000      13.60282000  T      -0.00987100       0.00461100      -0.00954600
Cu       8.74987000       3.76775000      13.55782000  T      -0.00547000      -0.00153500      -0.02061900
Cu      11.22844000       3.75904000      13.60810000  T      -0.00120800      -0.00599400      -0.02015500
Cu       1.24955000       6.25456000      13.57874000  T      -0.00500700      -0.00062900      -0.01966800
Cu       3.76689000       6.24809000      13.60962000  T      -0.00896500      -0.00709300      -0.01354200
Cu       6.26324000       6.23108000      13.60246000  T      -0.01025100      -0.00552900      -0.00848900
Cu       8.75221000       6.24565000      13.55734000  T      -0.00662700       0.00040900      -0.02114900
Cu      11.23036000       6.25325000      13.60761000  T      -0.00242300       0.00615100      -0.02095000
Cu       1.27069000       8.76794000      13.58593000  T       0.00118400      -0.00148700      -0.01536200
Cu       3.79072000       8.75193000      13.60532000  T      -0.00321500       0.00194500      -0.02766900
Cu       6.29623000       8.73481000      13.61367000  T       0.00132200      -0.00387900      -0.01973900
Cu       8.78198000       8.73902000      13.61036000  T       0.00460200       0.00178100      -0.02153300
Cu      11.27177000       8.74876000      13.61132000  T       0.00500400       0.00225000      -0.02381100
Cu       1.24458000      11.26286000      13.60800000  T      -0.00218300       0.00010800      -0.02303200
Cu       3.73891000      11.26409000      13.58066000  T      -0.00313100       0.00038700      -0.01777400
Cu       6.25400000      11.26609000      13.57076000  T      -0.00351900       0.00082300      -0.02311300
Cu       8.76394000      11.26508000      13.57762000  T      -0.00166100       0.00006800      -0.02138600
Cu      11.27053000      11.26346000      13.58911000  T       0.00273300       0.00074400      -0.01671300
Cu      12.50839000       0.00757000      15.39265000  T       0.00003600       0.00554500      -0.04383400
Cu       2.50518000      12.51490000      15.38860000  T       0.00594500       0.00843500      -0.04751600
Cu       5.00436000      12.48297000      15.36533000  T       0.00421600      -0.00389100      -0.03283600
Cu       7.50954000      12.49386000      15.35815000  T      -0.00386200      -0.00322100      -0.03634300
Cu      10.01077000      12.49864000      15.37505000  T      -0.00574000      -0.00386700      -0.03802400
Cu       0.08021000       2.50796000      15.36905000  T       0.01390400       0.00409300      -0.02706100
Cu       2.54283000       2.49326000      15.36166000  T       0.00790600       0.01494000      -0.02729600
Cu       5.01890000       2.42012000      15.45324000  T       0.00244500      -0.00082300      -0.03411100
Cu       7.63320000       2.49313000      15.45358000  T      -0.00869300       0.01464400      -0.01087200
Cu      10.13855000       2.46004000      15.47435000  T       0.00326200      -0.00070800      -0.01865100
Cu      12.43310000       5.00659000      15.35114000  T      -0.01160900      -0.00054800      -0.03585300
Cu       2.31583000       5.00344000      15.42931000  T      -0.02486900       0.00150300      -0.01118400
Pd       4.79138000       5.01023000      15.68777000  T      -0.02353500      -0.00059100       0.02186400
Y        7.49094000       5.01050000      17.26840000  T       0.00760300      -0.00130200      -0.03392700
Cu       9.95432000       5.00667000      15.45823000  T      -0.02543700       0.00111200      -0.02284900
Cu       0.08530000       7.50374000      15.36975000  T       0.01308300      -0.00737800      -0.02676600
Cu       2.54704000       7.51291000      15.36146000  T       0.00824300      -0.01433300      -0.02777600
Cu       5.02049000       7.59851000      15.44931000  T       0.00321400      -0.00075000      -0.03343500
Cu       7.64217000       7.52739000      15.45024000  T      -0.01054900      -0.01798800      -0.00955100
Cu      10.14492000       7.55200000      15.47547000  T       0.00246000       0.00222300      -0.02055600
Cu      12.50795000      10.00446000      15.39296000  T       0.00001000      -0.00532300      -0.04482700
Cu       2.50514000      10.00702000      15.38835000  T       0.00672800      -0.00630100      -0.04828400
Cu       5.00437000      10.04909000      15.36438000  T       0.00550000       0.00261800      -0.03332100
Cu       7.50964000      10.03869000      15.35709000  T      -0.00419400      -0.00080900      -0.03631500
Cu      10.01007000      10.02700000      15.37479000  T      -0.00608400       0.00436300      -0.03802900
O        6.27318000       3.37801000      16.54814000  T      -0.02802700      -0.01720400      -0.00381900
O        6.28137000       6.63775000      16.53179000  T      -0.02912100       0.01753900       0.00262900
O        9.04914000       6.43572000      16.58838000  T       0.01626400       0.03402100       0.01715500
O        9.04142000       3.57922000      16.58410000  T       0.02133800      -0.03162600       0.02072400
C        4.10859000       5.00664000      17.59403000  T      -0.07084000      -0.00130100       0.01400800
O        5.18351000       5.04067000      18.51866000  T       0.02274600      -0.01073200       0.06660100
O        2.97411000       4.97291000      18.03682000  T      -0.04117000       0.01238000       0.04113400
H        4.78430000       5.03636000      19.41782000  T      -0.07093100      -0.01024500       0.02428900
108
Lattice="12.515153631 0.0 0.0 0.0 12.515153631 0.0 0.0 0.0 25.30973" Properties=species:S:1:pos:R:3:move_mask:L:1:forces:R:3 stress="0.007740675927356536 -8.064029790641168e-06 0.0003501673864894285 -8.064029790641168e-06 0.008541062091623301 2.331203658517397e-05 0.0003501673864894285 2.331203658517397e-05 0.0024421090341752165" free_energy=-444.97416406 energy=-444.97174814 pbc="T T T"
Cu       1.25152000       1.25152000      10.00000000  F      -0.00005700      -0.01478400      -0.07043000
Cu       3.75455000       1.25152000      10.00000000  F       0.00251800       0.00655400      -0.07332600
Cu       6.25758000       1.25152000      10.00000000  F       0.00272300       0.02612400      -0.05748000
Cu       8.76061000       1.25152000      10.00000000  F       0.00274800       0.01380200      -0.06186000
Cu      11.26364000       1.25152000      10.00000000  F      -0.00889200      -0.00650600      -0.07458800
Cu       1.25152000       3.75455000      10.00000000  F       0.00383200       0.01011500      -0.07282800
Cu       3.75455000       3.75455000      10.00000000  F       0.01385300      -0.01266800      -0.05197700
Cu       6.25758000       3.75455000      10.00000000  F      -0.00621500      -0.02498700      -0.08011700
Cu       8.76061000       3.75455000      10.00000000  F       0.00602300      -0.02123000      -0.08278300
Cu      11.26364000       3.75455000      10.00000000  F      -0.01354700       0.00394200      -0.05557500
Cu       1.25152000       6.25758000      10.00000000  F       0.00295000      -0.00868500      -0.07455100
Cu       3.75455000       6.25758000      10.00000000  F       0.01533800       0.01341100      -0.05286700
Cu       6.25758000       6.25758000      10.00000000  F      -0.00609500       0.02710400      -0.08393200
Cu       8.76061000       6.25758000      10.00000000  F       0.00451800       0.02184400      -0.08354600
Cu      11.26364000       6.25758000      10.00000000  F      -0.01282400      -0.00264200      -0.05693000
Cu       1.25152000       8.76061000      10.00000000  F       0.00015600       0.01138600      -0.06952100
Cu       3.75455000       8.76061000      10.00000000  F       0.00189400      -0.00875600      -0.07224700
Cu       6.25758000       8.76061000      10.00000000  F       0.00257900      -0.03039300      -0.05555700
Cu       8.76061000       8.76061000      10.00000000  F       0.00341000      -0.01596400      -0.06126300
Cu      11.26364000       8.76061000      10.00000000  F      -0.00900100       0.00342700      -0.07374700
Cu       1.25152000      11.26364000      10.00000000  F      -0.00263400       0.00174100      -0.01930400
Cu       3.75455000      11.26364000      10.00000000  F      -0.00764800       0.00136500      -0.06759000
Cu       6.25758000      11.26364000      10.00000000  F      -0.00581300       0.00195100      -0.07205000
Cu       8.76061000      11.26364000      10.00000000  F       0.00021700       0.00132200      -0.06945400
Cu      11.26364000      11.26364000      10.00000000  F       0.00944400       0.00165600      -0.06880100
Cu       0.00000000       0.00000000      11.76991000  F      -0.01017300       0.03265500       0.11910800
Cu       2.50303000       0.00000000      11.76991000  F       0.03835600       0.03096000       0.09279600
Cu       5.00606000       0.00000000      11.76991000  F       0.04934100       0.09404300       0.09537100
Cu       7.50909000       0.00000000      11.76991000  F       0.01921500       0.06719300       0.09117900
Cu      10.01212000       0.00000000      11.76991000  F      -0.01000500       0.07032700       0.09624600
Cu       0.00000000       2.50303000      11.76991000  F      -0.05759300       0.03252200       0.10773100
Cu       2.50303000       2.50303000      11.76991000  F       0.06724800       0.02738900       0.10257800
Cu       5.00606000       2.50303000      11.76991000  F      -0.00027200      -0.01824400       0.12468000
Cu       7.50909000       2.50303000      11.76991000  F      -0.03063900      -0.00070600       0.11892300
Cu      10.01212000       2.50303000      11.76991000  F       0.07695200      -0.07477900       0.03072800
Cu       0.00000000       5.00606000      11.76991000  F      -0.07658400       0.00079000       0.07433800
Cu       2.50303000       5.00606000      11.76991000  F       0.05520800      -0.00147300       0.07100400
Cu       5.00606000       5.00606000      11.76991000  F      -0.02196600       0.00172100       0.23134300
Cu       7.50909000       5.00606000      11.76991000  F      -0.04339200       0.00344600       0.14200600
Cu      10.01212000       5.00606000      11.76991000  F       0.05554700       0.00054700       0.03260000
Cu       0.00000000       7.50909000      11.76991000  F      -0.05416100      -0.03812000       0.10863800
Cu       2.50303000       7.50909000      11.76991000  F       0.06739000      -0.03060100       0.10078500
Cu       5.00606000       7.50909000      11.76991000  F       0.00455000       0.01747100       0.12572300
Cu       7.50909000       7.50909000      11.76991000  F      -0.02878900       0.00038900       0.11963000
Cu      10.01212000       7.50909000      11.76991000  F       0.08207400       0.07423000       0.02864600
Cu       0.00000000      10.01212000      11.76991000  F      -0.00847600      -0.03237300       0.11615800
Cu       2.50303000      10.01212000      11.76991000  F       0.03950800      -0.03006200       0.09207800
Cu       5.00606000      10.01212000      11.76991000  F       0.05009700      -0.08668300       0.09422200
Cu       7.50909000      10.01212000      11.76991000  F       0.02095200      -0.05706700       0.08853800
Cu      10.01212000      10.01212000      11.76991000  F      -0.00772100      -0.06553300       0.09315600
Cu       1.26955000       1.24209000      13.58473000  T       0.00354300       0.00547100      -0.01998500
Cu       3.78980000       1.26043000      13.60345000  T       0.00254300       0.00319000      -0.02403500
Cu       6.29482000       1.28210000      13.61334000  T       0.00235400       0.00437300      -0.01919400
Cu       8.77989000       1.27571000      13.61021000  T       0.00259000       0.00283300      -0.01825200
Cu      11.27041000       1.26272000      13.60892000  T       0.00132200       0.00249900      -0.02086400
Cu       1.24748000       3.75586000      13.57677000  T      -0.00183900       0.00099900      -0.01961600
Cu       3.76436000       3.76388000      13.61057000  T      -0.00068200       0.00645300      -0.01088200
Cu       6.25980000       3.78447000      13.60163000  T      -0.00819000       0.00113200      -0.00166000
Cu       8.74928000       3.76763000      13.55535000  T      -0.00473000      -0.00278700      -0.00705400
Cu      11.22844000       3.75846000      13.60627000  T      -0.00635400      -0.00436900      -0.01869200
Cu       1.24898000       6.25451000      13.57697000  T      -0.00263500      -0.00100400      -0.02073500
Cu       3.76574000       6.24741000      13.60832000  T      -0.00027500      -0.00671500      -0.01065700
Cu       6.26225000       6.23034000      13.60140000  T      -0.00895400      -0.00171600      -0.00136100
Cu       8.75150000       6.24564000      13.55483000  T      -0.00550500       0.00210000      -0.00747200
Cu      11.23023000       6.25383000      13.60569000  T      -0.00713000       0.00462200      -0.01905700
Cu       1.27076000       8.76801000      13.58468000  T       0.00272200      -0.00577300      -0.01937200
Cu       3.79029000       8.75230000      13.60270000  T       0.00221400      -0.00325100      -0.02449200
Cu       6.29641000       8.73452000      13.61187000  T       0.00179900      -0.00544500      -0.01948300
Cu       8.78246000       8.73936000      13.60843000  T       0.00114700      -0.00437900      -0.01809100
Cu      11.27235000       8.74915000      13.60907000  T       0.00115500      -0.00214600      -0.02101700
Cu       1.24419000      11.26289000      13.60589000  T       0.00184100      -0.00033600      -0.02399800
Cu       3.73845000      11.26415000      13.57918000  T       0.00211300       0.00017100      -0.02186300
Cu       6.25367000      11.26619000      13.56862000  T      -0.00185500       0.00008200      -0.02349300
Cu       8.76374000      11.26510000      13.57569000  T      -0.00132800      -0.00038700      -0.02346700
Cu      11.27109000      11.26355000      13.58772000  T      -0.00375600       0.00040400      -0.02139500
Cu      12.50840000       0.00818000      15.38776000  T      -0.00051000       0.00292400      -0.03177800
Cu       2.50587000      12.51578000      15.38338000  T       0.00363400       0.00618300      -0.03611300
Cu       5.00484000      12.48253000      15.36185000  T       0.00386800      -0.00136400      -0.02888800
Cu       7.50915000      12.49355000      15.35423000  T      -0.00176400      -0.00093700      -0.03014800
Cu      10.01009000      12.49827000      15.37094000  T      -0.00267200      -0.00271500      -0.03096800
Cu       0.08173000       2.50835000      15.36613000  T       0.00824900       0.00304900      -0.02101300
Cu       2.54375000       2.49481000      15.35873000  T       0.00661200       0.01107900      -0.02163000
Cu       5.01847000       2.41940000      15.44925000  T       0.01117200       0.00852300      -0.02217700
Cu       7.63312000       2.49351000      15.45125000  T      -0.01541800       0.02576500       0.00607800
Cu      10.13931000       2.45939000      15.47191000  T      -0.00280000       0.00626300      -0.00940800
Cu      12.43189000       5.00659000      15.34724000  T      -0.01479800      -0.00175400      -0.02717500
Cu       2.31329000       5.00361000      15.42797000  T      -0.02077500       0.00108300      -0.00856700
Pd       4.78809000       5.01015000      15.68993000  T      -0.04004700      -0.00120800       0.03411100
Y        7.49104000       5.01037000      17.26571000  T       0.00243900      -0.00190200      -0.03781000
Cu       9.95309000       5.00678000      15.45446000  T      -0.04195900       0.00107700       0.00263400
Cu       0.08674000       7.50296000      15.36687000  T       0.00753400      -0.00459200      -0.02109300
Cu       2.54801000       7.51141000      15.35850000  T       0.00634700      -0.01032400      -0.02212600
Cu       5.02017000       7.59908000      15.44539000  T       0.01148000      -0.00973700      -0.02140800
Cu       7.64193000       7.52664000      15.44810000  T      -0.01743000      -0.02836800       0.00617400
Cu      10.14560000       7.55283000      15.47288000  T      -0.00397200      -0.00517000      -0.01144100
Cu      12.50796000      10.00389000      15.38796000  T      -0.00017500      -0.00269600      -0.03296100
Cu       2.50589000      10.00634000      15.38304000  T       0.00461300      -0.00362900      -0.03626100
Cu       5.00499000      10.04938000      15.36087000  T       0.00478700       0.00076100      -0.02999400
Cu       7.50921000      10.03855000      15.35316000  T      -0.00186400      -0.00150900      -0.03004200
Cu      10.00935000      10.02741000      15.37068000  T      -0.00290900       0.00386300      -0.03082300
O        6.26967000       3.37674000      16.54877000  T      -0.00398700      -0.01180700      -0.01887200
O        6.27779000       6.63906000      16.53297000  T      -0.00672700       0.01177900      -0.01043200
O        9.05092000       6.43994000      16.59126000  T       0.00354700       0.00737600      -0.00565100
O        9.04372000       3.57530000      16.58734000  T       0.00708100      -0.00552500      -0.00232800
C        4.10489000       5.00665000      17.59735000  T      -0.04818700      -0.00096100       0.02672900
O        5.18089000       5.03943000      18.52266000  T      -0.00738900      -0.01118800       0.04833100
O        2.97114000       4.97411000      18.04187000  T      -0.04416500       0.01239600       0.03544000
H        4.77785000       5.03536000      19.42040000  T      -0.05207100      -0.00993200       0.01991200
108
Lattice="12.515153631 0.0 0.0 0.0 12.515153631 0.0 0.0 0.0 25.30973" Properties=species:S:1:pos:R:3:move_mask:L:1:forces:R:3 stress="0.007772626212571933 -7.627124151829341e-06 0.0003469717338169762 -7.627124151829341e-06 0.00857331196927674 2.1327236683143093e-05 0.0003469717338169762 2.1327236683143093e-05 0.002428415163153029" free_energy=-444.97832322 energy=-444.97592981 pbc="T T T"
Cu       1.25152000       1.25152000      10.00000000  F       0.00000900      -0.01425400      -0.07032400
Cu       3.75455000       1.25152000      10.00000000  F       0.00248300       0.00695200      -0.07315000
Cu       6.25758000       1.25152000      10.00000000  F       0.00225800       0.02641300      -0.05742200
Cu       8.76061000       1.25152000      10.00000000  F       0.00245000       0.01410200      -0.06181900
Cu      11.26364000       1.25152000      10.00000000  F      -0.00910900      -0.00596700      -0.07462500
Cu       1.25152000       3.75455000      10.00000000  F       0.00374200       0.01031500      -0.07259200
Cu       3.75455000       3.75455000      10.00000000  F       0.01370100      -0.01251100      -0.05190700
Cu       6.25758000       3.75455000      10.00000000  F      -0.00658100      -0.02472900      -0.07992200
Cu       8.76061000       3.75455000      10.00000000  F       0.00569800      -0.02104900      -0.08228900
Cu      11.26364000       3.75455000      10.00000000  F      -0.01356600       0.00408000      -0.05525700
Cu       1.25152000       6.25758000      10.00000000  F       0.00289200      -0.00895800      -0.07434700
Cu       3.75455000       6.25758000      10.00000000  F       0.01517600       0.01319000      -0.05281800
Cu       6.25758000       6.25758000      10.00000000  F      -0.00645400       0.02677100      -0.08376000
Cu       8.76061000       6.25758000      10.00000000  F       0.00419500       0.02161400      -0.08309900
Cu      11.26364000       6.25758000      10.00000000  F      -0.01286300      -0.00282700      -0.05667600
Cu       1.25152000       8.76061000      10.00000000  F       0.00022200       0.01083500      -0.06947300
Cu       3.75455000       8.76061000      10.00000000  F       0.00184400      -0.00918500      -0.07214400
Cu       6.25758000       8.76061000      10.00000000  F       0.00212700      -0.03069300      -0.05557100
Cu       8.76061000       8.76061000      10.00000000  F       0.00312100      -0.01630900      -0.06130400
Cu      11.26364000       8.76061000      10.00000000  F      -0.00921900       0.00284700      -0.07384800
Cu       1.25152000      11.26364000      10.00000000  F      -0.00251300       0.00174900      -0.01953000
Cu       3.75455000      11.26364000      10.00000000  F      -0.00763200       0.00138600      -0.06769900
Cu       6.25758000      11.26364000      10.00000000  F      -0.00617100       0.00196200      -0.07209400
Cu       8.76061000      11.26364000      10.00000000  F      -0.00019700       0.00135300      -0.06951000
Cu      11.26364000      11.26364000      10.00000000  F       0.00913300       0.00166500      -0.06882300
Cu       0.00000000       0.00000000      11.76991000  F      -0.00996900       0.03358100       0.11010000
Cu       2.50303000       0.00000000      11.76991000  F       0.03804300       0.03160200       0.08336600
Cu       5.00606000       0.00000000      11.76991000  F       0.04967000       0.09503900       0.08619200
Cu       7.50909000       0.00000000      11.76991000  F       0.01902300       0.06900900       0.08279300
Cu      10.01212000       0.00000000      11.76991000  F      -0.00980800       0.07054700       0.08765900
Cu       0.00000000       2.50303000      11.76991000  F      -0.05736200       0.03309100       0.09902100
Cu       2.50303000       2.50303000      11.76991000  F       0.06722600       0.02911000       0.09490500
Cu       5.00606000       2.50303000      11.76991000  F       0.00005100      -0.01519000       0.11837000
Cu       7.50909000       2.50303000      11.76991000  F      -0.03195600       0.00111100       0.11206200
Cu      10.01212000       2.50303000      11.76991000  F       0.07608100      -0.07402400       0.02198500
Cu       0.00000000       5.00606000      11.76991000  F      -0.07883300       0.00058000       0.06694400
Cu       2.50303000       5.00606000      11.76991000  F       0.05514600      -0.00163800       0.06298900
Cu       5.00606000       5.00606000      11.76991000  F      -0.02261800       0.00159100       0.22583600
Cu       7.50909000       5.00606000      11.76991000  F      -0.04691400       0.00323000       0.13628100
Cu      10.01212000       5.00606000      11.76991000  F       0.05473900       0.00030100       0.02597000
Cu       0.00000000       7.50909000      11.76991000  F      -0.05410600      -0.03864900       0.09978900
Cu       2.50303000       7.50909000      11.76991000  F       0.06739700      -0.03235900       0.09316500
Cu       5.00606000       7.50909000      11.76991000  F       0.00483000       0.01427000       0.11952900
Cu       7.50909000       7.50909000      11.76991000  F      -0.03033600      -0.00160100       0.11285000
Cu      10.01212000       7.50909000      11.76991000  F       0.08098400       0.07353500       0.01997800
Cu       0.00000000      10.01212000      11.76991000  F      -0.00832200      -0.03314200       0.10730800
Cu       2.50303000      10.01212000      11.76991000  F       0.03915900      -0.03066800       0.08290400
Cu       5.00606000      10.01212000      11.76991000  F       0.05046600      -0.08747300       0.08531300
Cu       7.50909000      10.01212000      11.76991000  F       0.02061400      -0.05873900       0.08039100
Cu      10.01212000      10.01212000      11.76991000  F      -0.00765000      -0.06568800       0.08486500
Cu       1.26981000       1.24227000      13.58301000  T       0.00339000       0.00839000      -0.01947100
Cu       3.78970000       1.26039000      13.60072000  T       0.00531700       0.00793200      -0.01670000
Cu       6.29511000       1.28246000      13.61131000  T       0.00206500       0.00535600      -0.01533000
Cu       8.78036000       1.27566000      13.60819000  T      -0.00157900       0.00834500      -0.01005500
Cu      11.27084000       1.26267000      13.60659000  T      -0.00209700       0.00621000      -0.01429300
Cu       1.24711000       3.75597000      13.57480000  T      -0.00074900       0.00204000      -0.01661900
Cu       3.76369000       3.76457000      13.60929000  T       0.00417400       0.00657900      -0.00776200
Cu       6.25885000       3.78492000      13.60086000  T      -0.00602500       0.00060000       0.00221200
Cu       8.74869000       3.76744000      13.55359000  T      -0.00462200      -0.00183200       0.00221400
Cu      11.22810000       3.75793000      13.60432000  T      -0.00990900      -0.00068700      -0.01310100
Cu       1.24851000       6.25442000      13.57493000  T      -0.00169900      -0.00251400      -0.01773100
Cu       3.76506000       6.24668000      13.60704000  T       0.00474400      -0.00664600      -0.00740500
Cu       6.26124000       6.22980000      13.60072000  T      -0.00691900      -0.00120400       0.00203900
Cu       8.75080000       6.24574000      13.55302000  T      -0.00504000       0.00130700       0.00187600
Cu      11.22979000       6.25437000      13.60368000  T      -0.01005600       0.00066500      -0.01292200
Cu       1.27094000       8.76776000      13.58300000  T       0.00284100      -0.00837500      -0.01878600
Cu       3.79016000       8.75232000      13.60000000  T       0.00507200      -0.00798200      -0.01777200
Cu       6.29661000       8.73409000      13.60988000  T       0.00170200      -0.00665400      -0.01627500
Cu       8.78276000       8.73931000      13.60647000  T      -0.00284500      -0.01022700      -0.01019900
Cu      11.27273000       8.74927000      13.60676000  T      -0.00214000      -0.00576000      -0.01484800
Cu       1.24406000      11.26289000      13.60350000  T       0.00325600      -0.00034100      -0.02083200
Cu       3.73829000      11.26419000      13.57725000  T       0.00469900       0.00018900      -0.02155800
Cu       6.25339000      11.26625000      13.56622000  T      -0.00029200      -0.00028900      -0.02044000
Cu       8.76354000      11.26509000      13.57343000  T      -0.00214300      -0.00056300      -0.02115200
Cu      11.27124000      11.26362000      13.58587000  T      -0.00625500       0.00025800      -0.02130200
Cu      12.50839000       0.00867000      15.38333000  T      -0.00067200       0.00098900      -0.02081100
Cu       2.50644000      12.51660000      15.37853000  T       0.00071900       0.00413200      -0.02468900
Cu       5.00530000      12.48222000      15.35837000  T       0.00191700       0.00229500      -0.02371200
Cu       7.50885000      12.49335000      15.35044000  T      -0.00002700       0.00325700      -0.02276400
Cu      10.00958000      12.49794000      15.36701000  T       0.00000900       0.00071200      -0.02288600
Cu       0.08301000       2.50873000      15.36337000  T       0.00197100       0.00253500      -0.01602800
Cu       2.54462000       2.49625000      15.35595000  T       0.00555400       0.00710900      -0.01658000
Cu       5.01870000       2.41935000      15.44578000  T       0.00935900       0.00938600      -0.01658100
Cu       7.63242000       2.49489000      15.45007000  T      -0.00967600       0.02063500       0.00539200
Cu      10.13965000       2.45928000      15.46998000  T      -0.00472900       0.00772500      -0.00680100
Cu      12.43040000       5.00650000      15.34362000  T      -0.02025300      -0.00222600      -0.01939000
Cu       2.31075000       5.00376000      15.42673000  T      -0.02069400       0.00059200      -0.00908600
Pd       4.78407000       5.01005000      15.69289000  T      -0.02730900      -0.00081800       0.02267300
Y        7.49108000       5.01021000      17.26242000  T      -0.00496400      -0.00150800      -0.02228400
Cu       9.95039000       5.00689000      15.45230000  T      -0.03963300       0.00063900       0.01008000
Cu       0.08792000       7.50228000      15.36413000  T       0.00097300      -0.00265400      -0.01600500
Cu       2.54890000       7.51004000      15.35566000  T       0.00484900      -0.00597100      -0.01677700
Cu       5.02049000       7.59897000      15.44200000  T       0.00945100      -0.01108200      -0.01538400
Cu       7.64103000       7.52491000      15.44704000  T      -0.01201200      -0.02282500       0.00503100
Cu      10.14582000       7.55310000      15.47075000  T      -0.00599600      -0.00673700      -0.00852300
Cu      12.50796000      10.00343000      15.38339000  T       0.00002700      -0.00050900      -0.02184400
Cu       2.50655000      10.00576000      15.37814000  T       0.00156100      -0.00151100      -0.02418300
Cu       5.00557000      10.04957000      15.35733000  T       0.00221800      -0.00246900      -0.02485900
Cu       7.50889000      10.03837000      15.34937000  T       0.00024300      -0.00420100      -0.02289900
Cu      10.00881000      10.02781000      15.36674000  T       0.00010800       0.00082700      -0.02233100
O        6.26751000       3.37559000      16.54830000  T       0.00902000       0.00044500      -0.02019100
O        6.27544000       6.64024000      16.53323000  T       0.00506400      -0.00103700      -0.01188600
O        9.05204000       6.44265000      16.59265000  T      -0.00582700      -0.01241600      -0.02087800
O        9.04532000       3.57285000      16.58909000  T      -0.00362400       0.01221800      -0.01896800
C        4.10073000       5.00663000      17.60093000  T      -0.02218800      -0.00026100       0.02947000
O        5.17834000       5.03814000      18.52678000  T      -0.04037900      -0.01176600       0.02944600
O        2.96751000       4.97541000      18.04654000  T      -0.03641900       0.01255300       0.02958000
H        4.77161000       5.03429000      19.42303000  T      -0.03383000      -0.00903200       0.02031900
108
Lattice="12.515153631 0.0 0.0 0.0 12.515153631 0.0 0.0 0.0 25.30973" Properties=species:S:1:pos:R:3:move_mask:L:1:forces:R:3 stress="0.00767414144007462 -6.9592826753598335e-06 0.00033786537200231254 -6.9592826753598335e-06 0.008468117574469103 2.1246097064506612e-05 0.00033786537200231254 2.1246097064506612e-05 0.002274287336798468" free_energy=-444.97917593 energy=-444.97679286 pbc="T T T"
Cu       1.25152000       1.25152000      10.00000000  F       0.00004000      -0.01430600      -0.06956600
Cu       3.75455000       1.25152000      10.00000000  F       0.00236900       0.00689900      -0.07273800
Cu       6.25758000       1.25152000      10.00000000  F       0.00227900       0.02633800      -0.05734700
Cu       8.76061000       1.25152000      10.00000000  F       0.00272000       0.01393200      -0.06163500
Cu      11.26364000       1.25152000      10.00000000  F      -0.00895900      -0.00610200      -0.07422900
Cu       1.25152000       3.75455000      10.00000000  F       0.00378500       0.01010200      -0.07254300
Cu       3.75455000       3.75455000      10.00000000  F       0.01361700      -0.01265900      -0.05197100
Cu       6.25758000       3.75455000      10.00000000  F      -0.00656100      -0.02476600      -0.07999500
Cu       8.76061000       3.75455000      10.00000000  F       0.00586500      -0.02116900      -0.08231500
Cu      11.26364000       3.75455000      10.00000000  F      -0.01337100       0.00389100      -0.05524800
Cu       1.25152000       6.25758000      10.00000000  F       0.00295100      -0.00885200      -0.07426500
Cu       3.75455000       6.25758000      10.00000000  F       0.01507300       0.01322700      -0.05285500
Cu       6.25758000       6.25758000      10.00000000  F      -0.00643600       0.02668700      -0.08380100
Cu       8.76061000       6.25758000      10.00000000  F       0.00436000       0.02161000      -0.08310800
Cu      11.26364000       6.25758000      10.00000000  F      -0.01266400      -0.00275300      -0.05667200
Cu       1.25152000       8.76061000      10.00000000  F       0.00026000       0.01090300      -0.06869200
Cu       3.75455000       8.76061000      10.00000000  F       0.00171300      -0.00911900      -0.07170300
Cu       6.25758000       8.76061000      10.00000000  F       0.00215000      -0.03057800      -0.05547500
Cu       8.76061000       8.76061000      10.00000000  F       0.00339100      -0.01611700      -0.06109900
Cu      11.26364000       8.76061000      10.00000000  F      -0.00906100       0.00299800      -0.07340500
Cu       1.25152000      11.26364000      10.00000000  F      -0.00254300       0.00178200      -0.01843800
Cu       3.75455000      11.26364000      10.00000000  F      -0.00769300       0.00142100      -0.06701800
Cu       6.25758000      11.26364000      10.00000000  F      -0.00612200       0.00199500      -0.07182200
Cu       8.76061000      11.26364000      10.00000000  F       0.00013600       0.00139900      -0.06907100
Cu      11.26364000      11.26364000      10.00000000  F       0.00918900       0.00170000      -0.06772800
Cu       0.00000000       0.00000000      11.76991000  F      -0.00966500       0.03370200       0.10404400
Cu       2.50303000       0.00000000      11.76991000  F       0.03786400       0.03162500       0.07698200
Cu       5.00606000       0.00000000      11.76991000  F       0.04962600       0.09549900       0.08004100
Cu       7.50909000       0.00000000      11.76991000  F       0.01935700       0.06973000       0.07714900
Cu      10.01212000       0.00000000      11.76991000  F      -0.00924700       0.07066600       0.08182300
Cu       0.00000000       2.50303000      11.76991000  F      -0.05722600       0.03272400       0.09328800
Cu       2.50303000       2.50303000      11.76991000  F       0.06763600       0.02951800       0.08973000
Cu       5.00606000       2.50303000      11.76991000  F       0.00031700      -0.01381700       0.11414100
Cu       7.50909000       2.50303000      11.76991000  F      -0.03242400       0.00190800       0.10785200
Cu      10.01212000       2.50303000      11.76991000  F       0.07577800      -0.07420100       0.01634600
Cu       0.00000000       5.00606000      11.76991000  F      -0.07975000       0.00056100       0.06206600
Cu       2.50303000       5.00606000      11.76991000  F       0.05546200      -0.00161300       0.05807100
Cu       5.00606000       5.00606000      11.76991000  F      -0.02272900       0.00161200       0.22266600
Cu       7.50909000       5.00606000      11.76991000  F      -0.04859300       0.00321900       0.13363700
Cu      10.01212000       5.00606000      11.76991000  F       0.05413500       0.00029200       0.02176600
Cu       0.00000000       7.50909000      11.76991000  F      -0.05403700      -0.03820900       0.09390700
Cu       2.50303000       7.50909000      11.76991000  F       0.06777700      -0.03275300       0.08796100
Cu       5.00606000       7.50909000      11.76991000  F       0.00503400       0.01283600       0.11521100
Cu       7.50909000       7.50909000      11.76991000  F      -0.03090000      -0.00250200       0.10854400
Cu      10.01212000       7.50909000      11.76991000  F       0.08061000       0.07374700       0.01432200
Cu       0.00000000      10.01212000      11.76991000  F      -0.00803100      -0.03334800       0.10125400
Cu       2.50303000      10.01212000      11.76991000  F       0.03892100      -0.03083700       0.07656300
Cu       5.00606000      10.01212000      11.76991000  F       0.05041800      -0.08796100       0.07920200
Cu       7.50909000      10.01212000      11.76991000  F       0.02089300      -0.05954000       0.07479600
Cu      10.01212000      10.01212000      11.76991000  F      -0.00713200      -0.06593300       0.07911500
Cu       1.26998000       1.24251000      13.58195000  T       0.00335900       0.00806400      -0.01832500
Cu       3.78977000       1.26054000      13.59932000  T       0.00607500       0.00925300      -0.01292000
Cu       6.29526000       1.28271000      13.61022000  T       0.00208500       0.00561100      -0.01285000
Cu       8.78050000       1.27581000      13.60721000  T      -0.00332300       0.00999400      -0.00610300
Cu      11.27097000       1.26277000      13.60540000  T      -0.00292600       0.00670700      -0.01114600
Cu       1.24695000       3.75606000      13.57370000  T      -0.00020200       0.00214400      -0.01472200
Cu       3.76351000       3.76498000      13.60863000  T       0.00582000       0.00662500      -0.00578700
Cu       6.25835000       3.78511000      13.60060000  T      -0.00469900       0.00118400       0.00384300
Cu       8.74836000       3.76733000      13.55295000  T      -0.00516600      -0.00075100       0.00482400
Cu      11.22777000       3.75772000      13.60330000  T      -0.01108500       0.00112500      -0.01012700
Cu       1.24830000       6.25433000      13.57378000  T      -0.00107600      -0.00267600      -0.01562000
Cu       3.76489000       6.24626000      13.60640000  T       0.00627500      -0.00653600      -0.00532800
Cu       6.26071000       6.22956000      13.60049000  T      -0.00572200      -0.00190800       0.00346600
Cu       8.75042000       6.24580000      13.55235000  T      -0.00537900       0.00032400       0.00451300
Cu      11.22941000       6.25459000      13.60264000  T      -0.01105700      -0.00118000      -0.00977200
Cu       1.27107000       8.76749000      13.58198000  T       0.00294900      -0.00815300      -0.01766000
Cu       3.79021000       8.75217000      13.59859000  T       0.00579100      -0.00938800      -0.01415100
Cu       6.29673000       8.73378000      13.60878000  T       0.00152900      -0.00696700      -0.01380600
Cu       8.78282000       8.73909000      13.60551000  T      -0.00432300      -0.01181800      -0.00635000
Cu      11.27283000       8.74919000      13.60556000  T      -0.00305500      -0.00627600      -0.01183800
Cu       1.24407000      11.26288000      13.60214000  T       0.00317900      -0.00036900      -0.01887700
Cu       3.73832000      11.26421000      13.57606000  T       0.00490800       0.00014600      -0.02047400
Cu       6.25328000      11.26627000      13.56488000  T       0.00054000      -0.00049000      -0.01862400
Cu       8.76342000      11.26508000      13.57212000  T      -0.00189100      -0.00073800      -0.01953300
Cu      11.27118000      11.26365000      13.58472000  T      -0.00554800       0.00010400      -0.02060100
Cu      12.50837000       0.00888000      15.38117000  T      -0.00039100       0.00027300      -0.01709700
Cu       2.50667000      12.51700000      15.37613000  T      -0.00022200       0.00336000      -0.02006500
Cu       5.00551000      12.48215000      15.35653000  T       0.00120400       0.00399900      -0.02107100
Cu       7.50873000      12.49334000      15.34850000  T       0.00086500       0.00516500      -0.01903000
Cu      10.00937000      12.49783000      15.36501000  T       0.00106500       0.00226700      -0.01896200
Cu       0.08354000       2.50893000      15.36196000  T      -0.00008800       0.00213300      -0.01347900
Cu       2.54508000       2.49696000      15.35452000  T       0.00595800       0.00587500      -0.01363900
Cu       5.01896000       2.41950000      15.44408000  T       0.00677200       0.00878000      -0.01410100
Cu       7.63198000       2.49581000      15.44968000  T      -0.00471400       0.01373600       0.00037700
Cu      10.13969000       2.45938000      15.46907000  T      -0.00330600       0.00587100      -0.00710200
Cu      12.42939000       5.00642000      15.34180000  T      -0.02249500      -0.00219500      -0.01522700
Cu       2.30934000       5.00383000      15.42605000  T      -0.01960300       0.00036700      -0.00742800
Pd       4.78197000       5.00999000      15.69448000  T      -0.02771900      -0.00079600       0.02130800
Y        7.49098000       5.01012000      17.26072000  T      -0.00873500      -0.00088400      -0.01375000
Cu       9.94857000       5.00695000      15.45163000  T      -0.03181900       0.00038900       0.00703700
Cu       0.08840000       7.50196000      15.36273000  T      -0.00117700      -0.00196900      -0.01340800
Cu       2.54934000       7.50938000      15.35421000  T       0.00498400      -0.00468200      -0.01390300
Cu       5.02078000       7.59872000      15.44035000  T       0.00703900      -0.01076700      -0.01289000
Cu       7.64046000       7.52380000      15.44669000  T      -0.00739700      -0.01619600       0.00032300
Cu      10.14579000       7.55308000      15.46973000  T      -0.00508600      -0.00517900      -0.00825600
Cu      12.50796000      10.00323000      15.38116000  T       0.00048200       0.00046800      -0.01781100
Cu       2.50684000      10.00551000      15.37574000  T       0.00067900      -0.00072500      -0.01939900
Cu       5.00584000      10.04959000      15.35543000  T       0.00113900      -0.00397000      -0.02228100
Cu       7.50876000      10.03820000      15.34743000  T       0.00112900      -0.00548100      -0.01919900
Cu      10.00859000      10.02798000      15.36475000  T       0.00136200      -0.00055000      -0.01878900
O        6.26683000       3.37517000      16.54773000  T       0.00955300       0.00808100      -0.01521500
O        6.27461000       6.64065000      16.53311000  T       0.00462800      -0.00859800      -0.00688400
O        9.05235000       6.44346000      16.59277000  T      -0.01189200      -0.01770400      -0.01858600
O        9.04587000       3.57213000      16.58940000  T      -0.00973400       0.01723500      -0.01636300
C        4.09871000       5.00662000      17.60295000  T      -0.03264600      -0.00048900       0.03511200
O        5.17642000       5.03739000      18.52893000  T      -0.04285400      -0.01207600       0.01586100
O        2.96538000       4.97618000      18.04898000  T      -0.02335600       0.01361300       0.02469000
H        4.76850000       5.03368000      19.42448000  T      -0.03126000      -0.00876700       0.02945600
108
Lattice="12.515153631 0.0 0.0 0.0 12.515153631 0.0 0.0 0.0 25.30973" Properties=species:S:1:pos:R:3:move_mask:L:1:forces:R:3 stress="0.007652957758101373 -6.478686472666822e-06 0.00033469468536636383 -6.478686472666822e-06 0.00845929832207423 2.0728051807058303e-05 0.00033469468536636383 2.0728051807058303e-05 0.002212290426651069" free_energy=-444.98216795 energy=-444.97980118 pbc="T T T"
Cu       1.25152000       1.25152000      10.00000000  F      -0.00000200      -0.01406000      -0.07040700
Cu       3.75455000       1.25152000      10.00000000  F       0.00261200       0.00708300      -0.07328200
Cu       6.25758000       1.25152000      10.00000000  F       0.00221900       0.02647100      -0.05764800
Cu       8.76061000       1.25152000      10.00000000  F       0.00250200       0.01407700      -0.06187100
Cu      11.26364000       1.25152000      10.00000000  F      -0.00939100      -0.00577400      -0.07482300
Cu       1.25152000       3.75455000      10.00000000  F       0.00360000       0.01031500      -0.07301900
Cu       3.75455000       3.75455000      10.00000000  F       0.01377800      -0.01252100      -0.05242200
Cu       6.25758000       3.75455000      10.00000000  F      -0.00648200      -0.02450700      -0.08004700
Cu       8.76061000       3.75455000      10.00000000  F       0.00556500      -0.02094100      -0.08199700
Cu      11.26364000       3.75455000      10.00000000  F      -0.01365100       0.00399100      -0.05533100
Cu       1.25152000       6.25758000      10.00000000  F       0.00279300      -0.00896500      -0.07469700
Cu       3.75455000       6.25758000      10.00000000  F       0.01523100       0.01320000      -0.05325800
Cu       6.25758000       6.25758000      10.00000000  F      -0.00633800       0.02656600      -0.08378100
Cu       8.76061000       6.25758000      10.00000000  F       0.00405500       0.02153800      -0.08273200
Cu      11.26364000       6.25758000      10.00000000  F      -0.01297900      -0.00272400      -0.05674400
Cu       1.25152000       8.76061000      10.00000000  F       0.00021400       0.01060500      -0.06949700
Cu       3.75455000       8.76061000      10.00000000  F       0.00197400      -0.00936100      -0.07221100
Cu       6.25758000       8.76061000      10.00000000  F       0.00211900      -0.03075600      -0.05569800
Cu       8.76061000       8.76061000      10.00000000  F       0.00316900      -0.01633700      -0.06123100
Cu      11.26364000       8.76061000      10.00000000  F      -0.00952900       0.00259700      -0.07391600
Cu       1.25152000      11.26364000      10.00000000  F      -0.00252500       0.00171400      -0.01944500
Cu       3.75455000      11.26364000      10.00000000  F      -0.00745800       0.00134100      -0.06788600
Cu       6.25758000      11.26364000      10.00000000  F      -0.00607700       0.00188200      -0.07231700
Cu       8.76061000      11.26364000      10.00000000  F      -0.00022600       0.00130500      -0.06948000
Cu      11.26364000      11.26364000      10.00000000  F       0.00875300       0.00161500      -0.06850900
Cu       0.00000000       0.00000000      11.76991000  F      -0.01010300       0.03494100       0.09699700
Cu       2.50303000       0.00000000      11.76991000  F       0.03829800       0.03270200       0.06908900
Cu       5.00606000       0.00000000      11.76991000  F       0.05062500       0.09704000       0.07189700
Cu       7.50909000       0.00000000      11.76991000  F       0.01966600       0.07200500       0.07000900
Cu      10.01212000       0.00000000      11.76991000  F      -0.01003000       0.07221700       0.07496800
Cu       0.00000000       2.50303000      11.76991000  F      -0.05820600       0.03391700       0.08614300
Cu       2.50303000       2.50303000      11.76991000  F       0.06865200       0.03173900       0.08285900
Cu       5.00606000       2.50303000      11.76991000  F       0.00156600      -0.01068800       0.10816600
Cu       7.50909000       2.50303000      11.76991000  F      -0.03275300       0.00475700       0.10264400
Cu      10.01212000       2.50303000      11.76991000  F       0.07375600      -0.07273100       0.00980300
Cu       0.00000000       5.00606000      11.76991000  F      -0.08270700       0.00049700       0.05623500
Cu       2.50303000       5.00606000      11.76991000  F       0.05628300      -0.00159200       0.05129200
Cu       5.00606000       5.00606000      11.76991000  F      -0.02161600       0.00161700       0.21818700
Cu       7.50909000       5.00606000      11.76991000  F      -0.05053700       0.00320500       0.13134700
Cu      10.01212000       5.00606000      11.76991000  F       0.05127100       0.00029500       0.01754500
Cu       0.00000000       7.50909000      11.76991000  F      -0.05516400      -0.03928000       0.08665900
Cu       2.50303000       7.50909000      11.76991000  F       0.06876600      -0.03496400       0.08114900
Cu       5.00606000       7.50909000      11.76991000  F       0.00622500       0.00961200       0.10911600
Cu       7.50909000       7.50909000      11.76991000  F      -0.03137300      -0.00550900       0.10324700
Cu      10.01212000       7.50909000      11.76991000  F       0.07846100       0.07232100       0.00782600
Cu       0.00000000      10.01212000      11.76991000  F      -0.00849500      -0.03467600       0.09427400
Cu       2.50303000      10.01212000      11.76991000  F       0.03927800      -0.03208200       0.06879300
Cu       5.00606000      10.01212000      11.76991000  F       0.05144800      -0.08953700       0.07113800
Cu       7.50909000      10.01212000      11.76991000  F       0.02112200      -0.06201900       0.06776600
Cu      10.01212000      10.01212000      11.76991000  F      -0.00804900      -0.06771100       0.07243000
Cu       1.27030000       1.24305000      13.58005000  T       0.00198800       0.00744400      -0.01261900
Cu       3.79004000       1.26101000      13.59711000  T       0.00598500       0.00985000      -0.00578800
Cu       6.29552000       1.28320000      13.60840000  T       0.00195100       0.00493900      -0.00804000
Cu       8.78060000       1.27631000      13.60577000  T      -0.00469500       0.01076900       0.00007700
Cu      11.27106000       1.26309000      13.60352000  T      -0.00426600       0.00721900      -0.00453800
Cu       1.24671000       3.75625000      13.57184000  T      -0.00102800       0.00285900      -0.00875800
Cu       3.76342000       3.76571000      13.60760000  T       0.00644200       0.00617100      -0.00291100
Cu       6.25757000       3.78543000      13.60034000  T      -0.00161000       0.00218000       0.00395400
Cu       8.74776000       3.76718000      13.55220000  T      -0.00513900       0.00174100       0.00657700
Cu      11.22700000       3.75748000      13.60169000  T      -0.01152800       0.00339700      -0.00454400
Cu       1.24796000       6.25413000      13.57183000  T      -0.00182700      -0.00329900      -0.00910500
Cu       3.76482000       6.24551000      13.60540000  T       0.00661700      -0.00570900      -0.00224900
Cu       6.25985000       6.22916000      13.60026000  T      -0.00240800      -0.00270000       0.00349400
Cu       8.74975000       6.24586000      13.55155000  T      -0.00521100      -0.00193200       0.00640800
Cu      11.22859000       6.25483000      13.60101000  T      -0.01119400      -0.00354000      -0.00366000
Cu       1.27132000       8.76692000      13.58013000  T       0.00188900      -0.00769600      -0.01217400
Cu       3.79044000       8.75170000      13.59635000  T       0.00577300      -0.00989500      -0.00675800
Cu       6.29692000       8.73317000      13.60693000  T       0.00154900      -0.00631800      -0.00875500
Cu       8.78277000       8.73844000      13.60409000  T      -0.00521300      -0.01227200      -0.00018200
Cu      11.27289000       8.74892000      13.60365000  T      -0.00464700      -0.00683000      -0.00548600
Cu       1.24416000      11.26287000      13.59983000  T       0.00226800      -0.00022800      -0.01225100
Cu       3.73850000      11.26424000      13.57392000  T       0.00523300       0.00012700      -0.01490400
Cu       6.25316000      11.26628000      13.56258000  T       0.00255900      -0.00070300      -0.01144400
Cu       8.76319000      11.26503000      13.56985000  T      -0.00219700      -0.00094800      -0.01243300
Cu      11.27098000      11.26370000      13.58262000  T      -0.00471100       0.00001400      -0.01498600
Cu      12.50834000       0.00918000      15.37771000  T      -0.00028400      -0.00062300      -0.01263900
Cu       2.50698000      12.51764000      15.37228000  T      -0.00160600       0.00172100      -0.01385000
Cu       5.00583000      12.48218000      15.35342000  T       0.00015200       0.00460500      -0.01752900
Cu       7.50861000      12.49349000      15.34531000  T       0.00224400       0.00578900      -0.01477600
Cu      10.00914000      12.49777000      15.36174000  T       0.00188900       0.00386700      -0.01404700
Cu       0.08425000       2.50926000      15.35965000  T      -0.00340200       0.00183100      -0.01118900
Cu       2.54588000       2.49808000      15.35218000  T       0.00426500       0.00352300      -0.00995300
Cu       5.01943000       2.41991000      15.44134000  T       0.00367200       0.00709500      -0.00912600
Cu       7.63137000       2.49729000      15.44900000  T       0.00278100       0.00355100      -0.00561200
Cu      10.13968000       2.45965000      15.46759000  T      -0.00352400       0.00569400      -0.00597000
Cu      12.42735000       5.00626000      15.33892000  T      -0.02467900      -0.00165800      -0.01005500
Cu       2.30684000       5.00394000      15.42491000  T      -0.02086900       0.00015400      -0.00724500
Pd       4.77803000       5.00989000      15.69744000  T      -0.02994900      -0.00052700       0.02197100
Y        7.49052000       5.00996000      17.25812000  T      -0.01074500      -0.00129900      -0.00198800
Cu       9.94540000       5.00704000      15.45074000  T      -0.01821600       0.00011000       0.00171200
Cu       0.08900000       7.50148000      15.36043000  T      -0.00477600      -0.00103700      -0.01121700
Cu       2.55010000       7.50837000      15.35183000  T       0.00306900      -0.00211100      -0.01039000
Cu       5.02132000       7.59811000      15.43773000  T       0.00403500      -0.00875000      -0.00845000
Cu       7.63960000       7.52200000      15.44607000  T      -0.00073600      -0.00638400      -0.00524600
Cu      10.14564000       7.55294000      15.46808000  T      -0.00561400      -0.00491300      -0.00672300
Cu      12.50798000      10.00300000      15.37759000  T       0.00054500       0.00152800      -0.01299000
Cu       2.50725000      10.00515000      15.37189000  T      -0.00075600       0.00030900      -0.01326400
Cu       5.00623000      10.04949000      15.35221000  T      -0.00024600      -0.00504300      -0.01867700
Cu       7.50864000      10.03781000      15.34422000  T       0.00246500      -0.00600700      -0.01490900
Cu      10.00836000      10.02818000      15.36150000  T       0.00266000      -0.00234300      -0.01408700
O        6.26608000       3.37495000      16.54666000  T       0.00680900       0.01464000      -0.01062800
O        6.27351000       6.64087000      16.53288000  T       0.00239900      -0.01460600      -0.00398000
O        9.05241000       6.44411000      16.59248000  T      -0.01370200      -0.01855600      -0.02382900
O        9.04631000       3.57160000      16.58942000  T      -0.01195200       0.01763500      -0.02205100
C        4.09501000       5.00659000      17.60672000  T      -0.02503900      -0.00023000       0.02326800
O        5.17258000       5.03601000      18.53207000  T      -0.03982900      -0.01102900       0.01747200
O        2.96183000       4.97761000      18.05297000  T      -0.02776400       0.01231100       0.01926400
H        4.76335000       5.03260000      19.42740000  T      -0.02019000      -0.00831400       0.02047500
108
Lattice="12.515153631 0.0 0.0 0.0 12.515153631 0.0 0.0 0.0 25.30973" Properties=species:S:1:pos:R:3:move_mask:L:1:forces:R:3 stress="0.007507424489813152 -5.885743105707912e-06 0.0003234100368667669 -5.885743105707912e-06 0.008319962872348012 1.9248814144223967e-05 0.0003234100368667669 1.9248814144223967e-05 0.002014740421307738" free_energy=-444.98406099 energy=-444.98171171 pbc="T T T"
Cu       1.25152000       1.25152000      10.00000000  F      -0.00006000      -0.01435100      -0.07044400
Cu       3.75455000       1.25152000      10.00000000  F       0.00232200       0.00681500      -0.07348800
Cu       6.25758000       1.25152000      10.00000000  F       0.00199700       0.02617100      -0.05814100
Cu       8.76061000       1.25152000      10.00000000  F       0.00269400       0.01366100      -0.06227400
Cu      11.26364000       1.25152000      10.00000000  F      -0.00936000      -0.00609200      -0.07515200
Cu       1.25152000       3.75455000      10.00000000  F       0.00351400       0.01009400      -0.07374600
Cu       3.75455000       3.75455000      10.00000000  F       0.01348500      -0.01273500      -0.05317100
Cu       6.25758000       3.75455000      10.00000000  F      -0.00663500      -0.02454900      -0.08079000
Cu       8.76061000       3.75455000      10.00000000  F       0.00557600      -0.02106300      -0.08265900
Cu      11.26364000       3.75455000      10.00000000  F      -0.01349300       0.00367600      -0.05599900
Cu       1.25152000       6.25758000      10.00000000  F       0.00274500      -0.00876900      -0.07542900
Cu       3.75455000       6.25758000      10.00000000  F       0.01492500       0.01339100      -0.05399700
Cu       6.25758000       6.25758000      10.00000000  F      -0.00648900       0.02658900      -0.08448300
Cu       8.76061000       6.25758000      10.00000000  F       0.00406900       0.02165900      -0.08338500
Cu      11.26364000       6.25758000      10.00000000  F      -0.01285000      -0.00242300      -0.05743300
Cu       1.25152000       8.76061000      10.00000000  F       0.00016500       0.01088300      -0.06954900
Cu       3.75455000       8.76061000      10.00000000  F       0.00168500      -0.00911800      -0.07245000
Cu       6.25758000       8.76061000      10.00000000  F       0.00191600      -0.03045700      -0.05618600
Cu       8.76061000       8.76061000      10.00000000  F       0.00336000      -0.01595000      -0.06163500
Cu      11.26364000       8.76061000      10.00000000  F      -0.00951600       0.00288200      -0.07424300
Cu       1.25152000      11.26364000      10.00000000  F      -0.00263500       0.00171500      -0.01926400
Cu       3.75455000      11.26364000      10.00000000  F      -0.00774000       0.00133900      -0.06790900
Cu       6.25758000      11.26364000      10.00000000  F      -0.00619600       0.00186500      -0.07268600
Cu       8.76061000      11.26364000      10.00000000  F      -0.00008300       0.00130400      -0.06968100
Cu      11.26364000      11.26364000      10.00000000  F       0.00875100       0.00161600      -0.06832100
Cu       0.00000000       0.00000000      11.76991000  F      -0.01020600       0.03586500       0.08991700
Cu       2.50303000       0.00000000      11.76991000  F       0.03858500       0.03346600       0.06131000
Cu       5.00606000       0.00000000      11.76991000  F       0.05086500       0.09841500       0.06396100
Cu       7.50909000       0.00000000      11.76991000  F       0.02013800       0.07390100       0.06285600
Cu      10.01212000       0.00000000      11.76991000  F      -0.01038300       0.07372000       0.06827100
Cu       0.00000000       2.50303000      11.76991000  F      -0.05901300       0.03414000       0.07916800
Cu       2.50303000       2.50303000      11.76991000  F       0.06976900       0.03304000       0.07611600
Cu       5.00606000       2.50303000      11.76991000  F       0.00226000      -0.00838000       0.10232600
Cu       7.50909000       2.50303000      11.76991000  F      -0.03307400       0.00680600       0.09757400
Cu      10.01212000       2.50303000      11.76991000  F       0.07209900      -0.07226400       0.00336300
Cu       0.00000000       5.00606000      11.76991000  F      -0.08491300       0.00038100       0.05021300
Cu       2.50303000       5.00606000      11.76991000  F       0.05716000      -0.00160800       0.04491100
Cu       5.00606000       5.00606000      11.76991000  F      -0.02091900       0.00153000       0.21413200
Cu       7.50909000       5.00606000      11.76991000  F      -0.05255500       0.00308100       0.12928600
Cu      10.01212000       5.00606000      11.76991000  F       0.04859000       0.00024500       0.01286500
Cu       0.00000000       7.50909000      11.76991000  F      -0.05607700      -0.03948500       0.07958400
Cu       2.50303000       7.50909000      11.76991000  F       0.06981500      -0.03635800       0.07442900
Cu       5.00606000       7.50909000      11.76991000  F       0.00679900       0.00712400       0.10302100
Cu       7.50909000       7.50909000      11.76991000  F      -0.03180800      -0.00781100       0.09797100
Cu      10.01212000       7.50909000      11.76991000  F       0.07676800       0.07173200       0.00136200
Cu       0.00000000      10.01212000      11.76991000  F      -0.00857100      -0.03556600       0.08721700
Cu       2.50303000      10.01212000      11.76991000  F       0.03947700      -0.03288000       0.06109300
Cu       5.00606000      10.01212000      11.76991000  F       0.05169000      -0.09080900       0.06319400
Cu       7.50909000      10.01212000      11.76991000  F       0.02151900      -0.06399400       0.06061300
Cu      10.01212000      10.01212000      11.76991000  F      -0.00852600      -0.06927700       0.06579400
Cu       1.27060000       1.24369000      13.57825000  T       0.00089500       0.00460400      -0.00671500
Cu       3.79044000       1.26170000      13.59534000  T       0.00410600       0.00795500      -0.00068800
Cu       6.29579000       1.28374000      13.60682000  T       0.00080400       0.00368400      -0.00362900
Cu       8.78049000       1.27706000      13.60475000  T      -0.00409100       0.00815700       0.00224600
Cu      11.27097000       1.26358000      13.60202000  T      -0.00384300       0.00534500      -0.00062700
Cu       1.24649000       3.75649000      13.57020000  T      -0.00152100       0.00206900      -0.00372200
Cu       3.76358000       3.76647000      13.60676000  T       0.00533800       0.00496900      -0.00015800
Cu       6.25697000       3.78576000      13.60029000  T       0.00005000       0.00277300       0.00403500
Cu       8.74712000       3.76717000      13.55187000  T      -0.00529100       0.00348500       0.00476700
Cu      11.22602000       3.75745000      13.60038000  T      -0.00983700       0.00349200      -0.00157800
Cu       1.24764000       6.25386000      13.57013000  T      -0.00210400      -0.00245100      -0.00343900
Cu       3.76500000       6.24475000      13.60461000  T       0.00511700      -0.00451600       0.00050500
Cu       6.25916000       6.22875000      13.60022000  T      -0.00051300      -0.00334300       0.00359300
Cu       8.74905000       6.24580000      13.55119000  T      -0.00538200      -0.00376900       0.00479200
Cu      11.22758000       6.25486000      13.59972000  T      -0.00953500      -0.00380800      -0.00037900
Cu       1.27156000       8.76624000      13.57839000  T       0.00104100      -0.00487000      -0.00641200
Cu       3.79081000       8.75100000      13.59451000  T       0.00400700      -0.00788400      -0.00125600
Cu       6.29712000       8.73251000      13.60531000  T       0.00054400      -0.00488800      -0.00404100
Cu       8.78255000       8.73753000      13.60308000  T      -0.00430700      -0.00930800       0.00215300
Cu      11.27275000       8.74849000      13.60210000  T      -0.00425200      -0.00493900      -0.00125300
Cu       1.24429000      11.26285000      13.59773000  T       0.00117500       0.00011500      -0.00653200
Cu       3.73881000      11.26427000      13.57186000  T       0.00375400       0.00015800      -0.00867800
Cu       6.25318000      11.26626000      13.56054000  T       0.00323300      -0.00075500      -0.00508400
Cu       8.76295000      11.26496000      13.56780000  T      -0.00128600      -0.00077300      -0.00577500
Cu      11.27069000      11.26373000      13.58059000  T      -0.00213400       0.00011500      -0.00910900
Cu      12.50832000       0.00937000      15.37470000  T       0.00030500      -0.00134000      -0.00943000
Cu       2.50714000      12.51816000      15.36896000  T      -0.00209100       0.00038400      -0.00933100
Cu       5.00607000      12.48237000      15.35049000  T      -0.00061100       0.00395800      -0.01335300
Cu       7.50861000      12.49382000      15.34243000  T       0.00250800       0.00449300      -0.00968200
Cu      10.00904000      12.49787000      15.35884000  T       0.00234600       0.00382700      -0.00923400
Cu       0.08464000       2.50956000      15.35754000  T      -0.00417000       0.00099100      -0.00827600
Cu       2.54661000       2.49903000      15.35012000  T       0.00271100       0.00221800      -0.00595600
Cu       5.01988000       2.42046000      15.43904000  T       0.00234800       0.00622700      -0.00289000
Cu       7.63110000       2.49838000      15.44820000  T       0.00439200      -0.00367800      -0.00750000
Cu      10.13957000       2.46004000      15.46627000  T      -0.00199500       0.00372700      -0.00408800
Cu      12.42492000       5.00608000      15.33646000  T      -0.02237500      -0.00095800      -0.00402400
Cu       2.30420000       5.00403000      15.42383000  T      -0.02135000       0.00005600      -0.00468000
Pd       4.77379000       5.00979000      15.70057000  T      -0.02751300      -0.00094800       0.02041500
Y        7.48977000       5.00980000      17.25627000  T      -0.01046700       0.00052500       0.00906100
Cu       9.94258000       5.00710000      15.45003000  T      -0.00437900      -0.00030700      -0.00484900
Cu       0.08924000       7.50109000      15.35832000  T      -0.00583400      -0.00022300      -0.00851600
Cu       2.55075000       7.50755000      15.34972000  T       0.00128700      -0.00066100      -0.00621000
Cu       5.02184000       7.59737000      15.43553000  T       0.00280300      -0.00769000      -0.00191700
Cu       7.63899000       7.52055000      15.44535000  T       0.00016800       0.00053700      -0.00673100
Cu      10.14533000       7.55269000      15.46661000  T      -0.00416400      -0.00294100      -0.00445900
Cu      12.50803000      10.00289000      15.37449000  T       0.00120400       0.00239100      -0.00938200
Cu       2.50751000      10.00490000      15.36859000  T      -0.00156300       0.00097100      -0.00911800
Cu       5.00650000      10.04922000      15.34916000  T      -0.00125600      -0.00475500      -0.01433800
Cu       7.50865000      10.03730000      15.34134000  T       0.00264900      -0.00464500      -0.01001100
Cu      10.00829000      10.02822000      15.35861000  T       0.00336600      -0.00250000      -0.00944600
O        6.26567000       3.37538000      16.54554000  T      -0.00088800       0.01527800      -0.00825300
O        6.27268000       6.64044000      16.53262000  T      -0.00444600      -0.01521800      -0.00233100
O        9.05192000       6.44395000      16.59140000  T      -0.01539600      -0.01425100      -0.02076500
O        9.04617000       3.57181000      16.58863000  T      -0.01380200       0.01297800      -0.01930400
C        4.09129000       5.00657000      17.61027000  T      -0.02854800       0.00002400       0.01588600
O        5.16841000       5.03459000      18.53500000  T      -0.02617400      -0.00992900       0.01492800
O        2.95810000       4.97910000      18.05659000  T      -0.02945600       0.01067200       0.01415200
H        4.75885000       5.03149000      19.43028000  T      -0.01720500      -0.00799500       0.01858900
108
Lattice="12.515153631 0.0 0.0 0.0 12.515153631 0.0 0.0 0.0 25.30973" Properties=species:S:1:pos:R:3:move_mask:L:1:forces:R:3 stress="0.007576630343000946 -4.575026189272428e-06 0.00031899104840564155 -4.575026189272428e-06 0.008385367646478143 1.9155191507335718e-05 0.00031899104840564155 1.9155191507335718e-05 0.002080781829368709" free_energy=-444.98368988 energy=-444.98132639 pbc="T T T"
Cu       1.25152000       1.25152000      10.00000000  F       0.00063100      -0.01407100      -0.07065200
Cu       3.75455000       1.25152000      10.00000000  F       0.00293400       0.00703800      -0.07344800
Cu       6.25758000       1.25152000      10.00000000  F       0.00231400       0.02634600      -0.05801700
Cu       8.76061000       1.25152000      10.00000000  F       0.00288600       0.01386200      -0.06225500
Cu      11.26364000       1.25152000      10.00000000  F      -0.00900500      -0.00579000      -0.07541400
Cu       1.25152000       3.75455000      10.00000000  F       0.00415300       0.01025500      -0.07371900
Cu       3.75455000       3.75455000      10.00000000  F       0.01404500      -0.01259100      -0.05304700
Cu       6.25758000       3.75455000      10.00000000  F      -0.00629300      -0.02434000      -0.08060500
Cu       8.76061000       3.75455000      10.00000000  F       0.00576000      -0.02085000      -0.08252900
Cu      11.26364000       3.75455000      10.00000000  F      -0.01306500       0.00382400      -0.05597000
Cu       1.25152000       6.25758000      10.00000000  F       0.00340200      -0.00881400      -0.07538900
Cu       3.75455000       6.25758000      10.00000000  F       0.01547400       0.01336500      -0.05385800
Cu       6.25758000       6.25758000      10.00000000  F      -0.00615000       0.02648900      -0.08428400
Cu       8.76061000       6.25758000      10.00000000  F       0.00425800       0.02156000      -0.08327000
Cu      11.26364000       6.25758000      10.00000000  F      -0.01242900      -0.00245300      -0.05741900
Cu       1.25152000       8.76061000      10.00000000  F       0.00086400       0.01072400      -0.06974400
Cu       3.75455000       8.76061000      10.00000000  F       0.00229100      -0.00922500      -0.07240900
Cu       6.25758000       8.76061000      10.00000000  F       0.00223200      -0.03050200      -0.05605400
Cu       8.76061000       8.76061000      10.00000000  F       0.00355200      -0.01603000      -0.06162100
Cu      11.26364000       8.76061000      10.00000000  F      -0.00915900       0.00269100      -0.07449000
Cu       1.25152000      11.26364000      10.00000000  F      -0.00192800       0.00177500      -0.01945300
Cu       3.75455000      11.26364000      10.00000000  F      -0.00710400       0.00139500      -0.06796200
Cu       6.25758000      11.26364000      10.00000000  F      -0.00588700       0.00192300      -0.07269300
Cu       8.76061000      11.26364000      10.00000000  F       0.00006200       0.00137100      -0.06977100
Cu      11.26364000      11.26364000      10.00000000  F       0.00910800       0.00168400      -0.06855900
Cu       0.00000000       0.00000000      11.76991000  F      -0.00971600       0.03665100       0.08790900
Cu       2.50303000       0.00000000      11.76991000  F       0.03967600       0.03412400       0.05902100
Cu       5.00606000       0.00000000      11.76991000  F       0.05157100       0.09925600       0.06150200
Cu       7.50909000       0.00000000      11.76991000  F       0.02049900       0.07477400       0.06060100
Cu      10.01212000       0.00000000      11.76991000  F      -0.01056700       0.07485800       0.06644900
Cu       0.00000000       2.50303000      11.76991000  F      -0.05894600       0.03486200       0.07717900
Cu       2.50303000       2.50303000      11.76991000  F       0.07101000       0.03400100       0.07399300
Cu       5.00606000       2.50303000      11.76991000  F       0.00311300      -0.00727000       0.10021200
Cu       7.50909000       2.50303000      11.76991000  F      -0.03292300       0.00797000       0.09579100
Cu      10.01212000       2.50303000      11.76991000  F       0.07151700      -0.07157500       0.00153300
Cu       0.00000000       5.00606000      11.76991000  F      -0.08513800       0.00042700       0.04837700
Cu       2.50303000       5.00606000      11.76991000  F       0.05809500      -0.00151900       0.04289100
Cu       5.00606000       5.00606000      11.76991000  F      -0.02004800       0.00157200       0.21250300
Cu       7.50909000       5.00606000      11.76991000  F      -0.05300900       0.00309400       0.12835100
Cu      10.01212000       5.00606000      11.76991000  F       0.04772000       0.00031700       0.01117800
Cu       0.00000000       7.50909000      11.76991000  F      -0.05604300      -0.04010200       0.07759900
Cu       2.50303000       7.50909000      11.76991000  F       0.07100900      -0.03725300       0.07232100
Cu       5.00606000       7.50909000      11.76991000  F       0.00758000       0.00605000       0.10078200
Cu       7.50909000       7.50909000      11.76991000  F      -0.03168100      -0.00896100       0.09610400
Cu      10.01212000       7.50909000      11.76991000  F       0.07620400       0.07106700      -0.00045300
Cu       0.00000000      10.01212000      11.76991000  F      -0.00805200      -0.03622300       0.08523100
Cu       2.50303000      10.01212000      11.76991000  F       0.04052500      -0.03342100       0.05882600
Cu       5.00606000      10.01212000      11.76991000  F       0.05238400      -0.09150700       0.06069500
Cu       7.50909000      10.01212000      11.76991000  F       0.02185400      -0.06481500       0.05833200
Cu      10.01212000      10.01212000      11.76991000  F      -0.00874800      -0.07032100       0.06396300
Cu       1.27070000       1.24398000      13.57757000  T       0.00119000       0.00374900      -0.00493100
Cu       3.79065000       1.26210000      13.59482000  T       0.00353700       0.00670300      -0.00028800
Cu       6.29588000       1.28398000      13.60628000  T       0.00064000       0.00317400      -0.00294100
Cu       8.78036000       1.27748000      13.60452000  T      -0.00273500       0.00642000       0.00106200
Cu      11.27084000       1.26386000      13.60158000  T      -0.00278000       0.00458500      -0.00049500
Cu       1.24637000       3.75661000      13.56965000  T      -0.00139800       0.00173300      -0.00267300
Cu       3.76376000       3.76682000      13.60652000  T       0.00461400       0.00450100      -0.00022600
Cu       6.25680000       3.78593000      13.60037000  T       0.00059900       0.00294500       0.00268500
Cu       8.74680000       3.76727000      13.55188000  T      -0.00483500       0.00379500       0.00230300
Cu      11.22548000       3.75753000      13.59996000  T      -0.00779200       0.00284600      -0.00174800
Cu       1.24748000       6.25373000      13.56957000  T      -0.00188000      -0.00197800      -0.00223100
Cu       3.76518000       6.24442000      13.60440000  T       0.00427900      -0.00389500       0.00045900
Cu       6.25895000       6.22854000      13.60030000  T       0.00007000      -0.00338600       0.00235400
Cu       8.74871000       6.24568000      13.55119000  T      -0.00489100      -0.00404000       0.00239200
Cu      11.22704000       6.25477000      13.59934000  T      -0.00766000      -0.00304500      -0.00063300
Cu       1.27166000       8.76592000      13.57774000  T       0.00130600      -0.00380500      -0.00472500
Cu       3.79101000       8.75060000      13.59396000  T       0.00343700      -0.00651900      -0.00066100
Cu       6.29719000       8.73219000      13.60474000  T       0.00036800      -0.00419000      -0.00309500
Cu       8.78238000       8.73704000      13.60285000  T      -0.00300200      -0.00724000       0.00113500
Cu      11.27260000       8.74824000      13.60163000  T      -0.00314700      -0.00408400      -0.00096400
Cu       1.24436000      11.26285000      13.59698000  T       0.00156000       0.00023500      -0.00515700
Cu       3.73899000      11.26428000      13.57106000  T       0.00350100       0.00024700      -0.00675700
Cu       6.25328000      11.26623000      13.55984000  T       0.00328400      -0.00065300      -0.00352500
Cu       8.76286000      11.26492000      13.56708000  T      -0.00040400      -0.00057700      -0.00399000
Cu      11.27056000      11.26375000      13.57979000  T      -0.00082500       0.00025200      -0.00697200
Cu      12.50832000       0.00939000      15.37358000  T       0.00083700      -0.00094500      -0.00893300
Cu       2.50714000      12.51831000      15.36776000  T      -0.00132400       0.00028700      -0.00858600
Cu       5.00612000      12.48252000      15.34930000  T      -0.00017700       0.00316300      -0.01232100
Cu       7.50868000      12.49401000      15.34136000  T       0.00270800       0.00317600      -0.00842400
Cu      10.00908000      12.49800000      15.35777000  T       0.00263500       0.00346500      -0.00794200
Cu       0.08464000       2.50968000      15.35671000  T      -0.00325400       0.00115200      -0.00749500
Cu       2.54688000       2.49936000      15.34939000  T       0.00214800       0.00247300      -0.00506500
Cu       5.02007000       2.42077000      15.43831000  T       0.00187300       0.00513800      -0.00185200
Cu       7.63113000       2.49858000      15.44776000  T       0.00280200      -0.00403900      -0.00699400
Cu      10.13949000       2.46024000      15.46579000  T      -0.00060100       0.00298800      -0.00362800
Cu      12.42363000       5.00601000      15.33566000  T      -0.01907200      -0.00060600      -0.00253100
Cu       2.30285000       5.00405000      15.42340000  T      -0.02019900       0.00012300      -0.00355000
Pd       4.77184000       5.00973000      15.70196000  T      -0.06724900      -0.00250300       0.04544500
Y        7.48927000       5.00977000      17.25602000  T      -0.01803700      -0.00194000       0.00489500
Cu       9.94170000       5.00711000      15.44965000  T      -0.00053200      -0.00034600      -0.00705600
Cu       0.08916000       7.50097000      15.35749000  T      -0.00500700      -0.00031200      -0.00779100
Cu       2.55096000       7.50730000      15.34896000  T       0.00077800      -0.00076100      -0.00523800
Cu       5.02205000       7.59696000      15.43486000  T       0.00201400      -0.00634600      -0.00096200
Cu       7.63882000       7.52016000      15.44495000  T      -0.00133500       0.00116900      -0.00619600
Cu      10.14513000       7.55254000      15.46607000  T      -0.00275300      -0.00212100      -0.00403600
Cu      12.50807000      10.00292000      15.37335000  T       0.00179700       0.00213500      -0.00864500
Cu       2.50755000      10.00485000      15.36740000  T      -0.00085000       0.00108400      -0.00851900
Cu       5.00654000      10.04903000      15.34791000  T      -0.00077400      -0.00394500      -0.01305400
Cu       7.50873000      10.03704000      15.34025000  T       0.00274900      -0.00341000      -0.00883500
Cu      10.00836000      10.02817000      15.35753000  T       0.00365200      -0.00206200      -0.00838900
O        6.26552000       3.37590000      16.54500000  T      -0.00100900       0.01287600      -0.00514700
O        6.27231000       6.63991000      16.53249000  T      -0.00358000      -0.01268100      -0.00053700
O        9.05137000       6.44356000      16.59053000  T      -0.01421900      -0.01129300      -0.01478800
O        9.04577000       3.57219000      16.58790000  T      -0.01285100       0.01017100      -0.01378200
C        4.08940000       5.00656000      17.61170000  T      -0.03372400      -0.00011700       0.01711400
O        5.16654000       5.03392000      18.53629000  T      -0.01998500      -0.00883200       0.00340200
O        2.95618000       4.97983000      18.05805000  T      -0.02768600       0.00748300       0.01096700
H        4.75710000       5.03096000      19.43160000  T      -0.01764800      -0.00809100       0.01983400
108
Lattice="12.515153631 0.0 0.0 0.0 12.515153631 0.0 0.0 0.0 25.30973" Properties=species:S:1:pos:R:3:move_mask:L:1:forces:R:3 stress="0.007567486532131526 -5.149245028853688e-06 0.00032042659550459465 -5.149245028853688e-06 0.008377983941182223 1.9074051888699237e-05 0.00032042659550459465 1.9074051888699237e-05 0.002067075475328269" free_energy=-444.98570245 energy=-444.98334921 pbc="T T T"
Cu       1.25152000       1.25152000      10.00000000  F       0.00060000      -0.01413400      -0.07037300
Cu       3.75455000       1.25152000      10.00000000  F       0.00299700       0.00700400      -0.07325400
Cu       6.25758000       1.25152000      10.00000000  F       0.00244800       0.02632800      -0.05790100
Cu       8.76061000       1.25152000      10.00000000  F       0.00309200       0.01382400      -0.06207200
Cu      11.26364000       1.25152000      10.00000000  F      -0.00894000      -0.00584700      -0.07509100
Cu       1.25152000       3.75455000      10.00000000  F       0.00413400       0.01021300      -0.07360700
Cu       3.75455000       3.75455000      10.00000000  F       0.01410900      -0.01265100      -0.05293100
Cu       6.25758000       3.75455000      10.00000000  F      -0.00613000      -0.02440100      -0.08052900
Cu       8.76061000       3.75455000      10.00000000  F       0.00594600      -0.02090500      -0.08240300
Cu      11.26364000       3.75455000      10.00000000  F      -0.01300800       0.00376100      -0.05579600
Cu       1.25152000       6.25758000      10.00000000  F       0.00337100      -0.00883800      -0.07529700
Cu       3.75455000       6.25758000      10.00000000  F       0.01553800       0.01335400      -0.05381800
Cu       6.25758000       6.25758000      10.00000000  F      -0.00597700       0.02648600      -0.08425100
Cu       8.76061000       6.25758000      10.00000000  F       0.00444900       0.02157100      -0.08313000
Cu      11.26364000       6.25758000      10.00000000  F      -0.01237800      -0.00242200      -0.05723200
Cu       1.25152000       8.76061000      10.00000000  F       0.00080500       0.01078300      -0.06949700
Cu       3.75455000       8.76061000      10.00000000  F       0.00234800      -0.00919200      -0.07231700
Cu       6.25758000       8.76061000      10.00000000  F       0.00239000      -0.03048500      -0.05600100
Cu       8.76061000       8.76061000      10.00000000  F       0.00377700      -0.01600300      -0.06143100
Cu      11.26364000       8.76061000      10.00000000  F      -0.00910600       0.00273400      -0.07417000
Cu       1.25152000      11.26364000      10.00000000  F      -0.00196300       0.00179300      -0.01919800
Cu       3.75455000      11.26364000      10.00000000  F      -0.00706600       0.00141900      -0.06780800
Cu       6.25758000      11.26364000      10.00000000  F      -0.00571500       0.00194100      -0.07256400
Cu       8.76061000      11.26364000      10.00000000  F       0.00026700       0.00137400      -0.06953300
Cu      11.26364000      11.26364000      10.00000000  F       0.00918100       0.00168000      -0.06824700
Cu       0.00000000       0.00000000      11.76991000  F      -0.00984000       0.03657200       0.08859100
Cu       2.50303000       0.00000000      11.76991000  F       0.03952500       0.03407300       0.05974400
Cu       5.00606000       0.00000000      11.76991000  F       0.05172800       0.09918300       0.06223800
Cu       7.50909000       0.00000000      11.76991000  F       0.02085400       0.07478300       0.06132600
Cu      10.01212000       0.00000000      11.76991000  F      -0.01037200       0.07475400       0.06713900
Cu       0.00000000       2.50303000      11.76991000  F      -0.05906100       0.03474800       0.07785900
Cu       2.50303000       2.50303000      11.76991000  F       0.07088900       0.03394400       0.07473900
Cu       5.00606000       2.50303000      11.76991000  F       0.00325400      -0.00730900       0.10099500
Cu       7.50909000       2.50303000      11.76991000  F      -0.03257500       0.00793300       0.09657000
Cu      10.01212000       2.50303000      11.76991000  F       0.07170900      -0.07164200       0.00222400
Cu       0.00000000       5.00606000      11.76991000  F      -0.08533600       0.00042000       0.04906900
Cu       2.50303000       5.00606000      11.76991000  F       0.05805600      -0.00152200       0.04361200
Cu       5.00606000       5.00606000      11.76991000  F      -0.01987700       0.00157000       0.21326200
Cu       7.50909000       5.00606000      11.76991000  F      -0.05262200       0.00309400       0.12907800
Cu      10.01212000       5.00606000      11.76991000  F       0.04786000       0.00031500       0.01191900
Cu       0.00000000       7.50909000      11.76991000  F      -0.05615000      -0.04000900       0.07827400
Cu       2.50303000       7.50909000      11.76991000  F       0.07089600      -0.03721100       0.07307000
Cu       5.00606000       7.50909000      11.76991000  F       0.00772500       0.00608500       0.10157600
Cu       7.50909000       7.50909000      11.76991000  F      -0.03133900      -0.00893900       0.09687500
Cu      10.01212000       7.50909000      11.76991000  F       0.07638400       0.07111700       0.00023200
Cu       0.00000000      10.01212000      11.76991000  F      -0.00817100      -0.03616600       0.08590900
Cu       2.50303000      10.01212000      11.76991000  F       0.04037800      -0.03340400       0.05955200
Cu       5.00606000      10.01212000      11.76991000  F       0.05254200      -0.09147900       0.06143400
Cu       7.50909000      10.01212000      11.76991000  F       0.02220900      -0.06485600       0.05905300
Cu      10.01212000      10.01212000      11.76991000  F      -0.00856100      -0.07024400       0.06465900
Cu       1.27069000       1.24396000      13.57762000  T       0.00122100       0.00412800      -0.00528000
Cu       3.79064000       1.26208000      13.59486000  T       0.00391800       0.00735500      -0.00040800
Cu       6.29588000       1.28396000      13.60632000  T       0.00099800       0.00361200      -0.00302300
Cu       8.78037000       1.27745000      13.60454000  T      -0.00259300       0.00706500       0.00139300
Cu      11.27085000       1.26384000      13.60161000  T      -0.00289500       0.00492400      -0.00055900
Cu       1.24638000       3.75660000      13.56969000  T      -0.00165400       0.00192000      -0.00284100
Cu       3.76375000       3.76680000      13.60654000  T       0.00491800       0.00492500       0.00013700
Cu       6.25682000       3.78592000      13.60037000  T       0.00056600       0.00307600       0.00386300
Cu       8.74682000       3.76726000      13.55188000  T      -0.00510000       0.00387400       0.00324700
Cu      11.22552000       3.75752000      13.59999000  T      -0.00863200       0.00283600      -0.00181700
Cu       1.24749000       6.25374000      13.56961000  T      -0.00220600      -0.00221600      -0.00240400
Cu       3.76517000       6.24444000      13.60441000  T       0.00454500      -0.00432000       0.00087600
Cu       6.25897000       6.22855000      13.60029000  T      -0.00001800      -0.00360600       0.00347600
Cu       8.74873000       6.24569000      13.55119000  T      -0.00517300      -0.00417400       0.00331000
Cu      11.22708000       6.25478000      13.59937000  T      -0.00850000      -0.00305700      -0.00063300
Cu       1.27165000       8.76595000      13.57779000  T       0.00131300      -0.00423300      -0.00502300
Cu       3.79100000       8.75063000      13.59400000  T       0.00382800      -0.00719800      -0.00080600
Cu       6.29719000       8.73221000      13.60478000  T       0.00069300      -0.00475400      -0.00322200
Cu       8.78239000       8.73707000      13.60287000  T      -0.00291200      -0.00805100       0.00148600
Cu      11.27261000       8.74825000      13.60166000  T      -0.00331000      -0.00439600      -0.00108200
Cu       1.24435000      11.26285000      13.59703000  T       0.00154900       0.00022600      -0.00571100
Cu       3.73898000      11.26428000      13.57112000  T       0.00379500       0.00025900      -0.00727100
Cu       6.25328000      11.26623000      13.55989000  T       0.00374800      -0.00070300      -0.00386100
Cu       8.76287000      11.26493000      13.56713000  T      -0.00032300      -0.00065600      -0.00438200
Cu      11.27057000      11.26375000      13.57985000  T      -0.00102700       0.00025700      -0.00756400
Cu      12.50832000       0.00938000      15.37367000  T       0.00089800      -0.00098500      -0.01024700
Cu       2.50714000      12.51830000      15.36785000  T      -0.00130900       0.00046900      -0.00988000
Cu       5.00612000      12.48251000      15.34939000  T       0.00003900       0.00350700      -0.01353200
Cu       7.50868000      12.49400000      15.34144000  T       0.00292000       0.00347200      -0.00953600
Cu      10.00907000      12.49799000      15.35785000  T       0.00279300       0.00360900      -0.00917200
Cu       0.08464000       2.50967000      15.35677000  T      -0.00321100       0.00121400      -0.00832300
Cu       2.54686000       2.49934000      15.34944000  T       0.00271300       0.00277400      -0.00576800
Cu       5.02006000       2.42075000      15.43837000  T       0.00299100       0.00595300      -0.00227100
Cu       7.63113000       2.49856000      15.44779000  T       0.00292200      -0.00334100      -0.00664300
Cu      10.13949000       2.46023000      15.46582000  T      -0.00119200       0.00376600      -0.00350700
Cu      12.42373000       5.00602000      15.33572000  T      -0.02102800      -0.00069500      -0.00316000
Cu       2.30295000       5.00405000      15.42343000  T      -0.02221100       0.00016500      -0.00396400
Pd       4.77200000       5.00974000      15.70184000  T      -0.05978500      -0.00230000       0.04115400
Y        7.48931000       5.00978000      17.25604000  T      -0.01721000      -0.00222800       0.00462300
Cu       9.94177000       5.00711000      15.44968000  T      -0.00236800      -0.00033300      -0.00667800
Cu       0.08916000       7.50097000      15.35756000  T      -0.00508300      -0.00040500      -0.00861200
Cu       2.55095000       7.50732000      15.34902000  T       0.00126100      -0.00098000      -0.00593400
Cu       5.02204000       7.59699000      15.43491000  T       0.00311500      -0.00729900      -0.00131000
Cu       7.63883000       7.52019000      15.44498000  T      -0.00145300       0.00021700      -0.00583000
Cu      10.14515000       7.55255000      15.46611000  T      -0.00356800      -0.00283400      -0.00398600
Cu      12.50807000      10.00292000      15.37344000  T       0.00191700       0.00224500      -0.00998400
Cu       2.50754000      10.00486000      15.36749000  T      -0.00078100       0.00103500      -0.00978000
Cu       5.00654000      10.04904000      15.34800000  T      -0.00054300      -0.00439400      -0.01431200
Cu       7.50872000      10.03706000      15.34033000  T       0.00301900      -0.00379900      -0.00996500
Cu      10.00836000      10.02817000      15.35761000  T       0.00387100      -0.00214500      -0.00961900
O        6.26553000       3.37587000      16.54504000  T      -0.00216900       0.01297100      -0.00833500
O        6.27233000       6.63995000      16.53250000  T      -0.00536800      -0.01290200      -0.00240100
O        9.05140000       6.44358000      16.59059000  T      -0.01442900      -0.01113000      -0.01895000
O        9.04580000       3.57216000      16.58795000  T      -0.01263700       0.00999000      -0.01750400
C        4.08954000       5.00656000      17.61159000  T      -0.03248300       0.00010500       0.01779600
O        5.16667000       5.03397000      18.53620000  T      -0.02445500      -0.00994000       0.00896400
O        2.95632000       4.97978000      18.05794000  T      -0.03152700       0.00991900       0.01456800
H        4.75723000       5.03100000      19.43151000  T      -0.01766900      -0.00799000       0.01965600
108
Lattice="12.515153631 0.0 0.0 0.0 12.515153631 0.0 0.0 0.0 25.30973" Properties=species:S:1:pos:R:3:move_mask:L:1:forces:R:3 stress="0.007621644106816817 -5.205418610986638e-06 0.0003267617272673663 -5.205418610986638e-06 0.00843490650441028 1.9679478273909916e-05 0.0003267617272673663 1.9679478273909916e-05 0.0021496818486093344" free_energy=-444.98341319 energy=-444.98106001 pbc="T T T"
Cu       1.25152000       1.25152000      10.00000000  F       0.00065100      -0.01400200      -0.07080300
Cu       3.75455000       1.25152000      10.00000000  F       0.00306100       0.00710300      -0.07363600
Cu       6.25758000       1.25152000      10.00000000  F       0.00247900       0.02642000      -0.05822900
Cu       8.76061000       1.25152000      10.00000000  F       0.00289800       0.01398800      -0.06253800
Cu      11.26364000       1.25152000      10.00000000  F      -0.00892800      -0.00573200      -0.07551100
Cu       1.25152000       3.75455000      10.00000000  F       0.00420000       0.01033500      -0.07380800
Cu       3.75455000       3.75455000      10.00000000  F       0.01419200      -0.01249800      -0.05314700
Cu       6.25758000       3.75455000      10.00000000  F      -0.00617600      -0.02435600      -0.08076200
Cu       8.76061000       3.75455000      10.00000000  F       0.00587500      -0.02084200      -0.08271800
Cu      11.26364000       3.75455000      10.00000000  F      -0.01306700       0.00396500      -0.05613700
Cu       1.25152000       6.25758000      10.00000000  F       0.00341500      -0.00884700      -0.07548500
Cu       3.75455000       6.25758000      10.00000000  F       0.01563900       0.01332200      -0.05397200
Cu       6.25758000       6.25758000      10.00000000  F      -0.00602800       0.02656800      -0.08444500
Cu       8.76061000       6.25758000      10.00000000  F       0.00436500       0.02161000      -0.08341500
Cu      11.26364000       6.25758000      10.00000000  F      -0.01241900      -0.00253800      -0.05755300
Cu       1.25152000       8.76061000      10.00000000  F       0.00086900       0.01067300      -0.06990400
Cu       3.75455000       8.76061000      10.00000000  F       0.00243000      -0.00926500      -0.07259200
Cu       6.25758000       8.76061000      10.00000000  F       0.00240300      -0.03057500      -0.05624200
Cu       8.76061000       8.76061000      10.00000000  F       0.00356500      -0.01613600      -0.06186100
Cu      11.26364000       8.76061000      10.00000000  F      -0.00908700       0.00266200      -0.07459600
Cu       1.25152000      11.26364000      10.00000000  F      -0.00190100       0.00177700      -0.01971900
Cu       3.75455000      11.26364000      10.00000000  F      -0.00696300       0.00139900      -0.06815500
Cu       6.25758000      11.26364000      10.00000000  F      -0.00574700       0.00192700      -0.07285100
Cu       8.76061000      11.26364000      10.00000000  F       0.00010500       0.00135900      -0.07003600
Cu      11.26364000      11.26364000      10.00000000  F       0.00916900       0.00167000      -0.06887800
Cu       0.00000000       0.00000000      11.76991000  F      -0.00953200       0.03562100       0.09076100
Cu       2.50303000       0.00000000      11.76991000  F       0.03906800       0.03325000       0.06214900
Cu       5.00606000       0.00000000      11.76991000  F       0.05121500       0.09812700       0.06473000
Cu       7.50909000       0.00000000      11.76991000  F       0.02023100       0.07352100       0.06352400
Cu      10.01212000       0.00000000      11.76991000  F      -0.00980100       0.07334200       0.06889000
Cu       0.00000000       2.50303000      11.76991000  F      -0.05812200       0.03418600       0.07987800
Cu       2.50303000       2.50303000      11.76991000  F       0.07006400       0.03272400       0.07667900
Cu       5.00606000       2.50303000      11.76991000  F       0.00249700      -0.00895400       0.10272800
Cu       7.50909000       2.50303000      11.76991000  F      -0.03267100       0.00626500       0.09776700
Cu      10.01212000       2.50303000      11.76991000  F       0.07307200      -0.07231100       0.00393500
Cu       0.00000000       5.00606000      11.76991000  F      -0.08373700       0.00045600       0.05075100
Cu       2.50303000       5.00606000      11.76991000  F       0.05752700      -0.00155600       0.04536000
Cu       5.00606000       5.00606000      11.76991000  F      -0.02079300       0.00162100       0.21414700
Cu       7.50909000       5.00606000      11.76991000  F      -0.05166200       0.00318700       0.12894200
Cu      10.01212000       5.00606000      11.76991000  F       0.04990300       0.00030300       0.01326500
Cu       0.00000000       7.50909000      11.76991000  F      -0.05515000      -0.03936300       0.08025700
Cu       2.50303000       7.50909000      11.76991000  F       0.07014300      -0.03585900       0.07496200
Cu       5.00606000       7.50909000      11.76991000  F       0.00708800       0.00788800       0.10348500
Cu       7.50909000       7.50909000      11.76991000  F      -0.03139600      -0.00705200       0.09821600
Cu      10.01212000       7.50909000      11.76991000  F       0.07773900       0.07199500       0.00190400
Cu       0.00000000      10.01212000      11.76991000  F      -0.00791000      -0.03520000       0.08803500
Cu       2.50303000      10.01212000      11.76991000  F       0.03998100      -0.03252300       0.06189700
Cu       5.00606000      10.01212000      11.76991000  F       0.05205200      -0.09037200       0.06398300
Cu       7.50909000      10.01212000      11.76991000  F       0.02162500      -0.06339000       0.06129000
Cu      10.01212000      10.01212000      11.76991000  F      -0.00789800      -0.06872700       0.06640500
Cu       1.27054000       1.24352000      13.57853000  T       0.00155000       0.00542700      -0.00732200
Cu       3.79029000       1.26144000      13.59552000  T       0.00527600       0.00871800      -0.00057600
Cu       6.29571000       1.28358000      13.60703000  T       0.00150100       0.00404900      -0.00393900
Cu       8.78052000       1.27681000      13.60480000  T      -0.00418800       0.00931500       0.00320000
Cu      11.27103000       1.26342000      13.60218000  T      -0.00369500       0.00605700      -0.00031800
Cu       1.24658000       3.75642000      13.57042000  T      -0.00074900       0.00252700      -0.00392000
Cu       3.76345000       3.76627000      13.60680000  T       0.00684500       0.00536900      -0.00042000
Cu       6.25701000       3.78565000      13.60011000  T       0.00064300       0.00280000       0.00459100
Cu       8.74731000       3.76709000      13.55177000  T      -0.00480900       0.00379300       0.00652500
Cu      11.22635000       3.75741000      13.60055000  T      -0.01009800       0.00409400      -0.00111800
Cu       1.24775000       6.25395000      13.57034000  T      -0.00136400      -0.00282100      -0.00365800
Cu       3.76489000       6.24494000      13.60462000  T       0.00665900      -0.00475300       0.00024200
Cu       6.25923000       6.22888000      13.60005000  T       0.00006300      -0.00318700       0.00400900
Cu       8.74925000       6.24591000      13.55110000  T      -0.00483100      -0.00390300       0.00640800
Cu      11.22791000       6.25491000      13.59986000  T      -0.00968600      -0.00429800       0.00016800
Cu       1.27152000       8.76642000      13.57866000  T       0.00172500      -0.00562400      -0.00696300
Cu       3.79067000       8.75126000      13.59471000  T       0.00518800      -0.00855700      -0.00127900
Cu       6.29706000       8.73271000      13.60552000  T       0.00122800      -0.00511400      -0.00443900
Cu       8.78260000       8.73783000      13.60313000  T      -0.00430600      -0.01038800       0.00296100
Cu      11.27283000       8.74864000      13.60228000  T      -0.00414400      -0.00550500      -0.00112700
Cu       1.24425000      11.26285000      13.59808000  T       0.00188800       0.00014900      -0.00683300
Cu       3.73869000      11.26426000      13.57223000  T       0.00488200       0.00021400      -0.00943400
Cu       6.25306000      11.26628000      13.56083000  T       0.00399400      -0.00072700      -0.00548700
Cu       8.76297000      11.26499000      13.56809000  T      -0.00128300      -0.00084700      -0.00635300
Cu      11.27074000      11.26372000      13.58096000  T      -0.00219800       0.00013200      -0.00971300
Cu      12.50829000       0.00937000      15.37531000  T       0.00083600      -0.00134900      -0.01058000
Cu       2.50715000      12.51808000      15.36959000  T      -0.00169400       0.00053400      -0.01064200
Cu       5.00602000      12.48227000      15.35113000  T      -0.00017300       0.00460700      -0.01511300
Cu       7.50853000      12.49371000      15.34299000  T       0.00307500       0.00549500      -0.01133100
Cu      10.00898000      12.49779000      15.35940000  T       0.00298400       0.00441000      -0.01069400
Cu       0.08465000       2.50950000      15.35797000  T      -0.00395800       0.00123600      -0.00942600
Cu       2.54644000       2.49886000      15.35049000  T       0.00358800       0.00235400      -0.00737600
Cu       5.01968000       2.42023000      15.43934000  T       0.00520900       0.00855500      -0.00233900
Cu       7.63107000       2.49828000      15.44836000  T       0.00571200      -0.00254600      -0.00762400
Cu      10.13964000       2.45986000      15.46645000  T      -0.00357800       0.00597200      -0.00334500
Cu      12.42572000       5.00612000      15.33680000  T      -0.02309200      -0.00101900      -0.00536400
Cu       2.30508000       5.00401000      15.42403000  T      -0.02218100       0.00003600      -0.00658400
Pd       4.77470000       5.00983000      15.69988000  T      -0.06682300      -0.00184900       0.04741200
Y        7.49009000       5.00989000      17.25638000  T      -0.02005900      -0.00412000       0.00119300
Cu       9.94304000       5.00710000      15.45022000  T      -0.00535800      -0.00026700      -0.00304600
Cu       0.08932000       7.50114000      15.35876000  T      -0.00552200      -0.00027600      -0.00972500
Cu       2.55063000       7.50767000      15.35009000  T       0.00221000      -0.00060500      -0.00769700
Cu       5.02163000       7.59765000      15.43580000  T       0.00554300      -0.00963000      -0.00148400
Cu       7.63911000       7.52077000      15.44548000  T       0.00180200      -0.00011600      -0.00718200
Cu      10.14549000       7.55283000      15.46682000  T      -0.00573400      -0.00499600      -0.00372900
Cu      12.50797000      10.00285000      15.37511000  T       0.00174300       0.00256800      -0.01040600
Cu       2.50749000      10.00490000      15.36921000  T      -0.00115800       0.00110000      -0.01032900
Cu       5.00645000      10.04937000      15.34983000  T      -0.00087700      -0.00508900      -0.01627600
Cu       7.50857000      10.03745000      15.34190000  T       0.00322600      -0.00535700      -0.01175400
Cu      10.00820000      10.02826000      15.35918000  T       0.00393300      -0.00288500      -0.01103300
O        6.26588000       3.37509000      16.54610000  T      -0.00110400       0.01277900      -0.01099200
O        6.27304000       6.64073000      16.53285000  T      -0.00469700      -0.01282900      -0.00490600
O        9.05226000       6.44412000      16.59223000  T      -0.01228800      -0.01426000      -0.02436300
O        9.04640000       3.57165000      16.58937000  T      -0.01081400       0.01306900      -0.02328400
C        4.09228000       5.00655000      17.60948000  T      -0.01149400       0.00018100       0.00936800
O        5.16962000       5.03502000      18.53409000  T      -0.03808300      -0.00965500       0.02742600
O        2.95934000       4.97853000      18.05565000  T      -0.05093700       0.00827200       0.02400300
H        4.75965000       5.03173000      19.42959000  T      -0.00886600      -0.00840900       0.00507000
108
Lattice="12.515153631 0.0 0.0 0.0 12.515153631 0.0 0.0 0.0 25.30973" Properties=species:S:1:pos:R:3:move_mask:L:1:forces:R:3 stress="0.007419600214902849 -3.239343236333411e-06 0.00029893083807505276 -3.239343236333411e-06 0.008232681608731663 1.7763334972263753e-05 0.00029893083807505276 1.7763334972263753e-05 0.001847393078624556" free_energy=-444.98652174 energy=-444.98415754 pbc="T T T"
Cu       1.25152000       1.25152000      10.00000000  F       0.00026100      -0.01379200      -0.07072900
Cu       3.75455000       1.25152000      10.00000000  F       0.00252400       0.00737600      -0.07339300
Cu       6.25758000       1.25152000      10.00000000  F       0.00187300       0.02672500      -0.05792100
Cu       8.76061000       1.25152000      10.00000000  F       0.00288300       0.01410400      -0.06206500
Cu      11.26364000       1.25152000      10.00000000  F      -0.00949600      -0.00539000      -0.07569000
Cu       1.25152000       3.75455000      10.00000000  F       0.00367600       0.01041500      -0.07385400
Cu       3.75455000       3.75455000      10.00000000  F       0.01365800      -0.01248000      -0.05308300
Cu       6.25758000       3.75455000      10.00000000  F      -0.00645300      -0.02387200      -0.08050500
Cu       8.76061000       3.75455000      10.00000000  F       0.00538200      -0.02046300      -0.08224700
Cu      11.26364000       3.75455000      10.00000000  F      -0.01343200       0.00376300      -0.05583400
Cu       1.25152000       6.25758000      10.00000000  F       0.00299700      -0.00906800      -0.07551300
Cu       3.75455000       6.25758000      10.00000000  F       0.01505200       0.01316900      -0.05385500
Cu       6.25758000       6.25758000      10.00000000  F      -0.00630800       0.02594600      -0.08407700
Cu       8.76061000       6.25758000      10.00000000  F       0.00391100       0.02112900      -0.08294100
Cu      11.26364000       6.25758000      10.00000000  F      -0.01285900      -0.00244600      -0.05731500
Cu       1.25152000       8.76061000      10.00000000  F       0.00050400       0.01036500      -0.06980100
Cu       3.75455000       8.76061000      10.00000000  F       0.00189600      -0.00968400      -0.07239900
Cu       6.25758000       8.76061000      10.00000000  F       0.00184100      -0.03094500      -0.05595200
Cu       8.76061000       8.76061000      10.00000000  F       0.00353400      -0.01639800      -0.06139400
Cu      11.26364000       8.76061000      10.00000000  F      -0.00969000       0.00214200      -0.07468300
Cu       1.25152000      11.26364000      10.00000000  F      -0.00234000       0.00173300      -0.01943400
Cu       3.75455000      11.26364000      10.00000000  F      -0.00758200       0.00135500      -0.06804900
Cu       6.25758000      11.26364000      10.00000000  F      -0.00612700       0.00183600      -0.07296400
Cu       8.76061000      11.26364000      10.00000000  F      -0.00009700       0.00132000      -0.06977400
Cu      11.26364000      11.26364000      10.00000000  F       0.00867200       0.00165100      -0.06856500
Cu       0.00000000       0.00000000      11.76991000  F      -0.01082200       0.03982700       0.07907500
Cu       2.50303000       0.00000000      11.76991000  F       0.04082400       0.03696900       0.04975400
Cu       5.00606000       0.00000000      11.76991000  F       0.05279200       0.10278500       0.05224600
Cu       7.50909000       0.00000000      11.76991000  F       0.02173700       0.07887900       0.05201100
Cu      10.01212000       0.00000000      11.76991000  F      -0.01262300       0.07924300       0.05876800
Cu       0.00000000       2.50303000      11.76991000  F      -0.06194700       0.03709800       0.06859900
Cu       2.50303000       2.50303000      11.76991000  F       0.07305700       0.03816000       0.06602300
Cu       5.00606000       2.50303000      11.76991000  F       0.00500200      -0.00177200       0.09308100
Cu       7.50909000       2.50303000      11.76991000  F      -0.03325000       0.01331900       0.08971500
Cu      10.01212000       2.50303000      11.76991000  F       0.06691500      -0.06895100      -0.00633700
Cu       0.00000000       5.00606000      11.76991000  F      -0.09018900       0.00038400       0.04069100
Cu       2.50303000       5.00606000      11.76991000  F       0.05919500      -0.00136600       0.03552700
Cu       5.00606000       5.00606000      11.76991000  F      -0.01765700       0.00146900       0.20791800
Cu       7.50909000       5.00606000      11.76991000  F      -0.05691600       0.00285000       0.12572400
Cu      10.01212000       5.00606000      11.76991000  F       0.04123200       0.00040900       0.00399900
Cu       0.00000000       7.50909000      11.76991000  F      -0.05927700      -0.04252800       0.06920400
Cu       2.50303000       7.50909000      11.76991000  F       0.07280900      -0.04176100       0.06452200
Cu       5.00606000       7.50909000      11.76991000  F       0.00908600       0.00010100       0.09312400
Cu       7.50909000       7.50909000      11.76991000  F      -0.03207400      -0.01492600       0.08965300
Cu      10.01212000       7.50909000      11.76991000  F       0.07162800       0.06789100      -0.00812500
Cu       0.00000000      10.01212000      11.76991000  F      -0.00906200      -0.03941000       0.07657200
Cu       2.50303000      10.01212000      11.76991000  F       0.04150000      -0.03636100       0.04976700
Cu       5.00606000      10.01212000      11.76991000  F       0.05351500      -0.09513800       0.05131000
Cu       7.50909000      10.01212000      11.76991000  F       0.02298600      -0.06953900       0.04965000
Cu      10.01212000      10.01212000      11.76991000  F      -0.01107300      -0.07501100       0.05634700
Cu       1.27114000       1.24531000      13.57487000  T      -0.00041600      -0.00099000       0.00241700
Cu       3.79166000       1.26406000      13.59283000  T      -0.00199500       0.00078900       0.00079000
Cu       6.29636000       1.28518000      13.60413000  T      -0.00155900       0.00092100       0.00049000
Cu       8.77994000       1.27939000      13.60361000  T       0.00133500      -0.00147500      -0.00463200
Cu      11.27027000       1.26517000      13.59986000  T       0.00011400       0.00005900      -0.00138400
Cu       1.24570000       3.75718000      13.56747000  T      -0.00349300      -0.00030300       0.00092200
Cu       3.76461000       3.76848000      13.60574000  T      -0.00216400       0.00139500       0.00046600
Cu       6.25623000       3.78682000      13.60112000  T       0.00048800       0.00226400      -0.00177800
Cu       8.74521000       3.76789000      13.55201000  T      -0.00439700       0.00273000      -0.00804800
Cu      11.22292000       3.75787000      13.59820000  T      -0.00106000      -0.00080400      -0.00394000
Cu       1.24660000       6.25308000      13.56741000  T      -0.00379900       0.00052200       0.00156000
Cu       3.76597000       6.24286000      13.60380000  T      -0.00277200      -0.00090500       0.00102900
Cu       6.25818000       6.22745000      13.60099000  T       0.00006700      -0.00285000      -0.00161500
Cu       8.74704000       6.24490000      13.55131000  T      -0.00476100      -0.00346400      -0.00757200
Cu      11.22445000       6.25438000      13.59781000  T      -0.00162000       0.00074700      -0.00338300
Cu       1.27205000       8.76452000      13.57514000  T      -0.00044600       0.00123900       0.00177400
Cu       3.79197000       8.74865000      13.59186000  T      -0.00198100      -0.00060300       0.00136100
Cu       6.29754000       8.73062000      13.60253000  T      -0.00178400      -0.00181900       0.00140000
Cu       8.78175000       8.73475000      13.60199000  T       0.00094600       0.00138000      -0.00367300
Cu      11.27190000       8.74707000      13.59978000  T      -0.00007300       0.00028600      -0.00107100
Cu       1.24466000      11.26287000      13.59379000  T       0.00005500       0.00045000       0.00001800
Cu       3.73989000      11.26436000      13.56773000  T      -0.00074300       0.00026100       0.00151900
Cu       6.25398000      11.26608000      13.55707000  T       0.00147100      -0.00052700       0.00237800
Cu       8.76260000      11.26474000      13.56423000  T       0.00232600      -0.00003300       0.00289000
Cu      11.27008000      11.26383000      13.57642000  T       0.00266700       0.00049300       0.00094800
Cu      12.50842000       0.00943000      15.36848000  T       0.00130800      -0.00001000      -0.00316500
Cu       2.50708000      12.51896000      15.36242000  T       0.00028000      -0.00022700      -0.00126800
Cu       5.00641000      12.48327000      15.34387000  T       0.00017100      -0.00062800      -0.00309900
Cu       7.50917000      12.49484000      15.33665000  T       0.00112200      -0.00283300       0.00120100
Cu      10.00940000      12.49866000      15.35304000  T       0.00123900       0.00090100       0.00127900
Cu       0.08455000       2.51020000      15.35301000  T      -0.00144400       0.00114200      -0.00089300
Cu       2.54812000       2.50089000      15.34623000  T      -0.00200200       0.00298500       0.00213200
Cu       5.02108000       2.42228000      15.43538000  T      -0.00384100      -0.00179300       0.00214300
Cu       7.63120000       2.49925000      15.44594000  T      -0.00665400      -0.00417600      -0.00072900
Cu      10.13916000       2.46128000      15.46382000  T       0.00245400      -0.00065800      -0.00001400
Cu      12.41733000       5.00572000      15.33253000  T      -0.00641800       0.00023400       0.00651300
Cu       2.29598000       5.00419000      15.42166000  T      -0.01675200       0.00041900       0.00358900
Pd       4.76230000       5.00935000      15.70871000  T      -0.04666600      -0.00196800       0.02282500
Y        7.48665000       5.00947000      17.25535000  T      -0.00745700       0.00038000       0.01445900
Cu       9.93809000       5.00712000      15.44761000  T       0.00715800      -0.00057500      -0.01304600
Cu       0.08858000       7.50046000      15.35376000  T      -0.00331500      -0.00043700      -0.00134200
Cu       2.55186000       7.50622000      15.34573000  T      -0.00286800      -0.00136300       0.00193300
Cu       5.02314000       7.59497000      15.43223000  T      -0.00498200       0.00030200       0.00318400
Cu       7.63774000       7.51851000      15.44335000  T      -0.01062000       0.00163700      -0.00000100
Cu      10.14416000       7.55180000      15.46385000  T      -0.00001900       0.00174400      -0.00055200
Cu      12.50842000      10.00317000      15.36818000  T       0.00201900       0.00060700      -0.00190900
Cu       2.50769000      10.00474000      15.36208000  T       0.00010200       0.00084000      -0.00172600
Cu       5.00678000      10.04800000      15.34224000  T      -0.00008500      -0.00070700      -0.00249700
Cu       7.50925000      10.03591000      15.33547000  T       0.00101500       0.00160800       0.00159200
Cu      10.00892000      10.02791000      15.35274000  T       0.00229600       0.00018500       0.00063700
O        6.26436000       3.37853000      16.54191000  T      -0.00454300       0.00738400       0.00217500
O        6.27004000       6.63727000      16.53161000  T      -0.00604500      -0.00690900       0.00543400
O        9.04833000       6.44186000      16.58566000  T      -0.01462900       0.00152600       0.00200600
O        9.04353000       3.57375000      16.58371000  T      -0.01257800      -0.00227100       0.00202000
C        4.07984000       5.00661000      17.61859000  T      -0.02189500       0.00067400       0.00747300
O        5.15772000       5.03050000      18.54210000  T      -0.01339800      -0.00833800       0.01010300
O        2.94678000       4.98375000      18.06495000  T      -0.02852800       0.00645400       0.01370700
H        4.74909000       5.02853000      19.43817000  T      -0.01250100      -0.00701000       0.00618900
108
Lattice="12.515153631 0.0 0.0 0.0 12.515153631 0.0 0.0 0.0 25.30973" Properties=species:S:1:pos:R:3:move_mask:L:1:forces:R:3 stress="0.007427757867330379 -3.726180948152305e-06 0.0002983691022537233 -3.726180948152305e-06 0.008244459336452204 1.767595384450139e-05 0.0002983691022537233 1.767595384450139e-05 0.0018642451532644411" free_energy=-444.9860385 energy=-444.9836738 pbc="T T T"
Cu       1.25152000       1.25152000      10.00000000  F       0.00007600      -0.01416000      -0.07053500
Cu       3.75455000       1.25152000      10.00000000  F       0.00237800       0.00697500      -0.07349600
Cu       6.25758000       1.25152000      10.00000000  F       0.00167600       0.02626900      -0.05798900
Cu       8.76061000       1.25152000      10.00000000  F       0.00273000       0.01365600      -0.06180100
Cu      11.26364000       1.25152000      10.00000000  F      -0.00967000      -0.00577700      -0.07529000
Cu       1.25152000       3.75455000      10.00000000  F       0.00348900       0.01021600      -0.07404500
Cu       3.75455000       3.75455000      10.00000000  F       0.01341400      -0.01273000      -0.05351100
Cu       6.25758000       3.75455000      10.00000000  F      -0.00665300      -0.02415600      -0.08093000
Cu       8.76061000       3.75455000      10.00000000  F       0.00529200      -0.02073000      -0.08243900
Cu      11.26364000       3.75455000      10.00000000  F      -0.01353900       0.00353700      -0.05583600
Cu       1.25152000       6.25758000      10.00000000  F       0.00281100      -0.00888100      -0.07569200
Cu       3.75455000       6.25758000      10.00000000  F       0.01480200       0.01339200      -0.05428000
Cu       6.25758000       6.25758000      10.00000000  F      -0.00651500       0.02619200      -0.08452800
Cu       8.76061000       6.25758000      10.00000000  F       0.00382300       0.02135000      -0.08314100
Cu      11.26364000       6.25758000      10.00000000  F      -0.01295200      -0.00224200      -0.05731000
Cu       1.25152000       8.76061000      10.00000000  F       0.00031800       0.01071500      -0.06958200
Cu       3.75455000       8.76061000      10.00000000  F       0.00172800      -0.00929800      -0.07249100
Cu       6.25758000       8.76061000      10.00000000  F       0.00163400      -0.03050000      -0.05604300
Cu       8.76061000       8.76061000      10.00000000  F       0.00339400      -0.01595700      -0.06113700
Cu      11.26364000       8.76061000      10.00000000  F      -0.00984300       0.00251100      -0.07428900
Cu       1.25152000      11.26364000      10.00000000  F      -0.00250900       0.00171900      -0.01905000
Cu       3.75455000      11.26364000      10.00000000  F      -0.00769400       0.00135100      -0.06791000
Cu       6.25758000      11.26364000      10.00000000  F      -0.00630600       0.00184300      -0.07274200
Cu       8.76061000      11.26364000      10.00000000  F      -0.00027800       0.00132900      -0.06926100
Cu      11.26364000      11.26364000      10.00000000  F       0.00847400       0.00164600      -0.06794200
Cu       0.00000000       0.00000000      11.76991000  F      -0.01119800       0.03953000       0.07912600
Cu       2.50303000       0.00000000      11.76991000  F       0.04046700       0.03672100       0.04962300
Cu       5.00606000       0.00000000      11.76991000  F       0.05268600       0.10242400       0.05201700
Cu       7.50909000       0.00000000      11.76991000  F       0.02182200       0.07844400       0.05189700
Cu      10.01212000       0.00000000      11.76991000  F      -0.01269800       0.07881700       0.05885500
Cu       0.00000000       2.50303000      11.76991000  F      -0.06221000       0.03653600       0.06872800
Cu       2.50303000       2.50303000      11.76991000  F       0.07265000       0.03773800       0.06609900
Cu       5.00606000       2.50303000      11.76991000  F       0.00476800      -0.00225300       0.09294200
Cu       7.50909000       2.50303000      11.76991000  F      -0.03331700       0.01262500       0.08952000
Cu      10.01212000       2.50303000      11.76991000  F       0.06690800      -0.06962100      -0.00637300
Cu       0.00000000       5.00606000      11.76991000  F      -0.09038400       0.00039400       0.04087400
Cu       2.50303000       5.00606000      11.76991000  F       0.05872100      -0.00134700       0.03571000
Cu       5.00606000       5.00606000      11.76991000  F      -0.01803700       0.00146300       0.20788800
Cu       7.50909000       5.00606000      11.76991000  F      -0.05708400       0.00282100       0.12524600
Cu      10.01212000       5.00606000      11.76991000  F       0.04136500       0.00039500       0.00387200
Cu       0.00000000       7.50909000      11.76991000  F      -0.05952900      -0.04198600       0.06934600
Cu       2.50303000       7.50909000      11.76991000  F       0.07238900      -0.04136400       0.06461600
Cu       5.00606000       7.50909000      11.76991000  F       0.00881100       0.00055700       0.09301400
Cu       7.50909000       7.50909000      11.76991000  F      -0.03214300      -0.01426100       0.08948600
Cu      10.01212000       7.50909000      11.76991000  F       0.07164200       0.06853100      -0.00814100
Cu       0.00000000      10.01212000      11.76991000  F      -0.00942800      -0.03913300       0.07663300
Cu       2.50303000      10.01212000      11.76991000  F       0.04113800      -0.03613800       0.04964900
Cu       5.00606000      10.01212000      11.76991000  F       0.05338500      -0.09480000       0.05109400
Cu       7.50909000      10.01212000      11.76991000  F       0.02307000      -0.06911000       0.04954600
Cu      10.01212000      10.01212000      11.76991000  F      -0.01113700      -0.07458500       0.05645100
Cu       1.27113000       1.24529000      13.57490000  T      -0.00089300      -0.00111900       0.00180800
Cu       3.79164000       1.26406000      13.59285000  T      -0.00214200       0.00027500       0.00040900
Cu       6.29634000       1.28519000      13.60414000  T      -0.00116200       0.00021900       0.00015300
Cu       8.77995000       1.27937000      13.60357000  T       0.00121600      -0.00177900      -0.00359800
Cu      11.27027000       1.26516000      13.59985000  T      -0.00004800      -0.00054200      -0.00106300
Cu       1.24567000       3.75717000      13.56749000  T      -0.00319300      -0.00042900       0.00081500
Cu       3.76458000       3.76848000      13.60575000  T      -0.00210600       0.00101500       0.00040600
Cu       6.25623000       3.78683000      13.60110000  T      -0.00033200       0.00185500      -0.00038400
Cu       8.74517000       3.76792000      13.55194000  T      -0.00326700       0.00148000      -0.00600200
Cu      11.22291000       3.75786000      13.59817000  T      -0.00071000      -0.00095700      -0.00299800
Cu       1.24656000       6.25308000      13.56743000  T      -0.00344500       0.00062200       0.00130100
Cu       3.76594000       6.24285000      13.60381000  T      -0.00259300      -0.00064000       0.00090300
Cu       6.25818000       6.22743000      13.60097000  T      -0.00071900      -0.00242900      -0.00032400
Cu       8.74700000       6.24487000      13.55123000  T      -0.00356100      -0.00210700      -0.00561100
Cu      11.22444000       6.25439000      13.59778000  T      -0.00116600       0.00089900      -0.00256400
Cu       1.27204000       8.76454000      13.57517000  T      -0.00095300       0.00133200       0.00132200
Cu       3.79195000       8.74865000      13.59188000  T      -0.00214000      -0.00012400       0.00083700
Cu       6.29752000       8.73061000      13.60255000  T      -0.00138000      -0.00094700       0.00088700
Cu       8.78176000       8.73477000      13.60196000  T       0.00086500       0.00165400      -0.00276400
Cu      11.27191000       8.74708000      13.59977000  T      -0.00015500       0.00082500      -0.00081300
Cu       1.24466000      11.26287000      13.59381000  T      -0.00050300       0.00032400      -0.00026400
Cu       3.73988000      11.26436000      13.56776000  T      -0.00102500       0.00018000       0.00069800
Cu       6.25399000      11.26608000      13.55710000  T       0.00137100      -0.00042900       0.00142500
Cu       8.76263000      11.26474000      13.56426000  T       0.00219200      -0.00000600       0.00211800
Cu      11.27011000      11.26384000      13.57644000  T       0.00184000       0.00038100       0.00074100
Cu      12.50843000       0.00943000      15.36846000  T       0.00064100      -0.00007400      -0.00243400
Cu       2.50709000      12.51895000      15.36242000  T      -0.00016900      -0.00018800      -0.00044600
Cu       5.00641000      12.48327000      15.34386000  T      -0.00001200      -0.00077000      -0.00178700
Cu       7.50918000      12.49481000      15.33668000  T       0.00109400      -0.00257900       0.00111100
Cu      10.00941000      12.49866000      15.35307000  T       0.00102900       0.00039100       0.00085900
Cu       0.08453000       2.51021000      15.35302000  T      -0.00140100       0.00069500      -0.00041600
Cu       2.54810000       2.50091000      15.34626000  T      -0.00231400       0.00214000       0.00216300
Cu       5.02104000       2.42226000      15.43541000  T      -0.00327100      -0.00134500       0.00226500
Cu       7.63114000       2.49921000      15.44594000  T      -0.00526400      -0.00340700      -0.00033100
Cu      10.13918000       2.46127000      15.46382000  T       0.00129900      -0.00036200       0.00054900
Cu      12.41729000       5.00572000      15.33260000  T      -0.00542100       0.00020000       0.00539100
Cu       2.29584000       5.00419000      15.42170000  T      -0.01635200       0.00040100       0.00274000
Pd       4.76189000       5.00934000      15.70891000  T      -0.02293400      -0.00076400       0.01164900
Y        7.48659000       5.00947000      17.25550000  T      -0.01136800      -0.00081000       0.01111800
Cu       9.93817000       5.00711000      15.44749000  T       0.00492300      -0.00045200      -0.00943700
Cu       0.08855000       7.50046000      15.35376000  T      -0.00290800      -0.00014000      -0.00074900
Cu       2.55183000       7.50621000      15.34576000  T      -0.00305500      -0.00091900       0.00214100
Cu       5.02309000       7.59498000      15.43227000  T      -0.00434000      -0.00004900       0.00321900
Cu       7.63764000       7.51853000      15.44336000  T      -0.00841900       0.00139400       0.00024200
Cu      10.14416000       7.55182000      15.46385000  T      -0.00084100       0.00117100       0.00019700
Cu      12.50844000      10.00318000      15.36818000  T       0.00122400       0.00055200      -0.00146400
Cu       2.50769000      10.00475000      15.36209000  T      -0.00030500       0.00068900      -0.00080700
Cu       5.00678000      10.04799000      15.34223000  T      -0.00022000      -0.00035000      -0.00126800
Cu       7.50926000      10.03593000      15.33550000  T       0.00103900       0.00152900       0.00146200
Cu      10.00894000      10.02791000      15.35276000  T       0.00185400       0.00048600       0.00040300
O        6.26432000       3.37859000      16.54194000  T      -0.00498800       0.00810200      -0.00093200
O        6.26999000       6.63721000      16.53167000  T      -0.00695600      -0.00782000       0.00265700
O        9.04820000       6.44188000      16.58569000  T      -0.01360700       0.00082100      -0.00120500
O        9.04341000       3.57373000      16.58374000  T      -0.01161400      -0.00159300      -0.00094000
C        4.07966000       5.00662000      17.61864000  T      -0.02582400       0.00067900       0.01088900
O        5.15762000       5.03043000      18.54217000  T      -0.01765100      -0.00855100       0.01430700
O        2.94653000       4.98380000      18.06505000  T      -0.02900300       0.00770700       0.01757400
H        4.74900000       5.02847000      19.43821000  T      -0.01359600      -0.00700700       0.00739400
108
Lattice="12.515153631 0.0 0.0 0.0 12.515153631 0.0 0.0 0.0 25.30973" Properties=species:S:1:pos:R:3:move_mask:L:1:forces:R:3 stress="0.007441638983626343 -3.719939439026422e-06 0.00029518593259952284 -3.719939439026422e-06 0.008258184415020022 1.7463742534221357e-05 0.00029518593259952284 1.7463742534221357e-05 0.0018781075450330276" free_energy=-444.98689137 energy=-444.9845218 pbc="T T T"
Cu       1.25152000       1.25152000      10.00000000  F      -0.00008400      -0.01423900      -0.07069100
Cu       3.75455000       1.25152000      10.00000000  F       0.00229700       0.00692400      -0.07361900
Cu       6.25758000       1.25152000      10.00000000  F       0.00169400       0.02622700      -0.05806500
Cu       8.76061000       1.25152000      10.00000000  F       0.00279500       0.01360500      -0.06190700
Cu      11.26364000       1.25152000      10.00000000  F      -0.00975800      -0.00584900      -0.07543500
Cu       1.25152000       3.75455000      10.00000000  F       0.00334500       0.01015800      -0.07411900
Cu       3.75455000       3.75455000      10.00000000  F       0.01333000      -0.01278000      -0.05356400
Cu       6.25758000       3.75455000      10.00000000  F      -0.00662900      -0.02421200      -0.08098500
Cu       8.76061000       3.75455000      10.00000000  F       0.00532500      -0.02080100      -0.08251100
Cu      11.26364000       3.75455000      10.00000000  F      -0.01362900       0.00345000      -0.05590400
Cu       1.25152000       6.25758000      10.00000000  F       0.00266700      -0.00884700      -0.07577900
Cu       3.75455000       6.25758000      10.00000000  F       0.01471800       0.01341700      -0.05434400
Cu       6.25758000       6.25758000      10.00000000  F      -0.00649300       0.02621800      -0.08459600
Cu       8.76061000       6.25758000      10.00000000  F       0.00385700       0.02139300      -0.08323000
Cu      11.26364000       6.25758000      10.00000000  F      -0.01304000      -0.00217900      -0.05739800
Cu       1.25152000       8.76061000      10.00000000  F       0.00016100       0.01080600      -0.06976100
Cu       3.75455000       8.76061000      10.00000000  F       0.00164000      -0.00923400      -0.07264200
Cu       6.25758000       8.76061000      10.00000000  F       0.00165000      -0.03044400      -0.05613300
Cu       8.76061000       8.76061000      10.00000000  F       0.00345900      -0.01589200      -0.06125600
Cu      11.26364000       8.76061000      10.00000000  F      -0.00992900       0.00259400      -0.07445000
Cu       1.25152000      11.26364000      10.00000000  F      -0.00268600       0.00173500      -0.01925700
Cu       3.75455000      11.26364000      10.00000000  F      -0.00779900       0.00136700      -0.06812400
Cu       6.25758000      11.26364000      10.00000000  F      -0.00626600       0.00186300      -0.07288700
Cu       8.76061000      11.26364000      10.00000000  F      -0.00020300       0.00134900      -0.06942400
Cu      11.26364000      11.26364000      10.00000000  F       0.00839000       0.00166500      -0.06813100
Cu       0.00000000       0.00000000      11.76991000  F      -0.01126900       0.03950000       0.07917700
Cu       2.50303000       0.00000000      11.76991000  F       0.04030600       0.03672900       0.04984100
Cu       5.00606000       0.00000000      11.76991000  F       0.05267200       0.10230700       0.05249800
Cu       7.50909000       0.00000000      11.76991000  F       0.02175200       0.07818600       0.05223900
Cu      10.01212000       0.00000000      11.76991000  F      -0.01262300       0.07846100       0.05888200
Cu       0.00000000       2.50303000      11.76991000  F      -0.06214800       0.03631300       0.06882200
Cu       2.50303000       2.50303000      11.76991000  F       0.07230200       0.03767000       0.06649800
Cu       5.00606000       2.50303000      11.76991000  F       0.00457900      -0.00231500       0.09336600
Cu       7.50909000       2.50303000      11.76991000  F      -0.03366600       0.01226900       0.08947500
Cu      10.01212000       2.50303000      11.76991000  F       0.06692900      -0.06980300      -0.00652400
Cu       0.00000000       5.00606000      11.76991000  F      -0.09037200       0.00042700       0.04092200
Cu       2.50303000       5.00606000      11.76991000  F       0.05833700      -0.00130600       0.03617600
Cu       5.00606000       5.00606000      11.76991000  F      -0.01835900       0.00148400       0.20824400
Cu       7.50909000       5.00606000      11.76991000  F      -0.05773100       0.00281800       0.12449500
Cu      10.01212000       5.00606000      11.76991000  F       0.04153400       0.00041100       0.00351500
Cu       0.00000000       7.50909000      11.76991000  F      -0.05950800      -0.04177600       0.06948400
Cu       2.50303000       7.50909000      11.76991000  F       0.07205100      -0.04130400       0.06503600
Cu       5.00606000       7.50909000      11.76991000  F       0.00859600       0.00063100       0.09349400
Cu       7.50909000       7.50909000      11.76991000  F      -0.03248200      -0.01390300       0.08953900
Cu      10.01212000       7.50909000      11.76991000  F       0.07161100       0.06872000      -0.00818200
Cu       0.00000000      10.01212000      11.76991000  F      -0.00953000      -0.03906100       0.07670700
Cu       2.50303000      10.01212000      11.76991000  F       0.04100500      -0.03611500       0.04988100
Cu       5.00606000      10.01212000      11.76991000  F       0.05336100      -0.09474100       0.05160300
Cu       7.50909000      10.01212000      11.76991000  F       0.02299400      -0.06893100       0.04993700
Cu      10.01212000      10.01212000      11.76991000  F      -0.01107800      -0.07424300       0.05655500
Cu       1.27110000       1.24525000      13.57499000  T      -0.00080500      -0.00067800       0.00165600
Cu       3.79154000       1.26406000      13.59288000  T      -0.00205300       0.00045300       0.00061200
Cu       6.29629000       1.28519000      13.60417000  T      -0.00103200       0.00023000       0.00056200
Cu       8.77999000       1.27930000      13.60344000  T       0.00074200      -0.00135400      -0.00236700
Cu      11.27027000       1.26514000      13.59982000  T      -0.00015500      -0.00042500      -0.00067900
Cu       1.24554000       3.75715000      13.56753000  T      -0.00314900      -0.00032000       0.00072500
Cu       3.76449000       3.76852000      13.60578000  T      -0.00216400       0.00087300       0.00073000
Cu       6.25622000       3.78690000      13.60108000  T      -0.00102300       0.00115400       0.00007300
Cu       8.74505000       3.76797000      13.55170000  T      -0.00284200       0.00043800      -0.00450400
Cu      11.22290000       3.75782000      13.59806000  T      -0.00079900      -0.00083300      -0.00232600
Cu       1.24643000       6.25311000      13.56749000  T      -0.00345500       0.00059800       0.00109800
Cu       3.76583000       6.24284000      13.60386000  T      -0.00264000      -0.00054900       0.00123800
Cu       6.25815000       6.22734000      13.60095000  T      -0.00148200      -0.00172700       0.00016300
Cu       8.74686000       6.24479000      13.55101000  T      -0.00321300      -0.00107500      -0.00412600
Cu      11.22440000       6.25443000      13.59769000  T      -0.00130800       0.00083700      -0.00188900
Cu       1.27200000       8.76459000      13.57524000  T      -0.00093900       0.00097400       0.00129500
Cu       3.79186000       8.74865000      13.59194000  T      -0.00204100      -0.00031000       0.00097300
Cu       6.29746000       8.73058000      13.60261000  T      -0.00130500      -0.00101900       0.00125800
Cu       8.78179000       8.73484000      13.60186000  T       0.00030400       0.00109400      -0.00154500
Cu      11.27190000       8.74712000      13.59975000  T      -0.00028700       0.00075800      -0.00046100
Cu       1.24464000      11.26288000      13.59382000  T      -0.00027200       0.00028800      -0.00027300
Cu       3.73983000      11.26436000      13.56781000  T      -0.00073600       0.00013700       0.00056900
Cu       6.25404000      11.26606000      13.55718000  T       0.00136600      -0.00046600       0.00120900
Cu       8.76271000      11.26474000      13.56437000  T       0.00206300      -0.00002100       0.00198900
Cu      11.27018000      11.26385000      13.57649000  T       0.00141800       0.00034100       0.00073600
Cu      12.50845000       0.00942000      15.36840000  T       0.00049900       0.00007300      -0.00183000
Cu       2.50708000      12.51894000      15.36244000  T      -0.00015600       0.00000800      -0.00009400
Cu       5.00641000      12.48323000      15.34382000  T       0.00012400      -0.00064400      -0.00163100
Cu       7.50921000      12.49470000      15.33675000  T       0.00118700      -0.00195400       0.00108600
Cu      10.00945000      12.49868000      15.35313000  T       0.00104700       0.00057700       0.00106500
Cu       0.08447000       2.51023000      15.35302000  T      -0.00178500       0.00068500      -0.00018800
Cu       2.54800000       2.50099000      15.34636000  T      -0.00221500       0.00232700       0.00217200
Cu       5.02091000       2.42221000      15.43553000  T      -0.00299500      -0.00069600       0.00234600
Cu       7.63092000       2.49908000      15.44594000  T      -0.00488000      -0.00218600       0.00010200
Cu      10.13922000       2.46126000      15.46386000  T      -0.00074600       0.00103200       0.00139000
Cu      12.41709000       5.00573000      15.33284000  T      -0.00677600       0.00019000       0.00487100
Cu       2.29522000       5.00421000      15.42183000  T      -0.01593500       0.00042600       0.00288000
Pd       4.76093000       5.00930000      15.70942000  T      -0.02108400      -0.00049500       0.01110700
Y        7.48611000       5.00943000      17.25594000  T      -0.00694500      -0.00110400       0.00571000
Cu       9.93836000       5.00709000      15.44714000  T       0.00065100      -0.00030500      -0.00618600
Cu       0.08843000       7.50045000      15.35375000  T      -0.00334800      -0.00011000      -0.00052100
Cu       2.55170000       7.50618000      15.34587000  T      -0.00316400      -0.00108200       0.00214300
Cu       5.02291000       7.59498000      15.43241000  T      -0.00401000      -0.00074900       0.00334600
Cu       7.63730000       7.51859000      15.44338000  T      -0.00764700       0.00016800       0.00053200
Cu      10.14411000       7.55186000      15.46388000  T      -0.00313500      -0.00046100       0.00117600
Cu      12.50849000      10.00320000      15.36815000  T       0.00105900       0.00043900      -0.00103100
Cu       2.50768000      10.00477000      15.36208000  T      -0.00027700       0.00058100      -0.00045100
Cu       5.00676000      10.04798000      15.34221000  T      -0.00008000      -0.00048300      -0.00109400
Cu       7.50929000      10.03599000      15.33558000  T       0.00121700       0.00084400       0.00143000
Cu      10.00901000      10.02793000      15.35281000  T       0.00183400       0.00041200       0.00065400
O        6.26411000       3.37888000      16.54191000  T      -0.00638200       0.00629300      -0.00181400
O        6.26970000       6.63693000      16.53178000  T      -0.00815800      -0.00631800       0.00184900
O        9.04766000       6.44193000      16.58566000  T      -0.01137200       0.00075800      -0.00389700
O        9.04295000       3.57365000      16.58372000  T      -0.00948100      -0.00148400      -0.00351700
C        4.07854000       5.00664000      17.61912000  T      -0.01998700       0.00035300       0.00997200
O        5.15694000       5.03009000      18.54259000  T      -0.01920200      -0.00806200       0.00655200
O        2.94553000       4.98410000      18.06568000  T      -0.02536100       0.00770300       0.01675800
H        4.74842000       5.02818000      19.43857000  T      -0.01476600      -0.00685300       0.01092600
108
Lattice="12.515153631 0.0 0.0 0.0 12.515153631 0.0 0.0 0.0 25.30973" Properties=species:S:1:pos:R:3:move_mask:L:1:forces:R:3 stress="0.007415455852843263 -3.145720599445162e-06 0.00029051728377336213 -3.145720599445162e-06 0.008230915261649036 1.739508593383664e-05 0.00029051728377336213 1.739508593383664e-05 0.001838848452631222" free_energy=-444.98600191 energy=-444.98362599 pbc="T T T"
Cu       1.25152000       1.25152000      10.00000000  F       0.00102400      -0.01347700      -0.07123700
Cu       3.75455000       1.25152000      10.00000000  F       0.00328800       0.00766100      -0.07372600
Cu       6.25758000       1.25152000      10.00000000  F       0.00221300       0.02699400      -0.05807400
Cu       8.76061000       1.25152000      10.00000000  F       0.00297100       0.01440100      -0.06234400
Cu      11.26364000       1.25152000      10.00000000  F      -0.00917900      -0.00507700      -0.07619200
Cu       1.25152000       3.75455000      10.00000000  F       0.00444000       0.01060900      -0.07411100
Cu       3.75455000       3.75455000      10.00000000  F       0.01436800      -0.01230300      -0.05319000
Cu       6.25758000       3.75455000      10.00000000  F      -0.00609500      -0.02370600      -0.08058000
Cu       8.76061000       3.75455000      10.00000000  F       0.00550300      -0.02029600      -0.08240100
Cu      11.26364000       3.75455000      10.00000000  F      -0.01312400       0.00395700      -0.05610200
Cu       1.25152000       6.25758000      10.00000000  F       0.00376200      -0.00919600      -0.07576500
Cu       3.75455000       6.25758000      10.00000000  F       0.01576200       0.01305200      -0.05395900
Cu       6.25758000       6.25758000      10.00000000  F      -0.00595400       0.02584000      -0.08416400
Cu       8.76061000       6.25758000      10.00000000  F       0.00403200       0.02102000      -0.08308600
Cu      11.26364000       6.25758000      10.00000000  F      -0.01254500      -0.00257400      -0.05758300
Cu       1.25152000       8.76061000      10.00000000  F       0.00126600       0.01013300      -0.07030300
Cu       3.75455000       8.76061000      10.00000000  F       0.00265100      -0.00988600      -0.07274000
Cu       6.25758000       8.76061000      10.00000000  F       0.00218100      -0.03113000      -0.05611400
Cu       8.76061000       8.76061000      10.00000000  F       0.00362500      -0.01661000      -0.06166000
Cu      11.26364000       8.76061000      10.00000000  F      -0.00936900       0.00190700      -0.07518900
Cu       1.25152000      11.26364000      10.00000000  F      -0.00159300       0.00177800      -0.01999700
Cu       3.75455000      11.26364000      10.00000000  F      -0.00677400       0.00140400      -0.06853300
Cu       6.25758000      11.26364000      10.00000000  F      -0.00578500       0.00188800      -0.07324800
Cu       8.76061000      11.26364000      10.00000000  F      -0.00000800       0.00137100      -0.07019000
Cu      11.26364000      11.26364000      10.00000000  F       0.00895400       0.00169900      -0.06913700
Cu       0.00000000       0.00000000      11.76991000  F      -0.01023700       0.04010600       0.07830100
Cu       2.50303000       0.00000000      11.76991000  F       0.04156300       0.03727100       0.04929800
Cu       5.00606000       0.00000000      11.76991000  F       0.05339400       0.10291300       0.05220100
Cu       7.50909000       0.00000000      11.76991000  F       0.02182700       0.07873100       0.05167400
Cu      10.01212000       0.00000000      11.76991000  F      -0.01233300       0.07902000       0.05792000
Cu       0.00000000       2.50303000      11.76991000  F      -0.06120500       0.03721100       0.06784900
Cu       2.50303000       2.50303000      11.76991000  F       0.07352900       0.03850200       0.06590600
Cu       5.00606000       2.50303000      11.76991000  F       0.00532200      -0.00141900       0.09297500
Cu       7.50909000       2.50303000      11.76991000  F      -0.03361200       0.01315200       0.08864400
Cu      10.01212000       2.50303000      11.76991000  F       0.06714700      -0.06884200      -0.00766300
Cu       0.00000000       5.00606000      11.76991000  F      -0.08945900       0.00047800       0.03983800
Cu       2.50303000       5.00606000      11.76991000  F       0.05950300      -0.00125200       0.03559700
Cu       5.00606000       5.00606000      11.76991000  F      -0.01754100       0.00155300       0.20775500
Cu       7.50909000       5.00606000      11.76991000  F      -0.05778100       0.00289000       0.12353900
Cu      10.01212000       5.00606000      11.76991000  F       0.04177600       0.00048000       0.00224400
Cu       0.00000000       7.50909000      11.76991000  F      -0.05860800      -0.04258600       0.06852400
Cu       2.50303000       7.50909000      11.76991000  F       0.07329100      -0.04205000       0.06444600
Cu       5.00606000       7.50909000      11.76991000  F       0.00936300      -0.00017300       0.09310200
Cu       7.50909000       7.50909000      11.76991000  F      -0.03241600      -0.01468100       0.08874100
Cu      10.01212000       7.50909000      11.76991000  F       0.07178000       0.06786100      -0.00928000
Cu       0.00000000      10.01212000      11.76991000  F      -0.00852300      -0.03955300       0.07583500
Cu       2.50303000      10.01212000      11.76991000  F       0.04227800      -0.03654000       0.04934000
Cu       5.00606000      10.01212000      11.76991000  F       0.05410000      -0.09528800       0.05130800
Cu       7.50909000      10.01212000      11.76991000  F       0.02307200      -0.06945400       0.04939000
Cu      10.01212000      10.01212000      11.76991000  F      -0.01081600      -0.07474400       0.05561800
Cu       1.27108000       1.24523000      13.57503000  T       0.00063300       0.00005700       0.00137300
Cu       3.79151000       1.26407000      13.59290000  T      -0.00102200       0.00128200       0.00048800
Cu       6.29626000       1.28520000      13.60419000  T      -0.00088100       0.00110000       0.00053400
Cu       8.78000000       1.27927000      13.60339000  T       0.00052400      -0.00055300      -0.00286300
Cu      11.27027000       1.26513000      13.59981000  T       0.00037100       0.00041100      -0.00116500
Cu       1.24549000       3.75715000      13.56755000  T      -0.00196200       0.00009600       0.00006600
Cu       3.76445000       3.76853000      13.60579000  T      -0.00113900       0.00133900       0.00028400
Cu       6.25620000       3.78692000      13.60108000  T      -0.00091200       0.00160400      -0.00049500
Cu       8.74499000       3.76798000      13.55161000  T      -0.00321700       0.00088100      -0.00546000
Cu      11.22288000       3.75781000      13.59801000  T      -0.00044400      -0.00027500      -0.00305500
Cu       1.24637000       6.25312000      13.56751000  T      -0.00231300       0.00029100       0.00044800
Cu       3.76578000       6.24283000      13.60388000  T      -0.00163700      -0.00088900       0.00083500
Cu       6.25812000       6.22731000      13.60095000  T      -0.00141300      -0.00210700      -0.00039100
Cu       8.74680000       6.24477000      13.55093000  T      -0.00364500      -0.00145100      -0.00505700
Cu      11.22438000       6.25444000      13.59765000  T      -0.00103300       0.00040600      -0.00258400
Cu       1.27199000       8.76461000      13.57527000  T       0.00045700       0.00038100       0.00098500
Cu       3.79182000       8.74865000      13.59196000  T      -0.00097600      -0.00103900       0.00086400
Cu       6.29743000       8.73056000      13.60263000  T      -0.00115900      -0.00189000       0.00127400
Cu       8.78180000       8.73487000      13.60183000  T       0.00003600       0.00033300      -0.00198200
Cu      11.27190000       8.74713000      13.59975000  T       0.00017200       0.00005000      -0.00092900
Cu       1.24464000      11.26289000      13.59382000  T       0.00116700       0.00037000      -0.00051600
Cu       3.73982000      11.26437000      13.56783000  T       0.00042000       0.00019100       0.00052600
Cu       6.25406000      11.26605000      13.55721000  T       0.00158600      -0.00049100       0.00109200
Cu       8.76275000      11.26474000      13.56441000  T       0.00214100      -0.00001000       0.00181400
Cu      11.27021000      11.26386000      13.57651000  T       0.00220800       0.00040700       0.00036300
Cu      12.50847000       0.00943000      15.36837000  T       0.00164800       0.00049000      -0.00100800
Cu       2.50708000      12.51894000      15.36244000  T       0.00125200       0.00046700       0.00035900
Cu       5.00641000      12.48322000      15.34379000  T       0.00082900      -0.00025200      -0.00159700
Cu       7.50923000      12.49467000      15.33678000  T       0.00121000      -0.00159400       0.00158500
Cu      10.00947000      12.49869000      15.35316000  T       0.00137300       0.00104900       0.00200200
Cu       0.08444000       2.51025000      15.35302000  T      -0.00091900       0.00128500       0.00020600
Cu       2.54796000       2.50104000      15.34641000  T      -0.00090600       0.00308600       0.00229400
Cu       5.02085000       2.42219000      15.43557000  T      -0.00232800      -0.00011000       0.00235000
Cu       7.63082000       2.49904000      15.44594000  T      -0.00548500      -0.00171700      -0.00008200
Cu      10.13921000       2.46128000      15.46389000  T      -0.00028000       0.00128300       0.00136500
Cu      12.41697000       5.00573000      15.33293000  T      -0.00670800       0.00024400       0.00513000
Cu       2.29492000       5.00421000      15.42189000  T      -0.01567200       0.00050300       0.00335700
Pd       4.76050000       5.00929000      15.70964000  T      -0.06524300      -0.00208600       0.03354300
Y        7.48596000       5.00941000      17.25607000  T      -0.01567000      -0.00198800       0.01078200
Cu       9.93839000       5.00709000      15.44702000  T       0.00082400      -0.00026100      -0.00718900
Cu       0.08837000       7.50045000      15.35374000  T      -0.00265100      -0.00055800      -0.00015900
Cu       2.55165000       7.50616000      15.34591000  T      -0.00196100      -0.00164400       0.00225300
Cu       5.02283000       7.59497000      15.43248000  T      -0.00333300      -0.00130300       0.00340500
Cu       7.63715000       7.51859000      15.44339000  T      -0.00851600      -0.00038900       0.00042600
Cu      10.14406000       7.55186000      15.46390000  T      -0.00288900      -0.00062500       0.00113200
Cu      12.50851000      10.00320000      15.36814000  T       0.00226600       0.00017700      -0.00014300
Cu       2.50768000      10.00479000      15.36208000  T       0.00112900       0.00029900      -0.00001500
Cu       5.00676000      10.04797000      15.34220000  T       0.00062200      -0.00083600      -0.00104200
Cu       7.50931000      10.03601000      15.33562000  T       0.00125000       0.00044500       0.00194800
Cu      10.00905000      10.02794000      15.35283000  T       0.00222800       0.00010700       0.00155800
O        6.26399000       3.37900000      16.54188000  T      -0.00696600       0.00508700      -0.00259200
O        6.26955000       6.63681000      16.53181000  T      -0.00864700      -0.00526900       0.00101900
O        9.04744000       6.44194000      16.58560000  T      -0.01147800      -0.00042100      -0.00281500
O        9.04276000       3.57362000      16.58366000  T      -0.00964500      -0.00024400      -0.00232200
C        4.07811000       5.00665000      17.61932000  T      -0.02424900       0.00012500       0.01491700
O        5.15657000       5.02993000      18.54273000  T      -0.02086400      -0.00810800       0.00406300
O        2.94506000       4.98425000      18.06598000  T      -0.02483200       0.00635700       0.01508600
H        4.74814000       5.02805000      19.43877000  T      -0.01437300      -0.00713900       0.01026200
108
Lattice="12.515153631 0.0 0.0 0.0 12.515153631 0.0 0.0 0.0 25.30973" Properties=species:S:1:pos:R:3:move_mask:L:1:forces:R:3 stress="0.007435222712244935 -3.201894181578111e-06 0.00029737046079358193 -3.201894181578111e-06 0.00825319744922844 1.7432534988591942e-05 0.00029737046079358193 1.7432534988591942e-05 0.0018713604736679478" free_energy=-444.98709204 energy=-444.98472249 pbc="T T T"
Cu       1.25152000       1.25152000      10.00000000  F       0.00065500      -0.01413000      -0.07092900
Cu       3.75455000       1.25152000      10.00000000  F       0.00299800       0.00704200      -0.07383200
Cu       6.25758000       1.25152000      10.00000000  F       0.00231600       0.02634200      -0.05829000
Cu       8.76061000       1.25152000      10.00000000  F       0.00334100       0.01371700      -0.06217600
Cu      11.26364000       1.25152000      10.00000000  F      -0.00912300      -0.00574500      -0.07572700
Cu       1.25152000       3.75455000      10.00000000  F       0.00409300       0.01024600      -0.07434500
Cu       3.75455000       3.75455000      10.00000000  F       0.01404600      -0.01267400      -0.05376800
Cu       6.25758000       3.75455000      10.00000000  F      -0.00601800      -0.02410200      -0.08116600
Cu       8.76061000       3.75455000      10.00000000  F       0.00587300      -0.02070300      -0.08272400
Cu      11.26364000       3.75455000      10.00000000  F      -0.01300200       0.00353700      -0.05615700
Cu       1.25152000       6.25758000      10.00000000  F       0.00341500      -0.00882000      -0.07597800
Cu       3.75455000       6.25758000      10.00000000  F       0.01542900       0.01342800      -0.05453400
Cu       6.25758000       6.25758000      10.00000000  F      -0.00588500       0.02621700      -0.08476800
Cu       8.76061000       6.25758000      10.00000000  F       0.00440600       0.02140300      -0.08342900
Cu      11.26364000       6.25758000      10.00000000  F      -0.01240800      -0.00215400      -0.05763000
Cu       1.25152000       8.76061000      10.00000000  F       0.00090100       0.01077100      -0.06994800
Cu       3.75455000       8.76061000      10.00000000  F       0.00234100      -0.00927800      -0.07283600
Cu       6.25758000       8.76061000      10.00000000  F       0.00226600      -0.03048200      -0.05634600
Cu       8.76061000       8.76061000      10.00000000  F       0.00400800      -0.01592800      -0.06151500
Cu      11.26364000       8.76061000      10.00000000  F      -0.00929000       0.00256500      -0.07471600
Cu       1.25152000      11.26364000      10.00000000  F      -0.00196100       0.00176000      -0.01949000
Cu       3.75455000      11.26364000      10.00000000  F      -0.00709800       0.00138900      -0.06831300
Cu       6.25758000      11.26364000      10.00000000  F      -0.00564200       0.00189100      -0.07315500
Cu       8.76061000      11.26364000      10.00000000  F       0.00035200       0.00137500      -0.06973200
Cu      11.26364000      11.26364000      10.00000000  F       0.00903500       0.00168800      -0.06842800
Cu       0.00000000       0.00000000      11.76991000  F      -0.01056000       0.03961800       0.07887800
Cu       2.50303000       0.00000000      11.76991000  F       0.04108500       0.03682600       0.04948500
Cu       5.00606000       0.00000000      11.76991000  F       0.05331300       0.10246500       0.05203600
Cu       7.50909000       0.00000000      11.76991000  F       0.02231900       0.07839900       0.05182600
Cu      10.01212000       0.00000000      11.76991000  F      -0.01205300       0.07868600       0.05859600
Cu       0.00000000       2.50303000      11.76991000  F      -0.06147200       0.03653300       0.06851700
Cu       2.50303000       2.50303000      11.76991000  F       0.07312300       0.03779100       0.06600400
Cu       5.00606000       2.50303000      11.76991000  F       0.00531300      -0.00218200       0.09285800
Cu       7.50909000       2.50303000      11.76991000  F      -0.03293700       0.01251000       0.08914400
Cu      10.01212000       2.50303000      11.76991000  F       0.06748600      -0.06957400      -0.00673700
Cu       0.00000000       5.00606000      11.76991000  F      -0.08967000       0.00045800       0.04063800
Cu       2.50303000       5.00606000      11.76991000  F       0.05915200      -0.00127100       0.03560600
Cu       5.00606000       5.00606000      11.76991000  F      -0.01758900       0.00153400       0.20776900
Cu       7.50909000       5.00606000      11.76991000  F      -0.05694700       0.00287300       0.12437100
Cu      10.01212000       5.00606000      11.76991000  F       0.04209700       0.00045400       0.00332300
Cu       0.00000000       7.50909000      11.76991000  F      -0.05881300      -0.04190400       0.06916600
Cu       2.50303000       7.50909000      11.76991000  F       0.07288100      -0.04133400       0.06453400
Cu       5.00606000       7.50909000      11.76991000  F       0.00934400       0.00058200       0.09296400
Cu       7.50909000       7.50909000      11.76991000  F      -0.03176000      -0.01405200       0.08917500
Cu      10.01212000       7.50909000      11.76991000  F       0.07217900       0.06857500      -0.00843400
Cu       0.00000000      10.01212000      11.76991000  F      -0.00880500      -0.03910700       0.07640200
Cu       2.50303000      10.01212000      11.76991000  F       0.04177800      -0.03614100       0.04952000
Cu       5.00606000      10.01212000      11.76991000  F       0.05400800      -0.09479900       0.05113300
Cu       7.50909000      10.01212000      11.76991000  F       0.02355800      -0.06903400       0.04950600
Cu      10.01212000      10.01212000      11.76991000  F      -0.01050500      -0.07437800       0.05624200
Cu       1.27113000       1.24528000      13.57496000  T      -0.00085400      -0.00155500       0.00275000
Cu       3.79159000       1.26408000      13.59286000  T      -0.00265700       0.00011400       0.00096200
Cu       6.29630000       1.28521000      13.60415000  T      -0.00094300      -0.00000500       0.00080600
Cu       8.77997000       1.27934000      13.60347000  T       0.00206600      -0.00242800      -0.00373700
Cu      11.27027000       1.26517000      13.59982000  T       0.00051600      -0.00099600      -0.00096600
Cu       1.24560000       3.75717000      13.56751000  T      -0.00420300      -0.00081100       0.00105200
Cu       3.76454000       3.76852000      13.60575000  T      -0.00266200       0.00096100       0.00057800
Cu       6.25622000       3.78690000      13.60107000  T      -0.00046900       0.00162300      -0.00023000
Cu       8.74507000       3.76798000      13.55176000  T      -0.00324800       0.00086800      -0.00687700
Cu      11.22290000       3.75785000      13.59808000  T      -0.00034700      -0.00143700      -0.00343800
Cu       1.24649000       6.25309000      13.56746000  T      -0.00461200       0.00122600       0.00161900
Cu       3.76588000       6.24283000      13.60383000  T      -0.00332200      -0.00042300       0.00127100
Cu       6.25817000       6.22735000      13.60094000  T      -0.00106300      -0.00234000      -0.00010900
Cu       8.74688000       6.24480000      13.55107000  T      -0.00371400      -0.00164800      -0.00633700
Cu      11.22441000       6.25440000      13.59771000  T      -0.00104700       0.00148500      -0.00284200
Cu       1.27204000       8.76456000      13.57521000  T      -0.00100200       0.00199900       0.00213300
Cu       3.79191000       8.74863000      13.59191000  T      -0.00263600       0.00014600       0.00149700
Cu       6.29747000       8.73057000      13.60258000  T      -0.00129000      -0.00100300       0.00178900
Cu       8.78177000       8.73480000      13.60188000  T       0.00151900       0.00222200      -0.00259500
Cu      11.27190000       8.74708000      13.59975000  T       0.00035300       0.00150200      -0.00063600
Cu       1.24466000      11.26288000      13.59381000  T      -0.00009900       0.00045800      -0.00006500
Cu       3.73986000      11.26436000      13.56779000  T      -0.00091300       0.00023100       0.00122400
Cu       6.25401000      11.26607000      13.55715000  T       0.00252300      -0.00062000       0.00216800
Cu       8.76267000      11.26474000      13.56433000  T       0.00380500       0.00001500       0.00324900
Cu      11.27016000      11.26385000      13.57647000  T       0.00288800       0.00052200       0.00145000
Cu      12.50845000       0.00943000      15.36844000  T       0.00125400      -0.00000700      -0.00310900
Cu       2.50710000      12.51896000      15.36244000  T       0.00018800      -0.00023000      -0.00041800
Cu       5.00641000      12.48325000      15.34383000  T       0.00062100      -0.00113400      -0.00236900
Cu       7.50919000      12.49474000      15.33673000  T       0.00227800      -0.00307800       0.00144300
Cu      10.00943000      12.49868000      15.35313000  T       0.00209100       0.00066300       0.00118900
Cu       0.08450000       2.51024000      15.35303000  T      -0.00186700       0.00080200      -0.00055800
Cu       2.54805000       2.50099000      15.34633000  T      -0.00269900       0.00290100       0.00295000
Cu       5.02096000       2.42224000      15.43549000  T      -0.00390200      -0.00171000       0.00301100
Cu       7.63097000       2.49913000      15.44594000  T      -0.00604000      -0.00349300      -0.00008500
Cu      10.13922000       2.46127000      15.46385000  T       0.00013100       0.00104300       0.00158100
Cu      12.41717000       5.00573000      15.33276000  T      -0.00810200       0.00031600       0.00686900
Cu       2.29540000       5.00420000      15.42178000  T      -0.02255200       0.00057600       0.00368300
Pd       4.76069000       5.00930000      15.70953000  T      -0.02693400      -0.00098200       0.01518000
Y        7.48613000       5.00943000      17.25588000  T      -0.01731500      -0.00182100       0.01168500
Cu       9.93834000       5.00710000      15.44722000  T       0.00320200      -0.00044600      -0.00967000
Cu       0.08848000       7.50044000      15.35376000  T      -0.00397200       0.00006100      -0.00104100
Cu       2.55177000       7.50617000      15.34583000  T      -0.00392300      -0.00115100       0.00289800
Cu       5.02298000       7.59496000      15.43236000  T      -0.00532400      -0.00021000       0.00431200
Cu       7.63740000       7.51856000      15.44337000  T      -0.01009400       0.00080900       0.00063900
Cu      10.14415000       7.55185000      15.46387000  T      -0.00301700      -0.00012200       0.00123600
Cu      12.50848000      10.00318000      15.36818000  T       0.00201800       0.00075300      -0.00187100
Cu       2.50770000      10.00476000      15.36209000  T      -0.00001200       0.00103300      -0.00092600
Cu       5.00677000      10.04798000      15.34222000  T       0.00033500      -0.00029800      -0.00162600
Cu       7.50927000      10.03597000      15.33556000  T       0.00225500       0.00167600       0.00196400
Cu      10.00898000      10.02791000      15.35281000  T       0.00321500       0.00067700       0.00059200
O        6.26415000       3.37877000      16.54192000  T      -0.00620800       0.00795900      -0.00146800
O        6.26978000       6.63703000      16.53173000  T      -0.00821700      -0.00802600       0.00291400
O        9.04784000       6.44189000      16.58571000  T      -0.01448000       0.00048700      -0.00354400
O        9.04310000       3.57370000      16.58377000  T      -0.01202500      -0.00149400      -0.00328900
C        4.07881000       5.00663000      17.61907000  T      -0.01755700       0.00039800       0.00874900
O        5.15713000       5.03020000      18.54235000  T      -0.02315400      -0.00906000       0.01250500
O        2.94584000       4.98395000      18.06544000  T      -0.03848200       0.00724900       0.02301100
H        4.74858000       5.02825000      19.43846000  T      -0.01187500      -0.00713100       0.00625800
108
Lattice="12.515153631 0.0 0.0 0.0 12.515153631 0.0 0.0 0.0 25.30973" Properties=species:S:1:pos:R:3:move_mask:L:1:forces:R:3 stress="0.007447218892784882 -3.8135620759146706e-06 0.0002941935326485074 -3.8135620759146706e-06 0.008276896459379419 1.7126701041423658e-05 0.0002941935326485074 1.7126701041423658e-05 0.0018798489260791493" free_energy=-444.98659821 energy=-444.98422804 pbc="T T T"
Cu       1.25152000       1.25152000      10.00000000  F       0.00041400      -0.01397900      -0.07092300
Cu       3.75455000       1.25152000      10.00000000  F       0.00256200       0.00720600      -0.07372200
Cu       6.25758000       1.25152000      10.00000000  F       0.00158500       0.02651400      -0.05818600
Cu       8.76061000       1.25152000      10.00000000  F       0.00268900       0.01388500      -0.06218500
Cu      11.26364000       1.25152000      10.00000000  F      -0.00952100      -0.00555500      -0.07574900
Cu       1.25152000       3.75455000      10.00000000  F       0.00383300       0.01033500      -0.07421600
Cu       3.75455000       3.75455000      10.00000000  F       0.01360100      -0.01260100      -0.05361600
Cu       6.25758000       3.75455000      10.00000000  F      -0.00671100      -0.02402900      -0.08110400
Cu       8.76061000       3.75455000      10.00000000  F       0.00520900      -0.02062900      -0.08266000
Cu      11.26364000       3.75455000      10.00000000  F      -0.01340200       0.00358900      -0.05607600
Cu       1.25152000       6.25758000      10.00000000  F       0.00315600      -0.00900500      -0.07586800
Cu       3.75455000       6.25758000      10.00000000  F       0.01499000       0.01326100      -0.05437800
Cu       6.25758000       6.25758000      10.00000000  F      -0.00657800       0.02605800      -0.08468600
Cu       8.76061000       6.25758000      10.00000000  F       0.00374200       0.02124200      -0.08335700
Cu      11.26364000       6.25758000      10.00000000  F      -0.01281200      -0.00230200      -0.05755800
Cu       1.25152000       8.76061000      10.00000000  F       0.00066000       0.01054300      -0.06998500
Cu       3.75455000       8.76061000      10.00000000  F       0.00191500      -0.00952000      -0.07273300
Cu       6.25758000       8.76061000      10.00000000  F       0.00153600      -0.03073300      -0.05623800
Cu       8.76061000       8.76061000      10.00000000  F       0.00334900      -0.01617700      -0.06151500
Cu      11.26364000       8.76061000      10.00000000  F      -0.00969600       0.00229900      -0.07475500
Cu       1.25152000      11.26364000      10.00000000  F      -0.00221200       0.00172500      -0.01952300
Cu       3.75455000      11.26364000      10.00000000  F      -0.00752200       0.00135300      -0.06830300
Cu       6.25758000      11.26364000      10.00000000  F      -0.00631200       0.00184800      -0.07317900
Cu       8.76061000      11.26364000      10.00000000  F      -0.00033900       0.00133600      -0.06984000
Cu      11.26364000      11.26364000      10.00000000  F       0.00862900       0.00165400      -0.06854900
Cu       0.00000000       0.00000000      11.76991000  F      -0.01076200       0.03975400       0.07915800
Cu       2.50303000       0.00000000      11.76991000  F       0.04081300       0.03699100       0.04988400
Cu       5.00606000       0.00000000      11.76991000  F       0.05277100       0.10255300       0.05259700
Cu       7.50909000       0.00000000      11.76991000  F       0.02148300       0.07844600       0.05229400
Cu      10.01212000       0.00000000      11.76991000  F      -0.01249500       0.07850900       0.05880600
Cu       0.00000000       2.50303000      11.76991000  F      -0.06156100       0.03662100       0.06865000
Cu       2.50303000       2.50303000      11.76991000  F       0.07264100       0.03796000       0.06633500
Cu       5.00606000       2.50303000      11.76991000  F       0.00463900      -0.00196300       0.09327500
Cu       7.50909000       2.50303000      11.76991000  F      -0.03386500       0.01247600       0.08908700
Cu      10.01212000       2.50303000      11.76991000  F       0.06694900      -0.06940600      -0.00682900
Cu       0.00000000       5.00606000      11.76991000  F      -0.08985700       0.00045000       0.04067800
Cu       2.50303000       5.00606000      11.76991000  F       0.05863100      -0.00127900       0.03591100
Cu       5.00606000       5.00606000      11.76991000  F      -0.01832100       0.00151400       0.20828500
Cu       7.50909000       5.00606000      11.76991000  F      -0.05826500       0.00283800       0.12378900
Cu      10.01212000       5.00606000      11.76991000  F       0.04169200       0.00043400       0.00299600
Cu       0.00000000       7.50909000      11.76991000  F      -0.05894600      -0.04207600       0.06933200
Cu       2.50303000       7.50909000      11.76991000  F       0.07240500      -0.04158600       0.06489400
Cu       5.00606000       7.50909000      11.76991000  F       0.00864700       0.00028000       0.09343700
Cu       7.50909000       7.50909000      11.76991000  F      -0.03267900      -0.01409900       0.08919300
Cu      10.01212000       7.50909000      11.76991000  F       0.07160100       0.06833100      -0.00843300
Cu       0.00000000      10.01212000      11.76991000  F      -0.00903900      -0.03928400       0.07669700
Cu       2.50303000      10.01212000      11.76991000  F       0.04152800      -0.03635400       0.04993300
Cu       5.00606000      10.01212000      11.76991000  F       0.05346000      -0.09500100       0.05171100
Cu       7.50909000      10.01212000      11.76991000  F       0.02272200      -0.06922800       0.05001600
Cu      10.01212000      10.01212000      11.76991000  F      -0.01096000      -0.07428700       0.05650600
Cu       1.27116000       1.24530000      13.57500000  T      -0.00055800      -0.00072700       0.00245100
Cu       3.79157000       1.26415000      13.59287000  T      -0.00230200       0.00043800       0.00102300
Cu       6.29626000       1.28528000      13.60416000  T      -0.00130200       0.00017200       0.00097200
Cu       8.77997000       1.27935000      13.60336000  T       0.00094400      -0.00150000      -0.00188000
Cu      11.27028000       1.26521000      13.59978000  T       0.00017400      -0.00058400      -0.00017000
Cu       1.24557000       3.75719000      13.56751000  T      -0.00359100      -0.00053100       0.00068300
Cu       3.76453000       3.76858000      13.60573000  T      -0.00223300       0.00107800       0.00029400
Cu       6.25620000       3.78698000      13.60103000  T      -0.00202300       0.00121800       0.00096900
Cu       8.74494000       3.76805000      13.55156000  T      -0.00308800       0.00008100      -0.00419100
Cu      11.22289000       3.75786000      13.59798000  T      -0.00054200      -0.00108100      -0.00232900
Cu       1.24645000       6.25309000      13.56748000  T      -0.00398400       0.00086500       0.00107900
Cu       3.76585000       6.24278000      13.60383000  T      -0.00271600      -0.00074800       0.00095500
Cu       6.25813000       6.22726000      13.60091000  T      -0.00259100      -0.00188300       0.00109300
Cu       8.74675000       6.24471000      13.55088000  T      -0.00348900      -0.00080000      -0.00374700
Cu      11.22439000       6.25440000      13.59762000  T      -0.00116500       0.00111500      -0.00184600
Cu       1.27207000       8.76455000      13.57524000  T      -0.00074900       0.00110700       0.00202500
Cu       3.79189000       8.74858000      13.59193000  T      -0.00226100      -0.00030000       0.00139700
Cu       6.29743000       8.73049000      13.60260000  T      -0.00164900      -0.00111100       0.00173100
Cu       8.78176000       8.73480000      13.60179000  T       0.00042300       0.00115600      -0.00094500
Cu      11.27191000       8.74706000      13.59972000  T       0.00001900       0.00103500       0.00007000
Cu       1.24471000      11.26289000      13.59380000  T       0.00010700       0.00032600       0.00023400
Cu       3.73988000      11.26437000      13.56780000  T      -0.00070200       0.00014200       0.00104700
Cu       6.25404000      11.26606000      13.55718000  T       0.00161600      -0.00056500       0.00187100
Cu       8.76271000      11.26474000      13.56439000  T       0.00243500      -0.00003500       0.00295300
Cu      11.27023000      11.26386000      13.57649000  T       0.00182000       0.00037000       0.00171100
Cu      12.50851000       0.00946000      15.36844000  T       0.00098800       0.00033500      -0.00229800
Cu       2.50715000      12.51898000      15.36247000  T       0.00020600       0.00022900      -0.00026900
Cu       5.00644000      12.48326000      15.34379000  T       0.00027400      -0.00079800      -0.00194800
Cu       7.50921000      12.49470000      15.33681000  T       0.00132600      -0.00201200       0.00107500
Cu      10.00945000      12.49872000      15.35322000  T       0.00137000       0.00082200       0.00095900
Cu       0.08449000       2.51030000      15.35305000  T      -0.00175000       0.00095400      -0.00040700
Cu       2.54804000       2.50110000      15.34640000  T      -0.00174000       0.00326800       0.00254800
Cu       5.02090000       2.42226000      15.43556000  T      -0.00338700      -0.00027100       0.00235800
Cu       7.63079000       2.49908000      15.44593000  T      -0.00524700      -0.00096100       0.00074900
Cu      10.13925000       2.46130000      15.46390000  T      -0.00221700       0.00249700       0.00249300
Cu      12.41702000       5.00574000      15.33294000  T      -0.00858700       0.00021600       0.00530500
Cu       2.29487000       5.00422000      15.42186000  T      -0.02553300       0.00051200       0.00223500
Pd       4.75851000       5.00924000      15.71068000  T      -0.00093500       0.00021800       0.00082800
Y        7.48545000       5.00935000      17.25633000  T      -0.00372800      -0.00008200       0.00267300
Cu       9.93845000       5.00709000      15.44694000  T      -0.00196600      -0.00022900      -0.00477300
Cu       0.08842000       7.50040000      15.35377000  T      -0.00355100      -0.00027200      -0.00075900
Cu       2.55174000       7.50610000      15.34590000  T      -0.00289500      -0.00186900       0.00256600
Cu       5.02289000       7.59490000      15.43247000  T      -0.00447500      -0.00177400       0.00362600
Cu       7.63712000       7.51855000      15.44339000  T      -0.00827800      -0.00146800       0.00133600
Cu      10.14410000       7.55184000      15.46391000  T      -0.00506600      -0.00191700       0.00233700
Cu      12.50855000      10.00317000      15.36820000  T       0.00162700       0.00031100      -0.00136100
Cu       2.50775000      10.00475000      15.36210000  T       0.00007200       0.00052000      -0.00067300
Cu       5.00679000      10.04794000      15.34220000  T       0.00004900      -0.00045300      -0.00132900
Cu       7.50928000      10.03599000      15.33564000  T       0.00138900       0.00072800       0.00149600
Cu      10.00903000      10.02791000      15.35289000  T       0.00225900       0.00033800       0.00050600
O        6.26392000       3.37892000      16.54186000  T      -0.00826300       0.00827300      -0.00241200
O        6.26951000       6.63688000      16.53176000  T      -0.01007600      -0.00890900       0.00148100
O        9.04750000       6.44184000      16.58573000  T      -0.01326800       0.00028900      -0.00570500
O        9.04282000       3.57373000      16.58379000  T      -0.01100100      -0.00140600      -0.00521700
C        4.07803000       5.00663000      17.61961000  T      -0.01977100      -0.00019300       0.00544600
O        5.15650000       5.02997000      18.54236000  T      -0.02197300      -0.00814700       0.02193600
O        2.94499000       4.98400000      18.06584000  T      -0.03429900       0.00790200       0.02527200
H        4.74820000       5.02802000      19.43869000  T      -0.01014300      -0.00680200       0.00318100
108
Lattice="12.515153631 0.0 0.0 0.0 12.515153631 0.0 0.0 0.0 25.30973" Properties=species:S:1:pos:R:3:move_mask:L:1:forces:R:3 stress="0.00740833429093063 -3.6450413295158225e-06 0.0002885574499078348 -3.6450413295158225e-06 0.008236101955732647 1.6808384076003615e-05 0.0002885574499078348 1.6808384076003615e-05 0.0018358400452325463" free_energy=-444.98663622 energy=-444.98424896 pbc="T T T"
Cu       1.25152000       1.25152000      10.00000000  F       0.00028500      -0.01407700      -0.07069300
Cu       3.75455000       1.25152000      10.00000000  F       0.00234100       0.00710700      -0.07341800
Cu       6.25758000       1.25152000      10.00000000  F       0.00152500       0.02640900      -0.05788000
Cu       8.76061000       1.25152000      10.00000000  F       0.00269200       0.01380600      -0.06196400
Cu      11.26364000       1.25152000      10.00000000  F      -0.00958300      -0.00567100      -0.07563300
Cu       1.25152000       3.75455000      10.00000000  F       0.00370700       0.01021700      -0.07399100
Cu       3.75455000       3.75455000      10.00000000  F       0.01341000      -0.01266400      -0.05335100
Cu       6.25758000       3.75455000      10.00000000  F      -0.00677700      -0.02404600      -0.08084200
Cu       8.76061000       3.75455000      10.00000000  F       0.00520200      -0.02067500      -0.08252200
Cu      11.26364000       3.75455000      10.00000000  F      -0.01350400       0.00350400      -0.05595600
Cu       1.25152000       6.25758000      10.00000000  F       0.00302800      -0.00889000      -0.07564400
Cu       3.75455000       6.25758000      10.00000000  F       0.01479700       0.01331800      -0.05411800
Cu       6.25758000       6.25758000      10.00000000  F      -0.00664300       0.02607100      -0.08441800
Cu       8.76061000       6.25758000      10.00000000  F       0.00374100       0.02129600      -0.08320800
Cu      11.26364000       6.25758000      10.00000000  F      -0.01291800      -0.00221400      -0.05743300
Cu       1.25152000       8.76061000      10.00000000  F       0.00052700       0.01065000      -0.06975000
Cu       3.75455000       8.76061000      10.00000000  F       0.00169500      -0.00941700      -0.07243700
Cu       6.25758000       8.76061000      10.00000000  F       0.00148500      -0.03062200      -0.05593300
Cu       8.76061000       8.76061000      10.00000000  F       0.00335400      -0.01609800      -0.06128200
Cu      11.26364000       8.76061000      10.00000000  F      -0.00976500       0.00241400      -0.07461500
Cu       1.25152000      11.26364000      10.00000000  F      -0.00240000       0.00172900      -0.01919800
Cu       3.75455000      11.26364000      10.00000000  F      -0.00771700       0.00136300      -0.06799100
Cu       6.25758000      11.26364000      10.00000000  F      -0.00638100       0.00185500      -0.07288800
Cu       8.76061000      11.26364000      10.00000000  F      -0.00030200       0.00133700      -0.06962400
Cu      11.26364000      11.26364000      10.00000000  F       0.00855900       0.00165900      -0.06826900
Cu       0.00000000       0.00000000      11.76991000  F      -0.01071900       0.03973100       0.07905000
Cu       2.50303000       0.00000000      11.76991000  F       0.04071100       0.03698200       0.04980700
Cu       5.00606000       0.00000000      11.76991000  F       0.05257100       0.10251800       0.05267800
Cu       7.50909000       0.00000000      11.76991000  F       0.02131300       0.07817200       0.05223500
Cu      10.01212000       0.00000000      11.76991000  F      -0.01241400       0.07829700       0.05864100
Cu       0.00000000       2.50303000      11.76991000  F      -0.06142900       0.03636300       0.06830900
Cu       2.50303000       2.50303000      11.76991000  F       0.07241500       0.03781200       0.06621200
Cu       5.00606000       2.50303000      11.76991000  F       0.00437000      -0.00208400       0.09312000
Cu       7.50909000       2.50303000      11.76991000  F      -0.03434700       0.01216200       0.08851800
Cu      10.01212000       2.50303000      11.76991000  F       0.06691900      -0.06965700      -0.00748900
Cu       0.00000000       5.00606000      11.76991000  F      -0.08972100       0.00046900       0.04013300
Cu       2.50303000       5.00606000      11.76991000  F       0.05825100      -0.00124900       0.03577400
Cu       5.00606000       5.00606000      11.76991000  F      -0.01873100       0.00152600       0.20801600
Cu       7.50909000       5.00606000      11.76991000  F      -0.05901100       0.00283400       0.12272700
Cu      10.01212000       5.00606000      11.76991000  F       0.04181200       0.00044400       0.00202300
Cu       0.00000000       7.50909000      11.76991000  F      -0.05886100      -0.04182300       0.06902600
Cu       2.50303000       7.50909000      11.76991000  F       0.07218900      -0.04144600       0.06480000
Cu       5.00606000       7.50909000      11.76991000  F       0.00835800       0.00039600       0.09332300
Cu       7.50909000       7.50909000      11.76991000  F      -0.03315800      -0.01379300       0.08870800
Cu      10.01212000       7.50909000      11.76991000  F       0.07151900       0.06858700      -0.00899900
Cu       0.00000000      10.01212000      11.76991000  F      -0.00902300      -0.03919100       0.07660000
Cu       2.50303000      10.01212000      11.76991000  F       0.04145100      -0.03629000       0.04986800
Cu       5.00606000      10.01212000      11.76991000  F       0.05325500      -0.09498700       0.05181100
Cu       7.50909000      10.01212000      11.76991000  F       0.02255000      -0.06900800       0.05000400
Cu      10.01212000      10.01212000      11.76991000  F      -0.01091100      -0.07407100       0.05640800
Cu       1.27118000       1.24531000      13.57507000  T      -0.00060600      -0.00071100       0.00181600
Cu       3.79152000       1.26419000      13.59289000  T      -0.00214100       0.00020300       0.00106000
Cu       6.29621000       1.28532000      13.60418000  T      -0.00106000      -0.00028600       0.00108200
Cu       8.77997000       1.27933000      13.60326000  T       0.00042800      -0.00142400      -0.00060800
Cu      11.27029000       1.26522000      13.59976000  T      -0.00004000      -0.00081600       0.00017400
Cu       1.24548000       3.75719000      13.56752000  T      -0.00334100      -0.00089900       0.00006200
Cu       3.76448000       3.76863000      13.60573000  T      -0.00238000       0.00073500       0.00031700
Cu       6.25614000       3.78704000      13.60103000  T      -0.00279900       0.00053200       0.00159200
Cu       8.74481000       3.76809000      13.55138000  T      -0.00242400      -0.00094400      -0.00255100
Cu      11.22287000       3.75785000      13.59788000  T      -0.00087600      -0.00110200      -0.00156900
Cu       1.24635000       6.25310000      13.56750000  T      -0.00375900       0.00117100       0.00031400
Cu       3.76579000       6.24274000      13.60384000  T      -0.00278200      -0.00046900       0.00087900
Cu       6.25805000       6.22718000      13.60091000  T      -0.00332800      -0.00117500       0.00169000
Cu       8.74660000       6.24465000      13.55071000  T      -0.00282600       0.00033400      -0.00221900
Cu      11.22435000       6.25441000      13.59754000  T      -0.00146200       0.00116700      -0.00118200
Cu       1.27208000       8.76456000      13.57529000  T      -0.00083900       0.00109900       0.00153200
Cu       3.79184000       8.74854000      13.59196000  T      -0.00212400      -0.00013800       0.00132900
Cu       6.29737000       8.73042000      13.60265000  T      -0.00141000      -0.00060900       0.00167600
Cu       8.78175000       8.73481000      13.60173000  T      -0.00008900       0.00099200       0.00016900
Cu      11.27191000       8.74706000      13.59970000  T      -0.00023200       0.00122700       0.00036400
Cu       1.24474000      11.26291000      13.59380000  T      -0.00008800       0.00025400       0.00005100
Cu       3.73988000      11.26438000      13.56783000  T      -0.00078000       0.00008400       0.00057500
Cu       6.25408000      11.26604000      13.55722000  T       0.00128000      -0.00052700       0.00115800
Cu       8.76277000      11.26474000      13.56446000  T       0.00219900      -0.00005900       0.00207200
Cu      11.27030000      11.26387000      13.57653000  T       0.00129100       0.00028900       0.00122100
Cu      12.50856000       0.00948000      15.36840000  T       0.00074700       0.00017900      -0.00183700
Cu       2.50718000      12.51900000      15.36248000  T      -0.00001600       0.00029700      -0.00010300
Cu       5.00645000      12.48325000      15.34374000  T       0.00005700      -0.00083800      -0.00151300
Cu       7.50923000      12.49464000      15.33687000  T       0.00113600      -0.00151900       0.00068200
Cu      10.00949000      12.49876000      15.35330000  T       0.00134600       0.00055200       0.00053000
Cu       0.08446000       2.51035000      15.35306000  T      -0.00170200       0.00052700      -0.00022000
Cu       2.54801000       2.50123000      15.34649000  T      -0.00160000       0.00289000       0.00233900
Cu       5.02080000       2.42227000      15.43564000  T      -0.00381600      -0.00046000       0.00159400
Cu       7.63060000       2.49904000      15.44594000  T      -0.00440100      -0.00056500       0.00033700
Cu      10.13922000       2.46137000      15.46397000  T      -0.00265000       0.00211600       0.00199200
Cu      12.41676000       5.00575000      15.33312000  T      -0.00961500       0.00015100       0.00399100
Cu       2.29410000       5.00424000      15.42195000  T      -0.02424200       0.00043100       0.00253100
Pd       4.75702000       5.00920000      15.71143000  T       0.00533500       0.00018400      -0.00292000
Y        7.48499000       5.00930000      17.25662000  T      -0.00037200       0.00000200      -0.00155500
Cu       9.93846000       5.00708000      15.44670000  T      -0.00446100      -0.00012700      -0.00262600
Cu       0.08833000       7.50037000      15.35377000  T      -0.00335200       0.00007100      -0.00050100
Cu       2.55167000       7.50602000      15.34599000  T      -0.00278600      -0.00167800       0.00241200
Cu       5.02275000       7.59483000      15.43259000  T      -0.00473800      -0.00148300       0.00274700
Cu       7.63682000       7.51852000      15.44342000  T      -0.00693800      -0.00166500       0.00082800
Cu      10.14398000       7.55180000      15.46397000  T      -0.00527500      -0.00170500       0.00191300
Cu      12.50862000      10.00317000      15.36820000  T       0.00130900       0.00044500      -0.00113700
Cu       2.50777000      10.00476000      15.36210000  T      -0.00010000       0.00047800      -0.00041700
Cu       5.00680000      10.04792000      15.34216000  T      -0.00011100      -0.00030500      -0.00097000
Cu       7.50931000      10.03600000      15.33572000  T       0.00123200       0.00032200       0.00109600
Cu      10.00909000      10.02791000      15.35295000  T       0.00205200       0.00045600       0.00023900
O        6.26362000       3.37916000      16.54179000  T      -0.00760800       0.00816000      -0.00131200
O        6.26915000       6.63662000      16.53181000  T      -0.00954500      -0.00902000       0.00254400
O        9.04704000       6.44181000      16.58564000  T      -0.01307300      -0.00070900      -0.00501900
O        9.04243000       3.57373000      16.58372000  T      -0.01104700      -0.00034300      -0.00436200
C        4.07699000       5.00661000      17.62012000  T      -0.02631100      -0.00054400       0.01001800
O        5.15571000       5.02968000      18.54278000  T      -0.01830000      -0.00766500       0.01162100
O        2.94396000       4.98420000      18.06656000  T      -0.02548700       0.00814100       0.02418900
H        4.74771000       5.02774000      19.43896000  T      -0.01519800      -0.00676200       0.01364000
108
Lattice="12.515153631 0.0 0.0 0.0 12.515153631 0.0 0.0 0.0 25.30973" Properties=species:S:1:pos:R:3:move_mask:L:1:forces:R:3 stress="0.007424574697676178 -3.3828979462287262e-06 0.00029338213646214255 -3.3828979462287262e-06 0.00824793585703532 1.718911613268249e-05 0.00029338213646214255 1.718911613268249e-05 0.0018580535762115647" free_energy=-444.98634476 energy=-444.98396905 pbc="T T T"
Cu       1.25152000       1.25152000      10.00000000  F       0.00077900      -0.01406300      -0.07113700
Cu       3.75455000       1.25152000      10.00000000  F       0.00301300       0.00711900      -0.07395400
Cu       6.25758000       1.25152000      10.00000000  F       0.00227700       0.02643500      -0.05839400
Cu       8.76061000       1.25152000      10.00000000  F       0.00342500       0.01381800      -0.06237900
Cu      11.26364000       1.25152000      10.00000000  F      -0.00898500      -0.00564700      -0.07596300
Cu       1.25152000       3.75455000      10.00000000  F       0.00421000       0.01027200      -0.07446300
Cu       3.75455000       3.75455000      10.00000000  F       0.01406700      -0.01264800      -0.05384800
Cu       6.25758000       3.75455000      10.00000000  F      -0.00602000      -0.02405000      -0.08130600
Cu       8.76061000       3.75455000      10.00000000  F       0.00593700      -0.02065400      -0.08289600
Cu      11.26364000       3.75455000      10.00000000  F      -0.01288800       0.00354900      -0.05632100
Cu       1.25152000       6.25758000      10.00000000  F       0.00353400      -0.00887600      -0.07611200
Cu       3.75455000       6.25758000      10.00000000  F       0.01545600       0.01337200      -0.05461900
Cu       6.25758000       6.25758000      10.00000000  F      -0.00588500       0.02614900      -0.08489600
Cu       8.76061000       6.25758000      10.00000000  F       0.00447000       0.02134400      -0.08358500
Cu      11.26364000       6.25758000      10.00000000  F      -0.01230100      -0.00218900      -0.05779200
Cu       1.25152000       8.76061000      10.00000000  F       0.00102000       0.01070400      -0.07019900
Cu       3.75455000       8.76061000      10.00000000  F       0.00236700      -0.00935900      -0.07297100
Cu       6.25758000       8.76061000      10.00000000  F       0.00223700      -0.03058100      -0.05644900
Cu       8.76061000       8.76061000      10.00000000  F       0.00408800      -0.01603800      -0.06170400
Cu      11.26364000       8.76061000      10.00000000  F      -0.00916400       0.00246200      -0.07496100
Cu       1.25152000      11.26364000      10.00000000  F      -0.00185200       0.00176500      -0.01969700
Cu       3.75455000      11.26364000      10.00000000  F      -0.00707000       0.00139700      -0.06850400
Cu       6.25758000      11.26364000      10.00000000  F      -0.00565100       0.00188800      -0.07335000
Cu       8.76061000      11.26364000      10.00000000  F       0.00041200       0.00137200      -0.06999300
Cu      11.26364000      11.26364000      10.00000000  F       0.00917500       0.00169200      -0.06868700
Cu       0.00000000       0.00000000      11.76991000  F      -0.01032400       0.03968400       0.07877800
Cu       2.50303000       0.00000000      11.76991000  F       0.04117600       0.03693100       0.04954700
Cu       5.00606000       0.00000000      11.76991000  F       0.05331500       0.10250400       0.05227800
Cu       7.50909000       0.00000000      11.76991000  F       0.02222700       0.07832400       0.05191600
Cu      10.01212000       0.00000000      11.76991000  F      -0.01183400       0.07845600       0.05842300
Cu       0.00000000       2.50303000      11.76991000  F      -0.06112700       0.03646400       0.06823600
Cu       2.50303000       2.50303000      11.76991000  F       0.07303700       0.03783100       0.06601100
Cu       5.00606000       2.50303000      11.76991000  F       0.00519200      -0.00210100       0.09290900
Cu       7.50909000       2.50303000      11.76991000  F      -0.03321700       0.01234800       0.08866400
Cu      10.01212000       2.50303000      11.76991000  F       0.06759800      -0.06957600      -0.00730600
Cu       0.00000000       5.00606000      11.76991000  F      -0.08939100       0.00048000       0.04020500
Cu       2.50303000       5.00606000      11.76991000  F       0.05900600      -0.00124600       0.03559800
Cu       5.00606000       5.00606000      11.76991000  F      -0.01779200       0.00154900       0.20785200
Cu       7.50909000       5.00606000      11.76991000  F      -0.05759500       0.00287300       0.12329900
Cu      10.01212000       5.00606000      11.76991000  F       0.04234300       0.00046700       0.00245700
Cu       0.00000000       7.50909000      11.76991000  F      -0.05851900      -0.04185300       0.06891900
Cu       2.50303000       7.50909000      11.76991000  F       0.07280500      -0.04139100       0.06457000
Cu       5.00606000       7.50909000      11.76991000  F       0.00920500       0.00048600       0.09306600
Cu       7.50909000       7.50909000      11.76991000  F      -0.03203000      -0.01390100       0.08878200
Cu      10.01212000       7.50909000      11.76991000  F       0.07223900       0.06857100      -0.00890400
Cu       0.00000000      10.01212000      11.76991000  F      -0.00860300      -0.03912500       0.07631700
Cu       2.50303000      10.01212000      11.76991000  F       0.04189300      -0.03620500       0.04959600
Cu       5.00606000      10.01212000      11.76991000  F       0.05400600      -0.09487600       0.05139500
Cu       7.50909000      10.01212000      11.76991000  F       0.02346700      -0.06903600       0.04964400
Cu      10.01212000      10.01212000      11.76991000  F      -0.01030700      -0.07416100       0.05613000
Cu       1.27115000       1.24529000      13.57502000  T      -0.00011400      -0.00082600       0.00187500
Cu       3.79155000       1.26414000      13.59287000  T      -0.00168700       0.00030500       0.00076600
Cu       6.29625000       1.28527000      13.60416000  T      -0.00053400       0.00000600       0.00074500
Cu       8.77997000       1.27933000      13.60334000  T       0.00145300      -0.00155600      -0.00199300
Cu      11.27028000       1.26520000      13.59978000  T       0.00068000      -0.00072800      -0.00052900
Cu       1.24554000       3.75719000      13.56752000  T      -0.00291000      -0.00065200       0.00026200
Cu       3.76451000       3.76858000      13.60574000  T      -0.00166900       0.00089100       0.00017300
Cu       6.25619000       3.78698000      13.60104000  T      -0.00137000       0.00094900       0.00059500
Cu       8.74492000       3.76805000      13.55154000  T      -0.00222400      -0.00016100      -0.00420600
Cu      11.22288000       3.75785000      13.59797000  T      -0.00008400      -0.00108500      -0.00247900
Cu       1.24642000       6.25309000      13.56749000  T      -0.00329200       0.00102800       0.00062400
Cu       3.76583000       6.24278000      13.60384000  T      -0.00213900      -0.00050800       0.00078100
Cu       6.25812000       6.22726000      13.60092000  T      -0.00190700      -0.00151500       0.00070500
Cu       8.74673000       6.24471000      13.55086000  T      -0.00261000      -0.00044500      -0.00380100
Cu      11.22438000       6.25441000      13.59761000  T      -0.00067700       0.00118800      -0.00202700
Cu       1.27206000       8.76456000      13.57525000  T      -0.00030900       0.00126500       0.00149600
Cu       3.79187000       8.74859000      13.59194000  T      -0.00164700      -0.00011800       0.00112000
Cu       6.29741000       8.73049000      13.60261000  T      -0.00085600      -0.00083600       0.00146400
Cu       8.78176000       8.73481000      13.60179000  T       0.00095000       0.00127200      -0.00111500
Cu      11.27190000       8.74707000      13.59972000  T       0.00051400       0.00122200      -0.00030300
Cu       1.24470000      11.26289000      13.59380000  T       0.00047200       0.00034000      -0.00019700
Cu       3.73987000      11.26437000      13.56781000  T      -0.00022800       0.00016500       0.00061900
Cu       6.25405000      11.26605000      13.55719000  T       0.00214600      -0.00050400       0.00134200
Cu       8.76272000      11.26474000      13.56440000  T       0.00304900      -0.00000600       0.00228100
Cu      11.27024000      11.26386000      13.57650000  T       0.00223800       0.00037800       0.00106500
Cu      12.50851000       0.00946000      15.36842000  T       0.00144800       0.00022000      -0.00242300
Cu       2.50714000      12.51898000      15.36246000  T       0.00064200       0.00017800      -0.00046900
Cu       5.00643000      12.48325000      15.34378000  T       0.00075000      -0.00074400      -0.00203600
Cu       7.50921000      12.49468000      15.33681000  T       0.00187700      -0.00188400       0.00072300
Cu      10.00946000      12.49872000      15.35322000  T       0.00193900       0.00068900       0.00057300
Cu       0.08448000       2.51030000      15.35305000  T      -0.00111300       0.00074000      -0.00058600
Cu       2.54803000       2.50111000      15.34642000  T      -0.00123900       0.00290000       0.00216700
Cu       5.02087000       2.42225000      15.43557000  T      -0.00285900      -0.00053800       0.00174800
Cu       7.63077000       2.49907000      15.44594000  T      -0.00443100      -0.00121500       0.00013700
Cu      10.13923000       2.46131000      15.46391000  T      -0.00143500       0.00208700       0.00182600
Cu      12.41697000       5.00574000      15.33297000  T      -0.00781800       0.00022500       0.00460800
Cu       2.29472000       5.00422000      15.42187000  T      -0.02153400       0.00049800       0.00272800
Pd       4.75878000       5.00925000      15.71053000  T      -0.05213900      -0.00151500       0.02546900
Y        7.48547000       5.00935000      17.25632000  T      -0.01418700      -0.00122200       0.00835500
Cu       9.93844000       5.00709000      15.44691000  T      -0.00118600      -0.00019500      -0.00498000
Cu       0.08840000       7.50040000      15.35376000  T      -0.00283700      -0.00002500      -0.00092000
Cu       2.55171000       7.50610000      15.34591000  T      -0.00235200      -0.00150900       0.00218400
Cu       5.02286000       7.59490000      15.43249000  T      -0.00384100      -0.00120900       0.00292300
Cu       7.63708000       7.51855000      15.44339000  T      -0.00729300      -0.00097700       0.00068400
Cu      10.14407000       7.55183000      15.46392000  T      -0.00410500      -0.00151100       0.00167600
Cu      12.50856000      10.00318000      15.36819000  T       0.00206000       0.00047300      -0.00155300
Cu       2.50774000      10.00476000      15.36210000  T       0.00052000       0.00061800      -0.00083900
Cu       5.00678000      10.04794000      15.34219000  T       0.00053900      -0.00037900      -0.00145800
Cu       7.50929000      10.03599000      15.33565000  T       0.00194000       0.00072000       0.00111600
Cu      10.00904000      10.02791000      15.35289000  T       0.00277500       0.00048400       0.00015900
O        6.26387000       3.37899000      16.54185000  T      -0.00642100       0.00654200      -0.00209600
O        6.26945000       6.63681000      16.53178000  T      -0.00822200      -0.00709200       0.00162900
O        9.04740000       6.44185000      16.58569000  T      -0.01208700      -0.00012000      -0.00504100
O        9.04273000       3.57372000      16.58376000  T      -0.00995100      -0.00080800      -0.00452400
C        4.07785000       5.00663000      17.61963000  T      -0.02544200      -0.00025400       0.01082000
O        5.15635000       5.02992000      18.54261000  T      -0.01898400      -0.00808100       0.00828000
O        2.94480000       4.98408000      18.06602000  T      -0.03073300       0.00722900       0.02276500
H        4.74814000       5.02798000      19.43869000  T      -0.01494900      -0.00712700       0.01288900
108
Lattice="12.515153631 0.0 0.0 0.0 12.515153631 0.0 0.0 0.0 25.30973" Properties=species:S:1:pos:R:3:move_mask:L:1:forces:R:3 stress="0.007452505451014506 -4.125637532208834e-06 0.00028387631806342235 -4.125637532208834e-06 0.008285022904261318 1.672100294824125e-05 0.00028387631806342235 1.672100294824125e-05 0.0018851854163817795" free_energy=-444.98681717 energy=-444.98440755 pbc="T T T"
Cu       1.25152000       1.25152000      10.00000000  F       0.00062500      -0.01390900      -0.07104000
Cu       3.75455000       1.25152000      10.00000000  F       0.00262700       0.00730700      -0.07341100
Cu       6.25758000       1.25152000      10.00000000  F       0.00162000       0.02660800      -0.05775100
Cu       8.76061000       1.25152000      10.00000000  F       0.00274900       0.01403400      -0.06205600
Cu      11.26364000       1.25152000      10.00000000  F      -0.00947700      -0.00546800      -0.07601400
Cu       1.25152000       3.75455000      10.00000000  F       0.00404700       0.01029600      -0.07396000
Cu       3.75455000       3.75455000      10.00000000  F       0.01370800      -0.01255300      -0.05310400
Cu       6.25758000       3.75455000      10.00000000  F      -0.00665600      -0.02390100      -0.08057300
Cu       8.76061000       3.75455000      10.00000000  F       0.00521900      -0.02057000      -0.08244100
Cu      11.26364000       3.75455000      10.00000000  F      -0.01342300       0.00353500      -0.05604900
Cu       1.25152000       6.25758000      10.00000000  F       0.00338200      -0.00900400      -0.07561000
Cu       3.75455000       6.25758000      10.00000000  F       0.01509200       0.01317500      -0.05386800
Cu       6.25758000       6.25758000      10.00000000  F      -0.00653200       0.02588300      -0.08414100
Cu       8.76061000       6.25758000      10.00000000  F       0.00375800       0.02114400      -0.08311900
Cu      11.26364000       6.25758000      10.00000000  F      -0.01283300      -0.00228200      -0.05753800
Cu       1.25152000       8.76061000      10.00000000  F       0.00087100       0.01045400      -0.07009100
Cu       3.75455000       8.76061000      10.00000000  F       0.00197500      -0.00965200      -0.07242700
Cu       6.25758000       8.76061000      10.00000000  F       0.00157600      -0.03084600      -0.05580700
Cu       8.76061000       8.76061000      10.00000000  F       0.00341500      -0.01635100      -0.06136700
Cu      11.26364000       8.76061000      10.00000000  F      -0.00965700       0.00218200      -0.07501300
Cu       1.25152000      11.26364000      10.00000000  F      -0.00211000       0.00172100      -0.01956800
Cu       3.75455000      11.26364000      10.00000000  F      -0.00745100       0.00135200      -0.06825300
Cu       6.25758000      11.26364000      10.00000000  F      -0.00625100       0.00184400      -0.07296900
Cu       8.76061000      11.26364000      10.00000000  F      -0.00025400       0.00133500      -0.06991900
Cu      11.26364000      11.26364000      10.00000000  F       0.00869800       0.00165100      -0.06879200
Cu       0.00000000       0.00000000      11.76991000  F      -0.01042100       0.03999700       0.07923000
Cu       2.50303000       0.00000000      11.76991000  F       0.04112600       0.03733500       0.04992000
Cu       5.00606000       0.00000000      11.76991000  F       0.05293000       0.10273100       0.05322600
Cu       7.50909000       0.00000000      11.76991000  F       0.02130500       0.07809200       0.05274500
Cu      10.01212000       0.00000000      11.76991000  F      -0.01228100       0.07815300       0.05887900
Cu       0.00000000       2.50303000      11.76991000  F      -0.06104500       0.03635300       0.06815700
Cu       2.50303000       2.50303000      11.76991000  F       0.07246600       0.03811400       0.06628500
Cu       5.00606000       2.50303000      11.76991000  F       0.00448500      -0.00175300       0.09329100
Cu       7.50909000       2.50303000      11.76991000  F      -0.03501600       0.01217100       0.08826000
Cu      10.01212000       2.50303000      11.76991000  F       0.06681800      -0.06957200      -0.00782900
Cu       0.00000000       5.00606000      11.76991000  F      -0.08956700       0.00053200       0.03978600
Cu       2.50303000       5.00606000      11.76991000  F       0.05812000      -0.00116100       0.03583900
Cu       5.00606000       5.00606000      11.76991000  F      -0.01881100       0.00155800       0.20797000
Cu       7.50909000       5.00606000      11.76991000  F      -0.06021300       0.00281500       0.12171900
Cu      10.01212000       5.00606000      11.76991000  F       0.04182700       0.00047700       0.00141800
Cu       0.00000000       7.50909000      11.76991000  F      -0.05858500      -0.04183500       0.06896800
Cu       2.50303000       7.50909000      11.76991000  F       0.07224200      -0.04178300       0.06495300
Cu       5.00606000       7.50909000      11.76991000  F       0.00839600       0.00002700       0.09359800
Cu       7.50909000       7.50909000      11.76991000  F      -0.03383200      -0.01385700       0.08863600
Cu      10.01212000       7.50909000      11.76991000  F       0.07130700       0.06848800      -0.00910700
Cu       0.00000000      10.01212000      11.76991000  F      -0.00879100      -0.03939900       0.07680900
Cu       2.50303000      10.01212000      11.76991000  F       0.04190400      -0.03662600       0.05000900
Cu       5.00606000      10.01212000      11.76991000  F       0.05358600      -0.09535700       0.05239000
Cu       7.50909000      10.01212000      11.76991000  F       0.02254200      -0.06915300       0.05063100
Cu      10.01212000      10.01212000      11.76991000  F      -0.01084500      -0.07401000       0.05680900
Cu       1.27120000       1.24529000      13.57521000  T      -0.00025500       0.00023700       0.00130000
Cu       3.79140000       1.26427000      13.59295000  T      -0.00159000       0.00080800       0.00097600
Cu       6.29611000       1.28536000      13.60425000  T      -0.00056700      -0.00007900       0.00123700
Cu       8.78000000       1.27926000      13.60314000  T      -0.00011000      -0.00068800       0.00107800
Cu      11.27030000       1.26522000      13.59974000  T      -0.00041100      -0.00013300       0.00088300
Cu       1.24527000       3.75717000      13.56752000  T      -0.00360800      -0.00073000      -0.00083200
Cu       3.76434000       3.76874000      13.60572000  T      -0.00276900       0.00094800       0.00011300
Cu       6.25595000       3.78714000      13.60109000  T      -0.00381000       0.00013500       0.00227600
Cu       8.74455000       3.76810000      13.55106000  T      -0.00202000      -0.00183900      -0.00085800
Cu      11.22281000       3.75780000      13.59771000  T      -0.00174900      -0.00083700      -0.00072800
Cu       1.24611000       6.25316000      13.56753000  T      -0.00417600       0.00113400      -0.00072500
Cu       3.76561000       6.24267000      13.60389000  T      -0.00318500      -0.00066800       0.00066700
Cu       6.25782000       6.22703000      13.60098000  T      -0.00450900      -0.00085300       0.00235100
Cu       8.74631000       6.24459000      13.55043000  T      -0.00256500       0.00125800      -0.00062800
Cu      11.22424000       6.25447000      13.59740000  T      -0.00244700       0.00104400      -0.00035100
Cu       1.27208000       8.76461000      13.57541000  T      -0.00061200       0.00024300       0.00120000
Cu       3.79172000       8.74848000      13.59205000  T      -0.00157700      -0.00085100       0.00121900
Cu       6.29724000       8.73030000      13.60277000  T      -0.00105900      -0.00104600       0.00186300
Cu       8.78174000       8.73485000      13.60167000  T      -0.00075400       0.00003600       0.00183500
Cu      11.27191000       8.74710000      13.59970000  T      -0.00076300       0.00054000       0.00109200
Cu       1.24480000      11.26293000      13.59379000  T       0.00044000       0.00022200      -0.00014400
Cu       3.73987000      11.26439000      13.56787000  T       0.00005900      -0.00001500      -0.00000500
Cu       6.25418000      11.26600000      13.55732000  T       0.00177800      -0.00066400       0.00057700
Cu       8.76293000      11.26474000      13.56464000  T       0.00212500      -0.00015300       0.00160700
Cu      11.27045000      11.26390000      13.57662000  T       0.00082900       0.00022500       0.00097000
Cu      12.50867000       0.00953000      15.36830000  T       0.00081100       0.00037900      -0.00091600
Cu       2.50725000      12.51905000      15.36249000  T       0.00034300       0.00082600       0.00033100
Cu       5.00649000      12.48321000      15.34361000  T       0.00059200      -0.00063900      -0.00129900
Cu       7.50932000      12.49452000      15.33698000  T       0.00144600      -0.00059500       0.00038800
Cu      10.00959000      12.49884000      15.35343000  T       0.00159700       0.00097400       0.00054700
Cu       0.08435000       2.51045000      15.35307000  T      -0.00216300       0.00075600       0.00010500
Cu       2.54793000       2.50152000      15.34669000  T      -0.00129100       0.00330700       0.00212900
Cu       5.02053000       2.42228000      15.43580000  T      -0.00399100      -0.00030900       0.00061200
Cu       7.63016000       2.49898000      15.44597000  T      -0.00468400       0.00069900       0.00015000
Cu      10.13908000       2.46153000      15.46414000  T      -0.00360000       0.00233800       0.00101800
Cu      12.41603000       5.00576000      15.33351000  T      -0.01390800       0.00002700       0.00289700
Cu       2.29218000       5.00428000      15.42218000  T      -0.02402500       0.00052000       0.00293800
Pd       4.75411000       5.00912000      15.71290000  T       0.01612200       0.00089700      -0.01278200
Y        7.48429000       5.00922000      17.25698000  T       0.00119800       0.00034300      -0.00370700
Cu       9.93828000       5.00707000      15.44630000  T      -0.00903200      -0.00009800      -0.00073900
Cu       0.08808000       7.50033000      15.35375000  T      -0.00397600      -0.00017600      -0.00015400
Cu       2.55150000       7.50585000      15.34618000  T      -0.00277900      -0.00216900       0.00229600
Cu       5.02242000       7.59468000      15.43284000  T      -0.00485300      -0.00181000       0.00187600
Cu       7.63615000       7.51839000      15.44349000  T      -0.00704400      -0.00324200       0.00058400
Cu      10.14363000       7.55168000      15.46412000  T      -0.00644400      -0.00225000       0.00114100
Cu      12.50878000      10.00319000      15.36816000  T       0.00138000       0.00032400      -0.00051400
Cu       2.50783000      10.00478000      15.36209000  T       0.00035500       0.00014400       0.00010300
Cu       5.00682000      10.04786000      15.34208000  T       0.00047600      -0.00067400      -0.00074000
Cu       7.50940000      10.03603000      15.33586000  T       0.00167000      -0.00080500       0.00076300
Cu      10.00926000      10.02792000      15.35304000  T       0.00222800       0.00004500       0.00038000
O        6.26294000       3.37972000      16.54162000  T      -0.00762300       0.00830400      -0.00314400
O        6.26832000       6.63600000      16.53196000  T      -0.01011900      -0.00926400       0.00126700
O        9.04601000       6.44174000      16.58531000  T      -0.01210200      -0.00074700      -0.00733600
O        9.04156000       3.57372000      16.58344000  T      -0.00994500      -0.00045300      -0.00633800
C        4.07453000       5.00657000      17.62131000  T      -0.02105200      -0.00024300       0.01376800
O        5.15400000       5.02902000      18.54351000  T      -0.02443000      -0.00883300       0.01762900
O        2.94178000       4.98474000      18.06831000  T      -0.03206500       0.01005800       0.03007200
H        4.74645000       5.02710000      19.43992000  T      -0.01415400      -0.00623200       0.01199000
108
Lattice="12.515153631 0.0 0.0 0.0 12.515153631 0.0 0.0 0.0 25.30973" Properties=species:S:1:pos:R:3:move_mask:L:1:forces:R:3 stress="0.007439086206393856 -3.7885960394111377e-06 0.00028443181237562594 -3.7885960394111377e-06 0.00826787123718339 1.6677312384360068e-05 0.00028443181237562594 1.6677312384360068e-05 0.0018703181416439253" free_energy=-444.98716756 energy=-444.98477125 pbc="T T T"
Cu       1.25152000       1.25152000      10.00000000  F       0.00015700      -0.01415500      -0.07095500
Cu       3.75455000       1.25152000      10.00000000  F       0.00257400       0.00705300      -0.07382300
Cu       6.25758000       1.25152000      10.00000000  F       0.00193000       0.02637300      -0.05804200
Cu       8.76061000       1.25152000      10.00000000  F       0.00302300       0.01375500      -0.06183700
Cu      11.26364000       1.25152000      10.00000000  F      -0.00968900      -0.00572100      -0.07557400
Cu       1.25152000       3.75455000      10.00000000  F       0.00358700       0.01018100      -0.07437400
Cu       3.75455000       3.75455000      10.00000000  F       0.01362700      -0.01271200      -0.05384800
Cu       6.25758000       3.75455000      10.00000000  F      -0.00631800      -0.02406000      -0.08114100
Cu       8.76061000       3.75455000      10.00000000  F       0.00549100      -0.02070000      -0.08254500
Cu      11.26364000       3.75455000      10.00000000  F      -0.01360000       0.00342400      -0.05600900
Cu       1.25152000       6.25758000      10.00000000  F       0.00291900      -0.00884500      -0.07602700
Cu       3.75455000       6.25758000      10.00000000  F       0.01501100       0.01338000      -0.05460900
Cu       6.25758000       6.25758000      10.00000000  F      -0.00619100       0.02609200      -0.08470400
Cu       8.76061000       6.25758000      10.00000000  F       0.00403000       0.02132300      -0.08322600
Cu      11.26364000       6.25758000      10.00000000  F      -0.01301300      -0.00212700      -0.05749900
Cu       1.25152000       8.76061000      10.00000000  F       0.00040400       0.01073500      -0.07001200
Cu       3.75455000       8.76061000      10.00000000  F       0.00192500      -0.00936300      -0.07283800
Cu       6.25758000       8.76061000      10.00000000  F       0.00188800      -0.03057800      -0.05608800
Cu       8.76061000       8.76061000      10.00000000  F       0.00368400      -0.01604100      -0.06114100
Cu      11.26364000       8.76061000      10.00000000  F      -0.00986900       0.00246900      -0.07457000
Cu       1.25152000      11.26364000      10.00000000  F      -0.00253500       0.00173600      -0.01935900
Cu       3.75455000      11.26364000      10.00000000  F      -0.00749200       0.00136700      -0.06836300
Cu       6.25758000      11.26364000      10.00000000  F      -0.00593500       0.00185700      -0.07296500
Cu       8.76061000      11.26364000      10.00000000  F       0.00002800       0.00134800      -0.06944400
Cu      11.26364000      11.26364000      10.00000000  F       0.00847400       0.00166600      -0.06816200
Cu       0.00000000       0.00000000      11.76991000  F      -0.01104300       0.03971500       0.07898300
Cu       2.50303000       0.00000000      11.76991000  F       0.04055300       0.03706200       0.04980300
Cu       5.00606000       0.00000000      11.76991000  F       0.05313700       0.10246100       0.05311600
Cu       7.50909000       0.00000000      11.76991000  F       0.02197900       0.07790800       0.05261000
Cu      10.01212000       0.00000000      11.76991000  F      -0.01218500       0.07790000       0.05866600
Cu       0.00000000       2.50303000      11.76991000  F      -0.06171700       0.03587300       0.06806800
Cu       2.50303000       2.50303000      11.76991000  F       0.07203100       0.03766900       0.06629200
Cu       5.00606000       2.50303000      11.76991000  F       0.00472000      -0.00217400       0.09335900
Cu       7.50909000       2.50303000      11.76991000  F      -0.03430900       0.01178800       0.08845200
Cu      10.01212000       2.50303000      11.76991000  F       0.06695800      -0.07004700      -0.00780800
Cu       0.00000000       5.00606000      11.76991000  F      -0.09017300       0.00054500       0.03982200
Cu       2.50303000       5.00606000      11.76991000  F       0.05771900      -0.00115000       0.03594300
Cu       5.00606000       5.00606000      11.76991000  F      -0.01855200       0.00157000       0.20822400
Cu       7.50909000       5.00606000      11.76991000  F      -0.05940900       0.00283300       0.12218500
Cu      10.01212000       5.00606000      11.76991000  F       0.04185900       0.00049200       0.00163000
Cu       0.00000000       7.50909000      11.76991000  F      -0.05924400      -0.04130800       0.06886000
Cu       2.50303000       7.50909000      11.76991000  F       0.07179600      -0.04129300       0.06494600
Cu       5.00606000       7.50909000      11.76991000  F       0.00863700       0.00048600       0.09362200
Cu       7.50909000       7.50909000      11.76991000  F      -0.03312600      -0.01343300       0.08878100
Cu      10.01212000       7.50909000      11.76991000  F       0.07146900       0.06900200      -0.00913500
Cu       0.00000000      10.01212000      11.76991000  F      -0.00940000      -0.03910900       0.07655300
Cu       2.50303000      10.01212000      11.76991000  F       0.04132100      -0.03634000       0.04988700
Cu       5.00606000      10.01212000      11.76991000  F       0.05379500      -0.09504400       0.05226800
Cu       7.50909000      10.01212000      11.76991000  F       0.02321600      -0.06891300       0.05046900
Cu      10.01212000      10.01212000      11.76991000  F      -0.01074000      -0.07373000       0.05657100
Cu       1.27119000       1.24529000      13.57519000  T      -0.00086700      -0.00023600       0.00114100
Cu       3.79140000       1.26425000      13.59294000  T      -0.00151900       0.00029500       0.00084700
Cu       6.29613000       1.28534000      13.60425000  T      -0.00010200      -0.00041600       0.00103500
Cu       8.78000000       1.27926000      13.60318000  T       0.00030500      -0.00102200       0.00068900
Cu      11.27030000       1.26521000      13.59975000  T      -0.00059000      -0.00056400       0.00058500
Cu       1.24527000       3.75716000      13.56751000  T      -0.00353500      -0.00076000      -0.00052300
Cu       3.76434000       3.76872000      13.60573000  T      -0.00251200       0.00070100       0.00057700
Cu       6.25595000       3.78712000      13.60110000  T      -0.00275000      -0.00002100       0.00220900
Cu       8.74460000       3.76807000      13.55113000  T      -0.00156800      -0.00162400      -0.00089900
Cu      11.22280000       3.75779000      13.59774000  T      -0.00175900      -0.00095300      -0.00075200
Cu       1.24611000       6.25316000      13.56751000  T      -0.00401900       0.00112700      -0.00042500
Cu       3.76561000       6.24268000      13.60389000  T      -0.00289500      -0.00041900       0.00102500
Cu       6.25782000       6.22706000      13.60100000  T      -0.00335000      -0.00059200       0.00227200
Cu       8.74635000       6.24463000      13.55049000  T      -0.00202300       0.00113800      -0.00072100
Cu      11.22424000       6.25448000      13.59743000  T      -0.00234200       0.00114500      -0.00043400
Cu       1.27207000       8.76461000      13.57540000  T      -0.00116400       0.00066100       0.00105000
Cu       3.79172000       8.74849000      13.59204000  T      -0.00152300      -0.00032000       0.00106100
Cu       6.29726000       8.73033000      13.60277000  T      -0.00050600      -0.00050600       0.00155800
Cu       8.78174000       8.73485000      13.60171000  T      -0.00023200       0.00050200       0.00131800
Cu      11.27190000       8.74711000      13.59971000  T      -0.00089700       0.00091200       0.00076800
Cu       1.24479000      11.26293000      13.59379000  T      -0.00024300       0.00020200      -0.00019200
Cu       3.73987000      11.26439000      13.56786000  T      -0.00015400      -0.00000300       0.00004400
Cu       6.25418000      11.26600000      13.55730000  T       0.00196600      -0.00054900       0.00050700
Cu       8.76292000      11.26474000      13.56462000  T       0.00212300      -0.00012100       0.00126700
Cu      11.27043000      11.26390000      13.57661000  T       0.00047100       0.00020100       0.00065900
Cu      12.50865000       0.00952000      15.36831000  T       0.00044800       0.00019600      -0.00130600
Cu       2.50723000      12.51905000      15.36249000  T       0.00007200       0.00057200       0.00023800
Cu       5.00649000      12.48321000      15.34362000  T       0.00065900      -0.00063100      -0.00107200
Cu       7.50932000      12.49454000      15.33695000  T       0.00158500      -0.00073400       0.00014800
Cu      10.00959000      12.49883000      15.35339000  T       0.00139900       0.00071000       0.00002700
Cu       0.08435000       2.51043000      15.35306000  T      -0.00224000       0.00052100       0.00000100
Cu       2.54793000       2.50149000      15.34667000  T      -0.00142900       0.00284700       0.00215800
Cu       5.02055000       2.42227000      15.43577000  T      -0.00321800      -0.00031400       0.00092800
Cu       7.63021000       2.49900000      15.44597000  T      -0.00429500       0.00039800       0.00025700
Cu      10.13907000       2.46152000      15.46411000  T      -0.00298000       0.00171700       0.00066900
Cu      12.41603000       5.00576000      15.33345000  T      -0.01241400       0.00003500       0.00259800
Cu       2.29234000       5.00427000      15.42217000  T      -0.02043200       0.00048600       0.00364000
Pd       4.75481000       5.00914000      15.71250000  T       0.00318900       0.00019100      -0.00074600
Y        7.48444000       5.00924000      17.25686000  T      -0.00853400      -0.00077500       0.00232100
Cu       9.93821000       5.00707000      15.44639000  T      -0.00726700      -0.00011900      -0.00118800
Cu       0.08809000       7.50035000      15.35375000  T      -0.00387100       0.00003000      -0.00024400
Cu       2.55150000       7.50587000      15.34616000  T      -0.00275000      -0.00176200       0.00228000
Cu       5.02244000       7.59470000      15.43281000  T      -0.00399100      -0.00140300       0.00200400
Cu       7.63623000       7.51838000      15.44348000  T      -0.00653100      -0.00251900       0.00062500
Cu      10.14363000       7.55168000      15.46410000  T      -0.00538500      -0.00157900       0.00075800
Cu      12.50876000      10.00319000      15.36816000  T       0.00096700       0.00047400      -0.00091800
Cu       2.50782000      10.00478000      15.36209000  T       0.00005000       0.00030700       0.00002000
Cu       5.00682000      10.04787000      15.34209000  T       0.00055300      -0.00050700      -0.00057400
Cu       7.50941000      10.03601000      15.33583000  T       0.00174900      -0.00048000       0.00052100
Cu      10.00926000      10.02792000      15.35301000  T       0.00197300       0.00022400      -0.00013100
O        6.26302000       3.37968000      16.54163000  T      -0.00716000       0.00647800      -0.00315700
O        6.26840000       6.63604000      16.53195000  T      -0.00933000      -0.00725000       0.00098000
O        9.04611000       6.44175000      16.58529000  T      -0.01116700      -0.00059900      -0.00628600
O        9.04165000       3.57372000      16.58342000  T      -0.00919300      -0.00052200      -0.00553400
C        4.07479000       5.00657000      17.62120000  T      -0.02581600      -0.00033400       0.01483200
O        5.15413000       5.02907000      18.54351000  T      -0.02052100      -0.00791300       0.01018300
O        2.94195000       4.98474000      18.06825000  T      -0.02225100       0.00884500       0.02333000
H        4.74655000       5.02717000      19.43988000  T      -0.01558800      -0.00658500       0.01296200
108
Lattice="12.515153631 0.0 0.0 0.0 12.515153631 0.0 0.0 0.0 25.30973" Properties=species:S:1:pos:R:3:move_mask:L:1:forces:R:3 stress="0.007476017215891709 -3.900943203677037e-06 0.0002771105221709649 -3.900943203677037e-06 0.008306044306997292 1.630282183680707e-05 0.0002771105221709649 1.630282183680707e-05 0.0019139899809977306" free_energy=-444.98795836 energy=-444.98555033 pbc="T T T"
Cu       1.25152000       1.25152000      10.00000000  F       0.00052900      -0.01395000      -0.07091800
Cu       3.75455000       1.25152000      10.00000000  F       0.00256600       0.00719800      -0.07349500
Cu       6.25758000       1.25152000      10.00000000  F       0.00159200       0.02652200      -0.05783100
Cu       8.76061000       1.25152000      10.00000000  F       0.00284800       0.01398000      -0.06196900
Cu      11.26364000       1.25152000      10.00000000  F      -0.00947300      -0.00545500      -0.07580800
Cu       1.25152000       3.75455000      10.00000000  F       0.00388300       0.01031100      -0.07403000
Cu       3.75455000       3.75455000      10.00000000  F       0.01358700      -0.01261200      -0.05340900
Cu       6.25758000       3.75455000      10.00000000  F      -0.00658600      -0.02394700      -0.08088500
Cu       8.76061000       3.75455000      10.00000000  F       0.00535900      -0.02055800      -0.08247900
Cu      11.26364000       3.75455000      10.00000000  F      -0.01340900       0.00356400      -0.05592900
Cu       1.25152000       6.25758000      10.00000000  F       0.00322000      -0.00900200      -0.07568800
Cu       3.75455000       6.25758000      10.00000000  F       0.01497200       0.01325900      -0.05417600
Cu       6.25758000       6.25758000      10.00000000  F      -0.00645800       0.02596700      -0.08442200
Cu       8.76061000       6.25758000      10.00000000  F       0.00389900       0.02117800      -0.08311900
Cu      11.26364000       6.25758000      10.00000000  F      -0.01282800      -0.00227600      -0.05741100
Cu       1.25152000       8.76061000      10.00000000  F       0.00077100       0.01051100      -0.06997200
Cu       3.75455000       8.76061000      10.00000000  F       0.00192500      -0.00953100      -0.07252600
Cu       6.25758000       8.76061000      10.00000000  F       0.00156600      -0.03074900      -0.05586400
Cu       8.76061000       8.76061000      10.00000000  F       0.00350900      -0.01629400      -0.06124000
Cu      11.26364000       8.76061000      10.00000000  F      -0.00967300       0.00217500      -0.07479000
Cu       1.25152000      11.26364000      10.00000000  F      -0.00215100       0.00173500      -0.01939900
Cu       3.75455000      11.26364000      10.00000000  F      -0.00747600       0.00136300      -0.06817100
Cu       6.25758000      11.26364000      10.00000000  F      -0.00627700       0.00184400      -0.07286200
Cu       8.76061000      11.26364000      10.00000000  F      -0.00020400       0.00133300      -0.06973500
Cu      11.26364000      11.26364000      10.00000000  F       0.00868000       0.00165400      -0.06853200
Cu       0.00000000       0.00000000      11.76991000  F      -0.01048900       0.04003200       0.07928100
Cu       2.50303000       0.00000000      11.76991000  F       0.04096600       0.03729900       0.05003100
Cu       5.00606000       0.00000000      11.76991000  F       0.05290900       0.10260200       0.05351500
Cu       7.50909000       0.00000000      11.76991000  F       0.02140000       0.07794900       0.05296100
Cu      10.01212000       0.00000000      11.76991000  F      -0.01221200       0.07802300       0.05892000
Cu       0.00000000       2.50303000      11.76991000  F      -0.06126600       0.03613200       0.06808600
Cu       2.50303000       2.50303000      11.76991000  F       0.07210600       0.03794300       0.06644500
Cu       5.00606000       2.50303000      11.76991000  F       0.00433200      -0.00200100       0.09358000
Cu       7.50909000       2.50303000      11.76991000  F      -0.03510200       0.01190400       0.08843400
Cu      10.01212000       2.50303000      11.76991000  F       0.06690500      -0.06975800      -0.00790400
Cu       0.00000000       5.00606000      11.76991000  F      -0.08995700       0.00056800       0.03968500
Cu       2.50303000       5.00606000      11.76991000  F       0.05762300      -0.00111100       0.03610500
Cu       5.00606000       5.00606000      11.76991000  F      -0.01900000       0.00158000       0.20829000
Cu       7.50909000       5.00606000      11.76991000  F      -0.06039800       0.00281900       0.12191400
Cu      10.01212000       5.00606000      11.76991000  F       0.04185400       0.00050800       0.00142700
Cu       0.00000000       7.50909000      11.76991000  F      -0.05886400      -0.04157700       0.06892800
Cu       2.50303000       7.50909000      11.76991000  F       0.07186900      -0.04158700       0.06514600
Cu       5.00606000       7.50909000      11.76991000  F       0.00821500       0.00028800       0.09387900
Cu       7.50909000       7.50909000      11.76991000  F      -0.03392800      -0.01358500       0.08884800
Cu      10.01212000       7.50909000      11.76991000  F       0.07134000       0.06870300      -0.00912300
Cu       0.00000000      10.01212000      11.76991000  F      -0.00889000      -0.03938900       0.07686600
Cu       2.50303000      10.01212000      11.76991000  F       0.04175400      -0.03656200       0.05013300
Cu       5.00606000      10.01212000      11.76991000  F       0.05356200      -0.09527900       0.05268200
Cu       7.50909000      10.01212000      11.76991000  F       0.02263600      -0.06909300       0.05087600
Cu      10.01212000      10.01212000      11.76991000  F      -0.01082100      -0.07391000       0.05691100
Cu       1.27119000       1.24530000      13.57527000  T      -0.00040600       0.00030100       0.00068000
Cu       3.79132000       1.26430000      13.59298000  T      -0.00128200       0.00044300       0.00054200
Cu       6.29607000       1.28537000      13.60429000  T      -0.00021700      -0.00035200       0.00081800
Cu       8.77999000       1.27923000      13.60314000  T      -0.00022500      -0.00054000       0.00129700
Cu      11.27029000       1.26522000      13.59976000  T      -0.00051600      -0.00005700       0.00076600
Cu       1.24513000       3.75715000      13.56750000  T      -0.00327400      -0.00050700      -0.00093400
Cu       3.76422000       3.76879000      13.60574000  T      -0.00285700       0.00068800       0.00044100
Cu       6.25580000       3.78717000      13.60116000  T      -0.00315200      -0.00025800       0.00206100
Cu       8.74444000       3.76805000      13.55098000  T      -0.00138200      -0.00177900      -0.00018100
Cu      11.22275000       3.75777000      13.59766000  T      -0.00198900      -0.00061100      -0.00041000
Cu       1.24595000       6.25319000      13.56751000  T      -0.00381500       0.00087500      -0.00093900
Cu       3.76548000       6.24263000      13.60393000  T      -0.00324100      -0.00045000       0.00080900
Cu       6.25764000       6.22698000      13.60106000  T      -0.00386700      -0.00036500       0.00213900
Cu       8.74618000       6.24462000      13.55036000  T      -0.00186500       0.00133300      -0.00005800
Cu      11.22415000       6.25451000      13.59737000  T      -0.00257000       0.00085700      -0.00014200
Cu       1.27206000       8.76462000      13.57546000  T      -0.00074800       0.00012900       0.00067300
Cu       3.79164000       8.74845000      13.59210000  T      -0.00129700      -0.00054000       0.00074600
Cu       6.29717000       8.73025000      13.60285000  T      -0.00066200      -0.00060800       0.00133800
Cu       8.78170000       8.73486000      13.60171000  T      -0.00079100      -0.00006300       0.00184500
Cu      11.27188000       8.74712000      13.59973000  T      -0.00091100       0.00037000       0.00095100
Cu       1.24482000      11.26294000      13.59378000  T       0.00030300       0.00017900      -0.00034200
Cu       3.73985000      11.26439000      13.56788000  T       0.00019900      -0.00005700      -0.00032500
Cu       6.25423000      11.26598000      13.55735000  T       0.00154000      -0.00058000       0.00004000
Cu       8.76301000      11.26474000      13.56471000  T       0.00152500      -0.00018300       0.00082500
Cu      11.27050000      11.26392000      13.57665000  T       0.00042500       0.00015400       0.00036300
Cu      12.50871000       0.00955000      15.36826000  T       0.00072000       0.00030300      -0.00077400
Cu       2.50726000      12.51908000      15.36250000  T       0.00023200       0.00084600       0.00018100
Cu       5.00650000      12.48319000      15.34356000  T       0.00055000      -0.00050300      -0.00099700
Cu       7.50936000      12.49449000      15.33701000  T       0.00121800      -0.00024400       0.00003500
Cu      10.00965000      12.49888000      15.35346000  T       0.00142000       0.00081800       0.00010600
Cu       0.08427000       2.51049000      15.35307000  T      -0.00206600       0.00066900       0.00007800
Cu       2.54788000       2.50167000      15.34678000  T      -0.00134100       0.00289800       0.00176700
Cu       5.02036000       2.42227000      15.43584000  T      -0.00356900      -0.00036900       0.00009900
Cu       7.62992000       2.49900000      15.44598000  T      -0.00448300       0.00106600       0.00009500
Cu      10.13896000       2.46162000      15.46419000  T      -0.00319200       0.00180200       0.00017900
Cu      12.41550000       5.00577000      15.33364000  T      -0.01327100      -0.00005000       0.00170100
Cu       2.29121000       5.00430000      15.42232000  T      -0.01717200       0.00044900       0.00358200
Pd       4.75348000       5.00911000      15.71313000  T      -0.00035300       0.00005000       0.00122300
Y        7.48388000       5.00918000      17.25708000  T      -0.00390100      -0.00027100       0.00073700
Cu       9.93798000       5.00706000      15.44621000  T      -0.00914300      -0.00011000      -0.00028600
Cu       0.08793000       7.50032000      15.35374000  T      -0.00366600      -0.00019600      -0.00019600
Cu       2.55138000       7.50575000      15.34628000  T      -0.00269000      -0.00189300       0.00182500
Cu       5.02221000       7.59460000      15.43294000  T      -0.00418600      -0.00119600       0.00113500
Cu       7.63580000       7.51827000      15.44352000  T      -0.00655000      -0.00336500       0.00053400
Cu      10.14339000       7.55161000      15.46418000  T      -0.00543400      -0.00170500       0.00023900
Cu      12.50885000      10.00320000      15.36814000  T       0.00118200       0.00035300      -0.00055100
Cu       2.50784000      10.00478000      15.36208000  T       0.00029400       0.00007500       0.00003900
Cu       5.00682000      10.04783000      15.34205000  T       0.00050200      -0.00065700      -0.00056500
Cu       7.50945000      10.03600000      15.33591000  T       0.00143400      -0.00100900       0.00032600
Cu      10.00935000      10.02792000      15.35307000  T       0.00188400       0.00004100       0.00002800
O        6.26253000       3.38005000      16.54148000  T      -0.00733200       0.00600400      -0.00345800
O        6.26781000       6.63562000      16.53202000  T      -0.00954000      -0.00657600       0.00060600
O        9.04543000       6.44170000      16.58504000  T      -0.01051200      -0.00089600      -0.00628900
O        9.04107000       3.57371000      16.58320000  T      -0.00874500      -0.00011800      -0.00540000
C        4.07315000       5.00655000      17.62208000  T      -0.02257700      -0.00007800       0.01309200
O        5.15285000       5.02859000      18.54408000  T      -0.02032200      -0.00801900       0.01198000
O        2.94049000       4.98518000      18.06952000  T      -0.02388000       0.00910700       0.02266200
H        4.74559000       5.02673000      19.44061000  T      -0.01535400      -0.00632100       0.01200800
108
Lattice="12.515153631 0.0 0.0 0.0 12.515153631 0.0 0.0 0.0 25.30973" Properties=species:S:1:pos:R:3:move_mask:L:1:forces:R:3 stress="0.007419906048850017 -3.807320566788788e-06 0.0002752006203784446 -3.807320566788788e-06 0.00824857249096616 1.6265372782051773e-05 0.0002752006203784446 1.6265372782051773e-05 0.0018562372970559328" free_energy=-444.98789162 energy=-444.98548464 pbc="T T T"
Cu       1.25152000       1.25152000      10.00000000  F       0.00002500      -0.01409100      -0.07086800
Cu       3.75455000       1.25152000      10.00000000  F       0.00205800       0.00708400      -0.07353500
Cu       6.25758000       1.25152000      10.00000000  F       0.00119800       0.02641700      -0.05791500
Cu       8.76061000       1.25152000      10.00000000  F       0.00252100       0.01384700      -0.06198500
Cu      11.26364000       1.25152000      10.00000000  F      -0.00987700      -0.00560800      -0.07576500
Cu       1.25152000       3.75455000      10.00000000  F       0.00341700       0.01022000      -0.07411500
Cu       3.75455000       3.75455000      10.00000000  F       0.01309700      -0.01269500      -0.05353200
Cu       6.25758000       3.75455000      10.00000000  F      -0.00699900      -0.02403800      -0.08104900
Cu       8.76061000       3.75455000      10.00000000  F       0.00499500      -0.02066200      -0.08263700
Cu      11.26364000       3.75455000      10.00000000  F      -0.01381200       0.00345000      -0.05604200
Cu       1.25152000       6.25758000      10.00000000  F       0.00275800      -0.00890800      -0.07576400
Cu       3.75455000       6.25758000      10.00000000  F       0.01447300       0.01333500      -0.05428200
Cu       6.25758000       6.25758000      10.00000000  F      -0.00687800       0.02603300      -0.08459600
Cu       8.76061000       6.25758000      10.00000000  F       0.00353700       0.02125500      -0.08332400
Cu      11.26364000       6.25758000      10.00000000  F      -0.01322100      -0.00218700      -0.05753500
Cu       1.25152000       8.76061000      10.00000000  F       0.00027800       0.01065100      -0.06991200
Cu       3.75455000       8.76061000      10.00000000  F       0.00140300      -0.00941400      -0.07254700
Cu       6.25758000       8.76061000      10.00000000  F       0.00115600      -0.03063300      -0.05598000
Cu       8.76061000       8.76061000      10.00000000  F       0.00318100      -0.01614900      -0.06132500
Cu      11.26364000       8.76061000      10.00000000  F      -0.01006100       0.00233800      -0.07476600
Cu       1.25152000      11.26364000      10.00000000  F      -0.00267100       0.00173600      -0.01927200
Cu       3.75455000      11.26364000      10.00000000  F      -0.00799900       0.00136900      -0.06814600
Cu       6.25758000      11.26364000      10.00000000  F      -0.00667000       0.00185900      -0.07291600
Cu       8.76061000      11.26364000      10.00000000  F      -0.00052300       0.00135300      -0.06973000
Cu      11.26364000      11.26364000      10.00000000  F       0.00828700       0.00167200      -0.06839300
Cu       0.00000000       0.00000000      11.76991000  F      -0.01092000       0.03993000       0.07951200
Cu       2.50303000       0.00000000      11.76991000  F       0.04039000       0.03721300       0.05024800
Cu       5.00606000       0.00000000      11.76991000  F       0.05238400       0.10254000       0.05375500
Cu       7.50909000       0.00000000      11.76991000  F       0.02108200       0.07786300       0.05322200
Cu      10.01212000       0.00000000      11.76991000  F      -0.01249700       0.07792500       0.05917700
Cu       0.00000000       2.50303000      11.76991000  F      -0.06170400       0.03590700       0.06828900
Cu       2.50303000       2.50303000      11.76991000  F       0.07155800       0.03777700       0.06665100
Cu       5.00606000       2.50303000      11.76991000  F       0.00380100      -0.00212500       0.09384200
Cu       7.50909000       2.50303000      11.76991000  F      -0.03552200       0.01174300       0.08868100
Cu      10.01212000       2.50303000      11.76991000  F       0.06658000      -0.06997700      -0.00769600
Cu       0.00000000       5.00606000      11.76991000  F      -0.09039900       0.00056500       0.03985700
Cu       2.50303000       5.00606000      11.76991000  F       0.05709700      -0.00111300       0.03636000
Cu       5.00606000       5.00606000      11.76991000  F      -0.01953500       0.00156900       0.20855000
Cu       7.50909000       5.00606000      11.76991000  F      -0.06087100       0.00281300       0.12220400
Cu      10.01212000       5.00606000      11.76991000  F       0.04148400       0.00050700       0.00165000
Cu       0.00000000       7.50909000      11.76991000  F      -0.05932000      -0.04134700       0.06912700
Cu       2.50303000       7.50909000      11.76991000  F       0.07131600      -0.04142400       0.06535800
Cu       5.00606000       7.50909000      11.76991000  F       0.00768200       0.00040100       0.09413300
Cu       7.50909000       7.50909000      11.76991000  F      -0.03435300      -0.01343100       0.08910400
Cu      10.01212000       7.50909000      11.76991000  F       0.07100400       0.06892300      -0.00890800
Cu       0.00000000      10.01212000      11.76991000  F      -0.00933600      -0.03927200       0.07710100
Cu       2.50303000      10.01212000      11.76991000  F       0.04117700      -0.03646000       0.05035100
Cu       5.00606000      10.01212000      11.76991000  F       0.05304000      -0.09521200       0.05292400
Cu       7.50909000      10.01212000      11.76991000  F       0.02231300      -0.06901600       0.05114200
Cu      10.01212000      10.01212000      11.76991000  F      -0.01111300      -0.07380900       0.05717300
Cu       1.27119000       1.24531000      13.57528000  T      -0.00091500       0.00007200       0.00044800
Cu       3.79130000       1.26431000      13.59299000  T      -0.00123300      -0.00000100       0.00058100
Cu       6.29606000       1.28537000      13.60430000  T      -0.00025700      -0.00058500       0.00080100
Cu       8.77999000       1.27923000      13.60316000  T      -0.00052600      -0.00046000       0.00168200
Cu      11.27029000       1.26522000      13.59977000  T      -0.00083900      -0.00026400       0.00092400
Cu       1.24510000       3.75714000      13.56749000  T      -0.00267200      -0.00041800      -0.00040500
Cu       3.76419000       3.76879000      13.60574000  T      -0.00260100       0.00022100       0.00084800
Cu       6.25577000       3.78716000      13.60118000  T      -0.00250000      -0.00064300       0.00187700
Cu       8.74443000       3.76803000      13.55098000  T      -0.00081900      -0.00162500       0.00102300
Cu      11.22273000       3.75776000      13.59766000  T      -0.00196900      -0.00049500       0.00040600
Cu       1.24591000       6.25320000      13.56751000  T      -0.00304900       0.00064700      -0.00048600
Cu       3.76544000       6.24263000      13.60394000  T      -0.00285200      -0.00009700       0.00101500
Cu       6.25760000       6.22698000      13.60108000  T      -0.00300000       0.00021100       0.00191700
Cu       8.74616000       6.24463000      13.55036000  T      -0.00113900       0.00136500       0.00105200
Cu      11.22413000       6.25452000      13.59737000  T      -0.00234600       0.00068600       0.00053100
Cu       1.27206000       8.76462000      13.57547000  T      -0.00116300       0.00020100       0.00051700
Cu       3.79162000       8.74844000      13.59210000  T      -0.00126600      -0.00012300       0.00068400
Cu       6.29717000       8.73025000      13.60286000  T      -0.00056400      -0.00004900       0.00109700
Cu       8.78169000       8.73486000      13.60173000  T      -0.00090200       0.00001100       0.00197500
Cu      11.27187000       8.74713000      13.59974000  T      -0.00114000       0.00042700       0.00104300
Cu       1.24482000      11.26295000      13.59378000  T      -0.00043400       0.00008700      -0.00003700
Cu       3.73985000      11.26439000      13.56788000  T      -0.00030800      -0.00008000      -0.00009900
Cu       6.25424000      11.26597000      13.55735000  T       0.00069200      -0.00037500       0.00004300
Cu       8.76302000      11.26473000      13.56472000  T       0.00062400      -0.00014600       0.00043600
Cu      11.27050000      11.26392000      13.57666000  T      -0.00035400       0.00006000       0.00023200
Cu      12.50872000       0.00955000      15.36825000  T      -0.00011400       0.00004200      -0.00056000
Cu       2.50726000      12.51909000      15.36250000  T      -0.00044500       0.00055000      -0.00001600
Cu       5.00650000      12.48319000      15.34355000  T      -0.00000100      -0.00035800      -0.00047800
Cu       7.50937000      12.49449000      15.33701000  T       0.00051500       0.00005700      -0.00028900
Cu      10.00967000      12.49889000      15.35347000  T       0.00059300       0.00037800      -0.00041600
Cu       0.08425000       2.51050000      15.35307000  T      -0.00195100       0.00021800       0.00001100
Cu       2.54786000       2.50170000      15.34680000  T      -0.00143000       0.00165000       0.00095800
Cu       5.02033000       2.42227000      15.43584000  T      -0.00283700      -0.00043800      -0.00036800
Cu       7.62988000       2.49901000      15.44598000  T      -0.00335900       0.00097400       0.00004700
Cu      10.13893000       2.46164000      15.46419000  T      -0.00275000       0.00098400      -0.00031700
Cu      12.41537000       5.00577000      15.33366000  T      -0.00997200      -0.00009000       0.00034500
Cu       2.29104000       5.00430000      15.42236000  T      -0.00976000       0.00027700       0.00274800
Pd       4.75347000       5.00911000      15.71314000  T       0.00064600      -0.00002000       0.00196200
Y        7.48384000       5.00918000      17.25708000  T      -0.00719000      -0.00081100       0.00215400
Cu       9.93789000       5.00706000      15.44620000  T      -0.00774800      -0.00007900       0.00073400
Cu       0.08789000       7.50032000      15.35374000  T      -0.00293400       0.00003900      -0.00014100
Cu       2.55136000       7.50574000      15.34630000  T      -0.00233800      -0.00108900       0.00099100
Cu       5.02216000       7.59458000      15.43295000  T      -0.00314100      -0.00048300       0.00027700
Cu       7.63574000       7.51824000      15.44353000  T      -0.00463700      -0.00252000       0.00037300
Cu      10.14334000       7.55159000      15.46418000  T      -0.00407800      -0.00100800      -0.00022200
Cu      12.50886000      10.00320000      15.36814000  T       0.00014300       0.00037300      -0.00055500
Cu       2.50785000      10.00478000      15.36208000  T      -0.00036000       0.00006500      -0.00004500
Cu       5.00683000      10.04782000      15.34204000  T       0.00000900      -0.00038400      -0.00023600
Cu       7.50946000      10.03600000      15.33591000  T       0.00068000      -0.00087400      -0.00012200
Cu      10.00937000      10.02792000      15.35307000  T       0.00081000       0.00010600      -0.00037400
O        6.26246000       3.38012000      16.54145000  T      -0.00625400       0.00428000      -0.00287600
O        6.26771000       6.63556000      16.53203000  T      -0.00794000      -0.00462200       0.00043800
O        9.04532000       6.44169000      16.58497000  T      -0.00862400      -0.00079900      -0.00488100
O        9.04099000       3.57371000      16.58315000  T      -0.00728000       0.00005500      -0.00418500
C        4.07292000       5.00655000      17.62222000  T      -0.02421600      -0.00010800       0.01295700
O        5.15264000       5.02851000      18.54420000  T      -0.01783300      -0.00721200       0.00852300
O        2.94025000       4.98528000      18.06974000  T      -0.01717800       0.00792500       0.01720000
H        4.74544000       5.02666000      19.44073000  T      -0.01650200      -0.00642400       0.01238500
