108
Lattice="12.515153631 0.0 0.0 0.0 12.515153631 0.0 0.0 0.0 25.30973" Properties=species:S:1:pos:R:3:move_mask:L:1:forces:R:3 stress="0.008138859243551384 -1.3856150259460834e-06 6.976134749999717e-05 -1.3856150259460834e-06 0.008452669839382542 3.183169654200462e-06 6.976134749999717e-05 3.183169654200462e-06 0.002848150410359552" free_energy=-444.10152976 energy=-444.09792404 pbc="T T T"
Cu       1.25152000       1.25152000      10.00000000  F      -0.00318200      -0.01702600      -0.06787700
Cu       3.75455000       1.25152000      10.00000000  F       0.00609700       0.00523200      -0.07141000
Cu       6.25758000       1.25152000      10.00000000  F      -0.01077400       0.02079600      -0.05943400
Cu       8.76061000       1.25152000      10.00000000  F       0.01640500       0.00957200      -0.05107200
Cu      11.26364000       1.25152000      10.00000000  F      -0.01064900      -0.00200200      -0.07482000
Cu       1.25152000       3.75455000      10.00000000  F      -0.00258900       0.00903300      -0.07046200
Cu       3.75455000       3.75455000      10.00000000  F       0.01307700      -0.01815700      -0.04961600
Cu       6.25758000       3.75455000      10.00000000  F      -0.01228200      -0.02041600      -0.07810900
Cu       8.76061000       3.75455000      10.00000000  F       0.01803400      -0.01445100      -0.08604800
Cu      11.26364000       3.75455000      10.00000000  F      -0.01241500       0.00260200      -0.06143900
Cu       1.25152000       6.25758000      10.00000000  F      -0.00313200      -0.00762400      -0.07207200
Cu       3.75455000       6.25758000      10.00000000  F       0.01446800       0.01883300      -0.05006000
Cu       6.25758000       6.25758000      10.00000000  F      -0.01235700       0.02241700      -0.08124900
Cu       8.76061000       6.25758000      10.00000000  F       0.01678500       0.01512300      -0.08669400
Cu      11.26364000       6.25758000      10.00000000  F      -0.01199200      -0.00116000      -0.06316700
Cu       1.25152000       8.76061000      10.00000000  F      -0.00293200       0.01367800      -0.06656300
Cu       3.75455000       8.76061000      10.00000000  F       0.00540000      -0.00756800      -0.07030200
Cu       6.25758000       8.76061000      10.00000000  F      -0.01080900      -0.02497000      -0.05735000
Cu       8.76061000       8.76061000      10.00000000  F       0.01712100      -0.01198100      -0.05018400
Cu      11.26364000       8.76061000      10.00000000  F      -0.01097200      -0.00144000      -0.07362800
Cu       1.25152000      11.26364000      10.00000000  F       0.00036900       0.00180000      -0.01559700
Cu       3.75455000      11.26364000      10.00000000  F      -0.00832600       0.00157400      -0.07420700
Cu       6.25758000      11.26364000      10.00000000  F      -0.00833300       0.00208300      -0.06134700
Cu       8.76061000      11.26364000      10.00000000  F       0.00504600       0.00159100      -0.07163400
Cu      11.26364000      11.26364000      10.00000000  F       0.00914100       0.00190800      -0.07114400
Cu       0.00000000       0.00000000      11.76991000  F      -0.02109000       0.03746300       0.14470500
Cu       2.50303000       0.00000000      11.76991000  F       0.02989800       0.02880000       0.10747300
Cu       5.00606000       0.00000000      11.76991000  F       0.04553800       0.08249100       0.10279400
Cu       7.50909000       0.00000000      11.76991000  F       0.03454300       0.05870500       0.09917400
Cu      10.01212000       0.00000000      11.76991000  F      -0.00628300       0.06905500       0.12125800
Cu       0.00000000       2.50303000      11.76991000  F      -0.07621800       0.02962200       0.12338300
Cu       2.50303000       2.50303000      11.76991000  F       0.05744500       0.01802200       0.09850100
Cu       5.00606000       2.50303000      11.76991000  F       0.00905700      -0.01697700       0.12155800
Cu       7.50909000       2.50303000      11.76991000  F      -0.04339600       0.02298900       0.15818100
Cu      10.01212000       2.50303000      11.76991000  F       0.07571500      -0.06164500       0.06449900
Cu       0.00000000       5.00606000      11.76991000  F      -0.10006500       0.00203600       0.09542500
Cu       2.50303000       5.00606000      11.76991000  F       0.05400500       0.00155600       0.09185200
Cu       5.00606000       5.00606000      11.76991000  F      -0.02681800       0.00177200       0.17945600
Cu       7.50909000       5.00606000      11.76991000  F      -0.06975200       0.00124600       0.17516500
Cu      10.01212000       5.00606000      11.76991000  F       0.04982100       0.00048500       0.07647800
Cu       0.00000000       7.50909000      11.76991000  F      -0.07584000      -0.03251400       0.12482100
Cu       2.50303000       7.50909000      11.76991000  F       0.05754500      -0.02038500       0.09920200
Cu       5.00606000       7.50909000      11.76991000  F       0.01045600       0.01130100       0.12353900
Cu       7.50909000       7.50909000      11.76991000  F      -0.04254900      -0.02790400       0.15864600
Cu      10.01212000       7.50909000      11.76991000  F       0.07749700       0.05922300       0.06435200
Cu       0.00000000      10.01212000      11.76991000  F      -0.02124600      -0.03539100       0.14168200
Cu       2.50303000      10.01212000      11.76991000  F       0.03120900      -0.02700500       0.10627500
Cu       5.00606000      10.01212000      11.76991000  F       0.04529300      -0.08133500       0.10036300
Cu       7.50909000      10.01212000      11.76991000  F       0.03545100      -0.05829000       0.09663600
Cu      10.01212000      10.01212000      11.76991000  F      -0.00645700      -0.06891400       0.12050800
Cu       1.26567000       1.24295000      13.59045000  T      -0.00257400      -0.01501500      -0.00723000
Cu       3.78163000       1.25612000      13.60524000  T      -0.01276500      -0.00881200      -0.01901300
Cu       6.29322000       1.27610000      13.61156000  T       0.00171700       0.00493200       0.00042200
Cu       8.78023000       1.27456000      13.61430000  T      -0.00131500      -0.00173900      -0.00212000
Cu      11.26885000       1.26566000      13.61589000  T       0.01393300      -0.01491400      -0.01618300
Cu       1.23711000       3.75249000      13.57785000  T      -0.00007900       0.00316900      -0.01066200
Cu       3.75750000       3.75410000      13.60328000  T      -0.02493800       0.00099500      -0.00817200
Cu       6.25744000       3.77876000      13.60484000  T      -0.00766700       0.01307100      -0.02920600
Cu       8.74735000       3.76698000      13.56361000  T      -0.00377400      -0.00084900      -0.04751900
Cu      11.22354000       3.76238000      13.61684000  T       0.00073600      -0.00275900       0.00117900
Cu       1.23747000       6.26045000      13.57774000  T      -0.00149200      -0.00232900      -0.00995900
Cu       3.75793000       6.25727000      13.60363000  T      -0.02513800      -0.00098200      -0.00849500
Cu       6.25830000       6.23218000      13.60466000  T      -0.00759800      -0.01461000      -0.02867200
Cu       8.74822000       6.24463000      13.56343000  T      -0.00341800      -0.00128200      -0.04751400
Cu      11.22406000       6.24965000      13.61676000  T      -0.00099200       0.00148300      -0.00001800
Cu       1.26582000       8.77001000      13.59044000  T      -0.00284800       0.01200300      -0.00726500
Cu       3.78172000       8.75587000      13.60480000  T      -0.01279400       0.00754400      -0.01775900
Cu       6.29381000       8.73525000      13.61123000  T       0.00103200      -0.00204200       0.00075000
Cu       8.78089000       8.73708000      13.61421000  T      -0.00140600       0.00540400      -0.00104400
Cu      11.26923000       8.74604000      13.61621000  T       0.01262200       0.01626400      -0.01517500
Cu       1.24772000      11.26403000      13.61215000  T      -0.01347600       0.00175600      -0.00724800
Cu       3.74079000      11.26360000      13.58285000  T      -0.01859600       0.00156500       0.00083500
Cu       6.25589000      11.26325000      13.57232000  T      -0.00003800       0.00277100      -0.00737300
Cu       8.76588000      11.26335000      13.58196000  T      -0.00553600       0.00183800      -0.00794600
Cu      11.27019000      11.26340000      13.59234000  T       0.02538300       0.00147800      -0.00589300
Cu      12.51058000       0.00591000      15.40417000  T       0.00444500       0.00441500      -0.08698300
Cu       2.50745000       0.00632000      15.39900000  T       0.00230500       0.00657300      -0.08250900
Cu       5.00506000      12.47897000      15.36911000  T       0.01468200      -0.00137800      -0.04860300
Cu       7.51011000      12.49363000      15.36056000  T      -0.00409000      -0.00181000      -0.05611600
Cu      10.01316000      12.49926000      15.38356000  T      -0.01100200      -0.00051800      -0.06040300
Cu       0.06765000       2.50467000      15.37916000  T       0.01541600       0.00996100      -0.04024700
Cu       2.53121000       2.50712000      15.37401000  T      -0.00061800       0.00733800      -0.04941400
Cu       4.99560000       2.40927000      15.44046000  T      -0.04513700      -0.05871800      -0.07826300
Cu       7.61643000       2.49589000      15.46055000  T       0.05366700      -0.08325200      -0.12767300
Cu      10.12328000       2.46317000      15.48223000  T       0.03980700      -0.05035000      -0.07123800
Cu      12.44797000       5.00638000      15.36468000  T      -0.00944600       0.00339200      -0.06082200
Cu       2.35550000       5.00686000      15.38681000  T      -0.04871300       0.00142700      -0.04201500
Pd       4.83803000       5.00364000      15.60024000  T      -0.01502000       0.00443800      -0.04580200
Y        7.41645000       5.00549000      17.29152000  T      -0.12185400       0.00103300       0.13283700
Cu       9.93589000       5.00530000      15.49235000  T       0.10205400       0.00131300      -0.16751300
Cu       0.06873000       7.50790000      15.37952000  T       0.01400600      -0.01570600      -0.03908000
Cu       2.53184000       7.50664000      15.37383000  T      -0.00163300      -0.01502400      -0.04854000
Cu       4.99606000       7.60017000      15.43812000  T      -0.04540300       0.06434300      -0.08045600
Cu       7.61821000       7.51564000      15.45995000  T       0.05357500       0.08235900      -0.12584500
Cu      10.12442000       7.54725000      15.48294000  T       0.03803200       0.05107300      -0.07084200
Cu      12.51053000      10.00676000      15.40431000  T       0.00441100      -0.00331700      -0.08685300
Cu       2.50738000      10.00734000      15.39893000  T       0.00294900      -0.00601500      -0.08326000
Cu       5.00505000      10.04595000      15.36880000  T       0.01656800      -0.00026000      -0.04835900
Cu       7.51012000      10.03289000      15.36052000  T      -0.00370500      -0.00392400      -0.05643100
Cu      10.01303000      10.02652000      15.38382000  T      -0.01193100      -0.00145900      -0.06121700
O        6.23065000       3.38295000      16.49246000  T      -0.11566800       0.02968600       0.08449900
O        6.23205000       6.62558000      16.48740000  T      -0.11224000      -0.02379300       0.07924800
O        9.01240000       6.43399000      16.55881000  T       0.04350300       0.09741200       0.12438300
O        9.01150000       3.57622000      16.55808000  T       0.04376700      -0.09544400       0.12435500
C        5.19017000       5.02441000      18.61100000  T      -0.25895400       0.01456800       0.59149500
O        4.90772000       5.05624000      19.97057000  T       0.45567900      -0.02289200      -0.66584300
O        4.17128000       5.01778000      17.87296000  T       0.14901000      -0.00033500       0.20409200
H        3.92697000       5.06871000      20.04223000  T      -0.28240100       0.00207300       0.08425900
108
Lattice="12.515153631 0.0 0.0 0.0 12.515153631 0.0 0.0 0.0 25.30973" Properties=species:S:1:pos:R:3:move_mask:L:1:forces:R:3 stress="0.008226190439240742 -3.0770639990604465e-06 2.293130452849509e-05 -3.0770639990604465e-06 0.008483446720882273 -2.2094942305626736e-06 2.293130452849509e-05 -2.2094942305626736e-06 0.0025134869325388175" free_energy=-444.12713301 energy=-444.12361166 pbc="T T T"
Cu       1.25152000       1.25152000      10.00000000  F      -0.00338000      -0.01728200      -0.06798300
Cu       3.75455000       1.25152000      10.00000000  F       0.00591600       0.00499100      -0.07143200
Cu       6.25758000       1.25152000      10.00000000  F      -0.01149200       0.02072100      -0.05923100
Cu       8.76061000       1.25152000      10.00000000  F       0.01610300       0.00947500      -0.05001300
Cu      11.26364000       1.25152000      10.00000000  F      -0.01046400      -0.00232800      -0.07509400
Cu       1.25152000       3.75455000      10.00000000  F      -0.00257300       0.00875900      -0.07056400
Cu       3.75455000       3.75455000      10.00000000  F       0.01297000      -0.01783200      -0.04998700
Cu       6.25758000       3.75455000      10.00000000  F      -0.01286700      -0.02020200      -0.07864600
Cu       8.76061000       3.75455000      10.00000000  F       0.01759500      -0.01430900      -0.08606100
Cu      11.26364000       3.75455000      10.00000000  F      -0.01254400       0.00227000      -0.06066100
Cu       1.25152000       6.25758000      10.00000000  F      -0.00311100      -0.00727000      -0.07222300
Cu       3.75455000       6.25758000      10.00000000  F       0.01436200       0.01858600      -0.05047000
Cu       6.25758000       6.25758000      10.00000000  F      -0.01293400       0.02227800      -0.08180700
Cu       8.76061000       6.25758000      10.00000000  F       0.01632200       0.01506800      -0.08671400
Cu      11.26364000       6.25758000      10.00000000  F      -0.01210300      -0.00074600      -0.06237800
Cu       1.25152000       8.76061000      10.00000000  F      -0.00313800       0.01402200      -0.06673600
Cu       3.75455000       8.76061000      10.00000000  F       0.00519800      -0.00724100      -0.07033100
Cu       6.25758000       8.76061000      10.00000000  F      -0.01151500      -0.02483800      -0.05715700
Cu       8.76061000       8.76061000      10.00000000  F       0.01684400      -0.01181800      -0.04914700
Cu      11.26364000       8.76061000      10.00000000  F      -0.01077900      -0.00103300      -0.07390400
Cu       1.25152000      11.26364000      10.00000000  F       0.00026900       0.00182200      -0.01707000
Cu       3.75455000      11.26364000      10.00000000  F      -0.00873500       0.00160400      -0.07496700
Cu       6.25758000      11.26364000      10.00000000  F      -0.00907700       0.00213300      -0.06140000
Cu       8.76061000      11.26364000      10.00000000  F       0.00509700       0.00162200      -0.07182000
Cu      11.26364000      11.26364000      10.00000000  F       0.00909600       0.00193100      -0.07087400
Cu       0.00000000       0.00000000      11.76991000  F      -0.02061800       0.03694600       0.13419500
Cu       2.50303000       0.00000000      11.76991000  F       0.02883000       0.02760000       0.09923200
Cu       5.00606000       0.00000000      11.76991000  F       0.04532100       0.08185600       0.09855100
Cu       7.50909000       0.00000000      11.76991000  F       0.03381400       0.05923300       0.09446800
Cu      10.01212000       0.00000000      11.76991000  F      -0.00635500       0.06779100       0.11652300
Cu       0.00000000       2.50303000      11.76991000  F      -0.07617100       0.02992500       0.11800300
Cu       2.50303000       2.50303000      11.76991000  F       0.05565300       0.01764200       0.09243700
Cu       5.00606000       2.50303000      11.76991000  F       0.00745600      -0.01671100       0.11843900
Cu       7.50909000       2.50303000      11.76991000  F      -0.04580300       0.02060200       0.15106600
Cu      10.01212000       2.50303000      11.76991000  F       0.07797500      -0.06375500       0.05822700
Cu       0.00000000       5.00606000      11.76991000  F      -0.10167900       0.00202500       0.09088600
Cu       2.50303000       5.00606000      11.76991000  F       0.05309200       0.00163200       0.08514500
Cu       5.00606000       5.00606000      11.76991000  F      -0.03162000       0.00179400       0.17302100
Cu       7.50909000       5.00606000      11.76991000  F      -0.07342700       0.00125700       0.16267400
Cu      10.01212000       5.00606000      11.76991000  F       0.05390500       0.00030900       0.06752200
Cu       0.00000000       7.50909000      11.76991000  F      -0.07604300      -0.03261600       0.11947700
Cu       2.50303000       7.50909000      11.76991000  F       0.05575700      -0.01991600       0.09306500
Cu       5.00606000       7.50909000      11.76991000  F       0.00899900       0.01121400       0.12062200
Cu       7.50909000       7.50909000      11.76991000  F      -0.04494800      -0.02533600       0.15213500
Cu      10.01212000       7.50909000      11.76991000  F       0.07951600       0.06164900       0.05834200
Cu       0.00000000      10.01212000      11.76991000  F      -0.02074400      -0.03481600       0.13169000
Cu       2.50303000      10.01212000      11.76991000  F       0.03009500      -0.02580300       0.09861500
Cu       5.00606000      10.01212000      11.76991000  F       0.04499100      -0.08042500       0.09654800
Cu       7.50909000      10.01212000      11.76991000  F       0.03467000      -0.05835900       0.09221300
Cu      10.01212000      10.01212000      11.76991000  F      -0.00649600      -0.06733500       0.11596200
Cu       1.26550000       1.24210000      13.58951000  T      -0.00126200      -0.00304600      -0.01866200
Cu       3.78073000       1.25546000      13.60340000  T      -0.00704900      -0.00517600      -0.02732800
Cu       6.29326000       1.27646000      13.61110000  T      -0.00037100       0.00473500      -0.01410500
Cu       8.78034000       1.27430000      13.61345000  T       0.00370400      -0.00277800      -0.02005600
Cu      11.26982000       1.26469000      13.61427000  T       0.00755600      -0.00643500      -0.02467200
Cu       1.23701000       3.75259000      13.57668000  T      -0.00266100      -0.00049600      -0.02027000
Cu       3.75584000       3.75423000      13.60251000  T      -0.01270300       0.00306600      -0.01092900
Cu       6.25680000       3.77952000      13.60294000  T      -0.00799000       0.00510300      -0.01520200
Cu       8.74706000       3.76691000      13.56044000  T      -0.00387300      -0.00098600      -0.02615400
Cu      11.22364000       3.76197000      13.61636000  T       0.00045800      -0.00714600      -0.01536600
Cu       1.23727000       6.26039000      13.57659000  T      -0.00356600       0.00065400      -0.02067900
Cu       3.75626000       6.25715000      13.60281000  T      -0.01298000      -0.00295700      -0.01203200
Cu       6.25768000       6.23134000      13.60281000  T      -0.00788000      -0.00525500      -0.01486300
Cu       8.74794000       6.24457000      13.56026000  T      -0.00394700       0.00007700      -0.02627100
Cu      11.22403000       6.24998000      13.61619000  T      -0.00090100       0.00681300      -0.01643800
Cu       1.26562000       8.77067000      13.58951000  T      -0.00153900       0.00163200      -0.01786600
Cu       3.78080000       8.75646000      13.60303000  T      -0.00784400       0.00503800      -0.02685900
Cu       6.29381000       8.73510000      13.61076000  T      -0.00056300      -0.00276400      -0.01502100
Cu       8.78100000       8.73757000      13.61342000  T       0.00348900       0.00444800      -0.02024800
Cu      11.27011000       8.74710000      13.61466000  T       0.00730300       0.00686300      -0.02407900
Cu       1.24691000      11.26412000      13.61109000  T      -0.00478600       0.00038300      -0.02191700
Cu       3.73961000      11.26369000      13.58247000  T      -0.00776100       0.00061400      -0.01327700
Cu       6.25577000      11.26344000      13.57135000  T      -0.00274900       0.00183300      -0.01953600
Cu       8.76560000      11.26347000      13.58097000  T      -0.00146500       0.00121900      -0.01942600
Cu      11.27166000      11.26350000      13.59149000  T       0.00767100       0.00080300      -0.01774600
Cu      12.51085000       0.00628000      15.39808000  T       0.00154500       0.00473600      -0.05945400
Cu       2.50767000       0.00680000      15.39312000  T       0.00334900       0.00532800      -0.05896700
Cu       5.00604000      12.47867000      15.36557000  T       0.00862500      -0.00487100      -0.03769500
Cu       7.50979000      12.49324000      15.35657000  T      -0.00314000      -0.00615000      -0.04064600
Cu      10.01243000      12.49899000      15.37918000  T      -0.00623100      -0.00555700      -0.04650100
Cu       0.06884000       2.50535000      15.37623000  T       0.01217300       0.00679400      -0.03109100
Cu       2.53099000       2.50768000      15.37045000  T      -0.00384200       0.00642200      -0.03728500
Cu       4.99351000       2.40633000      15.43577000  T      -0.00586400      -0.01057800      -0.03636400
Cu       7.61859000       2.49251000      15.45401000  T      -0.00476300       0.01101200      -0.02300200
Cu      10.12516000       2.46069000      15.47823000  T       0.00242100      -0.00625300      -0.02298200
Cu      12.44748000       5.00659000      15.36037000  T      -0.00373000       0.00129600      -0.04413700
Cu       2.35239000       5.00693000      15.38404000  T      -0.02305400      -0.00016300      -0.02527200
Pd       4.83724000       5.00393000      15.59859000  T      -0.00860800       0.00278200      -0.00688100
Y        7.40953000       5.00557000      17.29874000  T      -0.02489300       0.00088200       0.01512700
Cu       9.94037000       5.00536000      15.48300000  T      -0.00828300       0.00003800      -0.04597700
Cu       0.06980000       7.50683000      15.37667000  T       0.01082200      -0.01014500      -0.03059000
Cu       2.53155000       7.50556000      15.37034000  T      -0.00468200      -0.01141600      -0.03670000
Cu       4.99395000       7.60354000      15.43325000  T      -0.00637900       0.01457800      -0.03835500
Cu       7.62048000       7.51903000      15.45344000  T      -0.00232800      -0.00932100      -0.02453300
Cu      10.12618000       7.54978000      15.47898000  T       0.00242800       0.00754200      -0.02403100
Cu      12.51079000      10.00646000      15.39820000  T       0.00165200      -0.00428000      -0.06033800
Cu       2.50764000      10.00690000      15.39300000  T       0.00383400      -0.00514000      -0.06022200
Cu       5.00617000      10.04619000      15.36525000  T       0.01017900       0.00563200      -0.03869500
Cu       7.50983000      10.03290000      15.35651000  T      -0.00303400       0.00309600      -0.04101200
Cu      10.01223000      10.02666000      15.37938000  T      -0.00689100       0.00463400      -0.04686200
O        6.22330000       3.38356000      16.49645000  T      -0.04635400      -0.01149500       0.01024400
O        6.22492000       6.62536000      16.49106000  T      -0.04577300       0.01403100       0.00781700
O        9.01568000       6.44041000      16.56594000  T       0.02579800       0.04488800       0.03977200
O        9.01481000       3.56992000      16.56516000  T       0.02598200      -0.04403200       0.03868600
C        5.18785000       5.02468000      18.62451000  T       0.00262800      -0.00042100       0.03388300
O        4.91406000       5.05561000      19.95889000  T       0.05048300      -0.00260800       0.07090100
O        4.17351000       5.01770000      17.88147000  T      -0.00756100      -0.00149900       0.03567300
H        3.92619000       5.06857000      20.04680000  T       0.01397200      -0.00278700       0.04210300
108
Lattice="12.515153631 0.0 0.0 0.0 12.515153631 0.0 0.0 0.0 25.30973" Properties=species:S:1:pos:R:3:move_mask:L:1:forces:R:3 stress="0.00813765463229009 -3.457796055739325e-06 -8.088995827144703e-06 -3.457796055739325e-06 0.008381966024004537 -3.482762092242858e-06 -8.088995827144703e-06 -3.482762092242858e-06 0.002222220667670349" free_energy=-444.1373929 energy=-444.13398209 pbc="T T T"
Cu       1.25152000       1.25152000      10.00000000  F      -0.00306000      -0.01663000      -0.06808400
Cu       3.75455000       1.25152000      10.00000000  F       0.00636200       0.00528200      -0.07140100
Cu       6.25758000       1.25152000      10.00000000  F      -0.01184700       0.02071900      -0.05953800
Cu       8.76061000       1.25152000      10.00000000  F       0.01596500       0.00975800      -0.05089000
Cu      11.26364000       1.25152000      10.00000000  F      -0.01061900      -0.00173800      -0.07610600
Cu       1.25152000       3.75455000      10.00000000  F      -0.00238500       0.00876300      -0.07114900
Cu       3.75455000       3.75455000      10.00000000  F       0.01320700      -0.01749200      -0.05080600
Cu       6.25758000       3.75455000      10.00000000  F      -0.01336400      -0.01979000      -0.07943900
Cu       8.76061000       3.75455000      10.00000000  F       0.01761700      -0.01436900      -0.08606500
Cu      11.26364000       3.75455000      10.00000000  F      -0.01250000       0.00212400      -0.06128600
Cu       1.25152000       6.25758000      10.00000000  F      -0.00293900      -0.00723600      -0.07286800
Cu       3.75455000       6.25758000      10.00000000  F       0.01462500       0.01829400      -0.05133000
Cu       6.25758000       6.25758000      10.00000000  F      -0.01339900       0.02192300      -0.08265200
Cu       8.76061000       6.25758000      10.00000000  F       0.01630100       0.01518800      -0.08673000
Cu      11.26364000       6.25758000      10.00000000  F      -0.01205600      -0.00055800      -0.06301200
Cu       1.25152000       8.76061000      10.00000000  F      -0.00280500       0.01346000      -0.06686400
Cu       3.75455000       8.76061000      10.00000000  F       0.00561500      -0.00745600      -0.07029200
Cu       6.25758000       8.76061000      10.00000000  F      -0.01184900      -0.02479600      -0.05747200
Cu       8.76061000       8.76061000      10.00000000  F       0.01671600      -0.01203600      -0.05003400
Cu      11.26364000       8.76061000      10.00000000  F      -0.01093900      -0.00154100      -0.07492200
Cu       1.25152000      11.26364000      10.00000000  F       0.00066300       0.00186600      -0.01767600
Cu       3.75455000      11.26364000      10.00000000  F      -0.00816600       0.00164200      -0.07499900
Cu       6.25758000      11.26364000      10.00000000  F      -0.00931800       0.00218600      -0.06181700
Cu       8.76061000      11.26364000      10.00000000  F       0.00483300       0.00167000      -0.07261600
Cu      11.26364000      11.26364000      10.00000000  F       0.00868600       0.00197100      -0.07077300
Cu       0.00000000       0.00000000      11.76991000  F      -0.02005500       0.03769400       0.10607100
Cu       2.50303000       0.00000000      11.76991000  F       0.02849800       0.02691200       0.07271600
Cu       5.00606000       0.00000000      11.76991000  F       0.04618500       0.08292000       0.07761800
Cu       7.50909000       0.00000000      11.76991000  F       0.03264500       0.06357300       0.07524100
Cu      10.01212000       0.00000000      11.76991000  F      -0.00621600       0.06778400       0.09468900
Cu       0.00000000       2.50303000      11.76991000  F      -0.07730900       0.03104400       0.09430800
Cu       2.50303000       2.50303000      11.76991000  F       0.05609800       0.01990700       0.07054800
Cu       5.00606000       2.50303000      11.76991000  F       0.00683600      -0.01187600       0.10341900
Cu       7.50909000       2.50303000      11.76991000  F      -0.04898800       0.02120500       0.13282800
Cu      10.01212000       2.50303000      11.76991000  F       0.07824000      -0.06355600       0.03665000
Cu       0.00000000       5.00606000      11.76991000  F      -0.10781200       0.00174800       0.07211300
Cu       2.50303000       5.00606000      11.76991000  F       0.05404700       0.00139800       0.06435500
Cu       5.00606000       5.00606000      11.76991000  F      -0.03576900       0.00172800       0.15722600
Cu       7.50909000       5.00606000      11.76991000  F      -0.08039000       0.00122500       0.14261100
Cu      10.01212000       5.00606000      11.76991000  F       0.05614900      -0.00013000       0.04908900
Cu       0.00000000       7.50909000      11.76991000  F      -0.07751500      -0.03325100       0.09561100
Cu       2.50303000       7.50909000      11.76991000  F       0.05589200      -0.02184300       0.07074700
Cu       5.00606000       7.50909000      11.76991000  F       0.00849700       0.00674500       0.10563100
Cu       7.50909000       7.50909000      11.76991000  F      -0.04816800      -0.02591700       0.13411600
Cu      10.01212000       7.50909000      11.76991000  F       0.07954200       0.06192400       0.03666500
Cu       0.00000000      10.01212000      11.76991000  F      -0.02014500      -0.03568500       0.10430300
Cu       2.50303000      10.01212000      11.76991000  F       0.02945300      -0.02517500       0.07275700
Cu       5.00606000      10.01212000      11.76991000  F       0.04570700      -0.08074500       0.07621900
Cu       7.50909000      10.01212000      11.76991000  F       0.03349500      -0.06142400       0.07315700
Cu      10.01212000      10.01212000      11.76991000  F      -0.00617900      -0.06675200       0.09443600
Cu       1.26524000       1.24189000      13.58457000  T       0.00050400       0.00757100      -0.02018300
Cu       3.77957000       1.25471000      13.59694000  T       0.00531300       0.00598600      -0.01607200
Cu       6.29330000       1.27772000      13.60743000  T       0.00210300       0.00580900      -0.01395400
Cu       8.78097000       1.27421000      13.60889000  T      -0.00416900       0.01007800      -0.00691600
Cu      11.27104000       1.26381000      13.60848000  T      -0.00633100       0.00838800      -0.01303000
Cu       1.23630000       3.75252000      13.57154000  T      -0.00273500       0.00151500      -0.01698600
Cu       3.75347000       3.75502000      13.59980000  T       0.00465800       0.00406000      -0.00895600
Cu       6.25500000       3.78053000      13.59975000  T      -0.00293100      -0.00007300      -0.00139100
Cu       8.74611000       3.76661000      13.55527000  T      -0.00424800      -0.00061100       0.00442300
Cu      11.22331000       3.76046000      13.61249000  T      -0.00934800       0.00052900      -0.01196400
Cu       1.23637000       6.26045000      13.57131000  T      -0.00270400      -0.00244000      -0.01778600
Cu       3.75381000       6.25638000      13.59982000  T       0.00437200      -0.00412700      -0.00955200
Cu       6.25589000       6.23038000      13.59968000  T      -0.00313400       0.00135000      -0.00155500
Cu       8.74696000       6.24472000      13.55504000  T      -0.00447500       0.00111600       0.00405100
Cu      11.22343000       6.25143000      13.61208000  T      -0.00921800      -0.00055300      -0.01247200
Cu       1.26529000       8.77057000      13.58478000  T       0.00033800      -0.00823200      -0.01953500
Cu       3.77941000       8.75721000      13.59662000  T       0.00456300      -0.00550600      -0.01708100
Cu       6.29381000       8.73428000      13.60682000  T       0.00196900      -0.00501200      -0.01547700
Cu       8.78158000       8.73797000      13.60871000  T      -0.00415100      -0.01065300      -0.00855100
Cu      11.27130000       8.74804000      13.60900000  T      -0.00573700      -0.00862100      -0.01345600
Cu       1.24611000      11.26415000      13.60529000  T       0.00389200      -0.00086100      -0.02413300
Cu       3.73834000      11.26383000      13.57857000  T       0.00658900       0.00039900      -0.02189800
Cu       6.25518000      11.26385000      13.56616000  T       0.00018700       0.00085600      -0.02090300
Cu       8.76525000      11.26372000      13.57582000  T      -0.00232200       0.00001600      -0.02076000
Cu      11.27281000      11.26366000      13.58667000  T      -0.00686000       0.00001400      -0.02169100
Cu      12.51112000       0.00732000      15.38512000  T      -0.00060200       0.00203900      -0.02056200
Cu       2.50837000       0.00796000      15.38009000  T       0.00116700       0.00118600      -0.02356300
Cu       5.00775000      12.47783000      15.35692000  T      -0.00038200       0.00338400      -0.02194800
Cu       7.50926000      12.49240000      15.34742000  T       0.00168900       0.00835000      -0.02002100
Cu      10.01129000      12.49790000      15.36873000  T       0.00192800       0.00106500      -0.02248000
Cu       0.07105000       2.50674000      15.36913000  T      -0.00491300       0.00065500      -0.01727800
Cu       2.53029000       2.50901000      15.36200000  T       0.00092500       0.00113400      -0.01839800
Cu       4.99219000       2.40455000      15.42759000  T      -0.00007000       0.00933100      -0.01329800
Cu       7.61715000       2.49611000      15.44982000  T      -0.00918500       0.02697600       0.00897100
Cu      10.12539000       2.45956000      15.47317000  T      -0.00993100       0.00786200      -0.00478700
Cu      12.44598000       5.00677000      15.35045000  T      -0.01613700      -0.00203700      -0.01980600
Cu       2.34779000       5.00681000      15.37836000  T       0.00155900      -0.00158300      -0.01103000
Pd       4.83514000       5.00444000      15.59726000  T      -0.01449400       0.00071200       0.00292400
Y        7.40406000       5.00582000      17.29997000  T       0.00176700       0.00111900      -0.03311400
Cu       9.93637000       5.00547000      15.47477000  T      -0.04770800       0.00024300       0.02283200
Cu       0.07172000       7.50476000      15.36964000  T      -0.00527000      -0.00128400      -0.01809000
Cu       2.53066000       7.50319000      15.36199000  T       0.00075200      -0.00145400      -0.01858900
Cu       4.99254000       7.60617000      15.42471000  T       0.00023800      -0.00960900      -0.01267300
Cu       7.61953000       7.51573000      15.44893000  T      -0.00891200      -0.02743500       0.00807900
Cu      10.12632000       7.55107000      15.47371000  T      -0.01041200      -0.00776900      -0.00600600
Cu      12.51107000      10.00551000      15.38499000  T      -0.00025100      -0.00079500      -0.02197300
Cu       2.50853000      10.00575000      15.37972000  T       0.00217500      -0.00179700      -0.02318800
Cu       5.00821000      10.04736000      15.35629000  T      -0.00038100       0.00019300      -0.02367700
Cu       7.50932000      10.03322000      15.34725000  T       0.00170900      -0.00642300      -0.02099900
Cu      10.01093000      10.02760000      15.36883000  T       0.00183400      -0.00067100      -0.02244200
O        6.21415000       3.38140000      16.49835000  T       0.01494300       0.00535100      -0.00737900
O        6.21605000       6.62818000      16.49234000  T       0.01664300      -0.00458700      -0.00800200
O        9.02051000       6.44897000      16.57376000  T      -0.01672000      -0.02183400      -0.01392100
O        9.01963000       3.56141000      16.57288000  T      -0.01752700       0.02190300      -0.01347500
C        5.18916000       5.02456000      18.63389000  T       0.01681900      -0.00093200       0.02546900
O        4.92132000       5.05494000      19.97056000  T       0.03546700      -0.00221800       0.02546500
O        4.17330000       5.01745000      17.89353000  T       0.00665100       0.00025100       0.04567400
H        3.93346000       5.06783000      20.05862000  T       0.01242100      -0.00298000       0.05880800
108
Lattice="12.515153631 0.0 0.0 0.0 12.515153631 0.0 0.0 0.0 25.30973" Properties=species:S:1:pos:R:3:move_mask:L:1:forces:R:3 stress="0.008000903167341986 -3.6387998203899396e-06 -1.874949341415331e-05 -3.6387998203899396e-06 0.008242774128988214 -3.457796055739325e-06 -1.874949341415331e-05 -3.457796055739325e-06 0.002017954798507568" free_energy=-444.14705679 energy=-444.14367484 pbc="T T T"
Cu       1.25152000       1.25152000      10.00000000  F      -0.00334800      -0.01666400      -0.06690900
Cu       3.75455000       1.25152000      10.00000000  F       0.00638100       0.00518100      -0.07055300
Cu       6.25758000       1.25152000      10.00000000  F      -0.01141700       0.02050700      -0.05876700
Cu       8.76061000       1.25152000      10.00000000  F       0.01647500       0.00953200      -0.04979900
Cu      11.26364000       1.25152000      10.00000000  F      -0.01066600      -0.00184400      -0.07471000
Cu       1.25152000       3.75455000      10.00000000  F      -0.00268900       0.00865500      -0.07021600
Cu       3.75455000       3.75455000      10.00000000  F       0.01316400      -0.01755700      -0.05022700
Cu       6.25758000       3.75455000      10.00000000  F      -0.01301500      -0.01980300      -0.07876900
Cu       8.76061000       3.75455000      10.00000000  F       0.01810400      -0.01452600      -0.08480600
Cu      11.26364000       3.75455000      10.00000000  F      -0.01242600       0.00197000      -0.06012200
Cu       1.25152000       6.25758000      10.00000000  F      -0.00326800      -0.00711000      -0.07190300
Cu       3.75455000       6.25758000      10.00000000  F       0.01457100       0.01838000      -0.05071000
Cu       6.25758000       6.25758000      10.00000000  F      -0.01304400       0.02192800      -0.08197800
Cu       8.76061000       6.25758000      10.00000000  F       0.01680900       0.01533800      -0.08552200
Cu      11.26364000       6.25758000      10.00000000  F      -0.01196600      -0.00040400      -0.06190700
Cu       1.25152000       8.76061000      10.00000000  F      -0.00306300       0.01345700      -0.06560500
Cu       3.75455000       8.76061000      10.00000000  F       0.00562000      -0.00740100      -0.06941800
Cu       6.25758000       8.76061000      10.00000000  F      -0.01143400      -0.02461800      -0.05669300
Cu       8.76061000       8.76061000      10.00000000  F       0.01721200      -0.01183800      -0.04898600
Cu      11.26364000       8.76061000      10.00000000  F      -0.01097200      -0.00147400      -0.07345900
Cu       1.25152000      11.26364000      10.00000000  F       0.00031000       0.00182300      -0.01655800
Cu       3.75455000      11.26364000      10.00000000  F      -0.00809600       0.00159400      -0.07415500
Cu       6.25758000      11.26364000      10.00000000  F      -0.00880300       0.00215300      -0.06108200
Cu       8.76061000      11.26364000      10.00000000  F       0.00532500       0.00163000      -0.07155800
Cu      11.26364000      11.26364000      10.00000000  F       0.00859800       0.00194300      -0.06900000
Cu       0.00000000       0.00000000      11.76991000  F      -0.02082000       0.03842500       0.09720300
Cu       2.50303000       0.00000000      11.76991000  F       0.02850000       0.02727100       0.06350400
Cu       5.00606000       0.00000000      11.76991000  F       0.04715100       0.08412900       0.06940600
Cu       7.50909000       0.00000000      11.76991000  F       0.03339500       0.06579000       0.06817000
Cu      10.01212000       0.00000000      11.76991000  F      -0.00653000       0.06909800       0.08718400
Cu       0.00000000       2.50303000      11.76991000  F      -0.07885200       0.03141900       0.08582100
Cu       2.50303000       2.50303000      11.76991000  F       0.05688800       0.02114700       0.06287600
Cu       5.00606000       2.50303000      11.76991000  F       0.00762800      -0.00975700       0.09759200
Cu       7.50909000       2.50303000      11.76991000  F      -0.04871100       0.02261200       0.12730600
Cu      10.01212000       2.50303000      11.76991000  F       0.07704900      -0.06292000       0.02951500
Cu       0.00000000       5.00606000      11.76991000  F      -0.11089900       0.00161300       0.06528200
Cu       2.50303000       5.00606000      11.76991000  F       0.05475700       0.00126200       0.05735700
Cu       5.00606000       5.00606000      11.76991000  F      -0.03537500       0.00172400       0.15247400
Cu       7.50909000       5.00606000      11.76991000  F      -0.08131900       0.00123100       0.13920400
Cu      10.01212000       5.00606000      11.76991000  F       0.05467800      -0.00023800       0.04432300
Cu       0.00000000       7.50909000      11.76991000  F      -0.07908600      -0.03354600       0.08699500
Cu       2.50303000       7.50909000      11.76991000  F       0.05652000      -0.02303100       0.06286400
Cu       5.00606000       7.50909000      11.76991000  F       0.00926200       0.00468000       0.09965900
Cu       7.50909000       7.50909000      11.76991000  F      -0.04793900      -0.02738500       0.12835000
Cu      10.01212000       7.50909000      11.76991000  F       0.07840900       0.06133200       0.02930300
Cu       0.00000000      10.01212000      11.76991000  F      -0.02088300      -0.03658100       0.09554100
Cu       2.50303000      10.01212000      11.76991000  F       0.02933000      -0.02562000       0.06363000
Cu       5.00606000      10.01212000      11.76991000  F       0.04665300      -0.08169300       0.06812800
Cu       7.50909000      10.01212000      11.76991000  F       0.03422100      -0.06326400       0.06605900
Cu      10.01212000      10.01212000      11.76991000  F      -0.00640100      -0.06797500       0.08693200
Cu       1.26518000       1.24227000      13.58230000  T      -0.00006800       0.00620900      -0.01525500
Cu       3.77960000       1.25488000      13.59455000  T       0.00535000       0.00651500      -0.01084700
Cu       6.29344000       1.27833000      13.60579000  T       0.00247500       0.00566500      -0.00946000
Cu       8.78090000       1.27475000      13.60743000  T      -0.00508900       0.01072700      -0.00172000
Cu      11.27094000       1.26408000      13.60641000  T      -0.00711400       0.00812000      -0.00840800
Cu       1.23596000       3.75258000      13.56941000  T      -0.00251800       0.00224100      -0.01137900
Cu       3.75320000       3.75543000      13.59868000  T       0.00502400       0.00405700      -0.00634800
Cu       6.25444000       3.78076000      13.59898000  T      -0.00133800       0.00093600       0.00030100
Cu       8.74567000       3.76651000      13.55434000  T      -0.00422300       0.00093100       0.00589500
Cu      11.22269000       3.76014000      13.61091000  T      -0.01089400       0.00272100      -0.00690400
Cu       1.23600000       6.26033000      13.56911000  T      -0.00236000      -0.00351800      -0.01155000
Cu       3.75352000       6.25597000      13.59860000  T       0.00488900      -0.00411800      -0.00645500
Cu       6.25532000       6.23023000      13.59891000  T      -0.00169100       0.00026200      -0.00001300
Cu       8.74649000       6.24481000      13.55407000  T      -0.00442200      -0.00058400       0.00533300
Cu      11.22275000       6.25173000      13.61042000  T      -0.01043600      -0.00295000      -0.00700500
Cu       1.26521000       8.77009000      13.58259000  T      -0.00012500      -0.00726300      -0.01490900
Cu       3.77935000       8.75706000      13.59419000  T       0.00493900      -0.00605000      -0.01190800
Cu       6.29393000       8.73381000      13.60504000  T       0.00227300      -0.00499400      -0.01048300
Cu       8.78151000       8.73747000      13.60713000  T      -0.00499600      -0.01117100      -0.00310000
Cu      11.27123000       8.74778000      13.60694000  T      -0.00662700      -0.00815600      -0.00899800
Cu       1.24613000      11.26411000      13.60259000  T       0.00307900      -0.00086200      -0.01852600
Cu       3.73843000      11.26388000      13.57643000  T       0.00652100       0.00051100      -0.01781600
Cu       6.25508000      11.26399000      13.56379000  T       0.00199400       0.00096100      -0.01526500
Cu       8.76507000      11.26378000      13.57346000  T      -0.00239500      -0.00011300      -0.01580400
Cu      11.27266000      11.26370000      13.58433000  T      -0.00539600      -0.00003800      -0.01744000
Cu      12.51115000       0.00765000      15.38111000  T      -0.00009900       0.00094900      -0.01813800
Cu       2.50858000       0.00827000      15.37591000  T       0.00037900       0.00012400      -0.02010000
Cu       5.00809000      12.47783000      15.35379000  T      -0.00060500       0.00440400      -0.01933100
Cu       7.50925000      12.49268000      15.34428000  T       0.00230600       0.00919700      -0.01732500
Cu      10.01116000      12.49771000      15.36515000  T       0.00229200       0.00231000      -0.01907200
Cu       0.07125000       2.50707000      15.36659000  T      -0.00660700       0.00011700      -0.01533600
Cu       2.53016000       2.50935000      15.35911000  T       0.00059900       0.00053500      -0.01548600
Cu       4.99195000       2.40473000      15.42507000  T      -0.00058600       0.00826200      -0.00945200
Cu       7.61625000       2.49847000      15.44947000  T      -0.00396800       0.01501500       0.00216500
Cu      10.12486000       2.45977000      15.47180000  T      -0.00849400       0.00627000      -0.00441000
Cu      12.44473000       5.00670000      15.34716000  T      -0.01807600      -0.00216000      -0.01598900
Cu       2.34683000       5.00669000      15.37649000  T      -0.00141800      -0.00131900      -0.00986600
Pd       4.83409000       5.00454000      15.59732000  T      -0.01637800       0.00130400       0.00276900
Y        7.40295000       5.00593000      17.29842000  T      -0.00857800       0.00066200      -0.01622600
Cu       9.93277000       5.00551000      15.47429000  T      -0.03352200      -0.00002400       0.01563000
Cu       0.07183000       7.50425000      15.36706000  T      -0.00687700      -0.00056700      -0.01609500
Cu       2.53049000       7.50259000      15.35911000  T       0.00049700      -0.00042800      -0.01607800
Cu       4.99229000       7.60618000      15.42214000  T      -0.00072800      -0.00817100      -0.00919200
Cu       7.61876000       7.51342000      15.44845000  T      -0.00360800      -0.01587400       0.00107800
Cu      10.12574000       7.55091000      15.47222000  T      -0.00885100      -0.00609300      -0.00571400
Cu      12.51111000      10.00527000      15.38084000  T       0.00034800       0.00043100      -0.01917900
Cu       2.50883000      10.00540000      15.37550000  T       0.00139300      -0.00104900      -0.01965400
Cu       5.00863000      10.04763000      15.35299000  T      -0.00078600      -0.00140900      -0.02106700
Cu       7.50931000      10.03294000      15.34404000  T       0.00241500      -0.00703300      -0.01835600
Cu      10.01076000      10.02779000      15.36524000  T       0.00249200      -0.00176600      -0.01908500
O        6.21272000       3.38098000      16.49820000  T       0.01025400       0.00759400      -0.00635300
O        6.21477000       6.62880000      16.49200000  T       0.01122200      -0.00700600      -0.00619100
O        9.02080000       6.44985000      16.57473000  T      -0.01978500      -0.02245900      -0.01587200
O        9.01987000       3.56052000      16.57385000  T      -0.02088100       0.02328300      -0.01526100
C        5.19032000       5.02447000      18.63751000  T       0.01642700      -0.00063800       0.02654400
O        4.92447000       5.05465000      19.97475000  T       0.02683300      -0.00174500       0.03030800
O        4.17357000       5.01740000      17.89865000  T       0.01208400      -0.00001300       0.04024700
H        3.93648000       5.06748000      20.06458000  T       0.02746400      -0.00332300       0.05688800
108
Lattice="12.515153631 0.0 0.0 0.0 12.515153631 0.0 0.0 0.0 25.30973" Properties=species:S:1:pos:R:3:move_mask:L:1:forces:R:3 stress="0.007968709463270681 -3.5576602017534576e-06 -2.366156109622343e-05 -3.5576602017534576e-06 0.008216615964241638 -2.49036214122742e-06 -2.366156109622343e-05 -2.49036214122742e-06 0.001990629471554451" free_energy=-444.1416356 energy=-444.13824004 pbc="T T T"
Cu       1.25152000       1.25152000      10.00000000  F      -0.00309500      -0.01678000      -0.06763800
Cu       3.75455000       1.25152000      10.00000000  F       0.00661100       0.00508000      -0.07132600
Cu       6.25758000       1.25152000      10.00000000  F      -0.01123600       0.02036000      -0.05944100
Cu       8.76061000       1.25152000      10.00000000  F       0.01675300       0.00937000      -0.05038000
Cu      11.26364000       1.25152000      10.00000000  F      -0.01050300      -0.00189200      -0.07549000
Cu       1.25152000       3.75455000      10.00000000  F      -0.00246500       0.00865500      -0.07099800
Cu       3.75455000       3.75455000      10.00000000  F       0.01333800      -0.01770500      -0.05111600
Cu       6.25758000       3.75455000      10.00000000  F      -0.01277500      -0.01984200      -0.07961500
Cu       8.76061000       3.75455000      10.00000000  F       0.01832100      -0.01450100      -0.08542700
Cu      11.26364000       3.75455000      10.00000000  F      -0.01218600       0.00183800      -0.06094700
Cu       1.25152000       6.25758000      10.00000000  F      -0.00302000      -0.00717000      -0.07268500
Cu       3.75455000       6.25758000      10.00000000  F       0.01475100       0.01845900      -0.05165100
Cu       6.25758000       6.25758000      10.00000000  F      -0.01280100       0.02192300      -0.08287100
Cu       8.76061000       6.25758000      10.00000000  F       0.01699700       0.01524900      -0.08613100
Cu      11.26364000       6.25758000      10.00000000  F      -0.01173000      -0.00034000      -0.06270100
Cu       1.25152000       8.76061000      10.00000000  F      -0.00283300       0.01356500      -0.06648200
Cu       3.75455000       8.76061000      10.00000000  F       0.00585400      -0.00731700      -0.07025900
Cu       6.25758000       8.76061000      10.00000000  F      -0.01123900      -0.02446900      -0.05746700
Cu       8.76061000       8.76061000      10.00000000  F       0.01749200      -0.01167600      -0.04962100
Cu      11.26364000       8.76061000      10.00000000  F      -0.01080100      -0.00141300      -0.07435000
Cu       1.25152000      11.26364000      10.00000000  F       0.00057200       0.00184300      -0.01731000
Cu       3.75455000      11.26364000      10.00000000  F      -0.00789000       0.00161600      -0.07498400
Cu       6.25758000      11.26364000      10.00000000  F      -0.00849400       0.00214100      -0.06186100
Cu       8.76061000      11.26364000      10.00000000  F       0.00541500       0.00164300      -0.07211900
Cu      11.26364000      11.26364000      10.00000000  F       0.00884900       0.00194100      -0.06965300
Cu       0.00000000       0.00000000      11.76991000  F      -0.02188900       0.04002500       0.09322800
Cu       2.50303000       0.00000000      11.76991000  F       0.02931200       0.02873100       0.05818200
Cu       5.00606000       0.00000000      11.76991000  F       0.04859400       0.08618200       0.06342400
Cu       7.50909000       0.00000000      11.76991000  F       0.03465300       0.06832500       0.06338600
Cu      10.01212000       0.00000000      11.76991000  F      -0.00787000       0.07203800       0.08358400
Cu       0.00000000       2.50303000      11.76991000  F      -0.08081100       0.03248100       0.08176900
Cu       2.50303000       2.50303000      11.76991000  F       0.05801300       0.02262600       0.05842300
Cu       5.00606000       2.50303000      11.76991000  F       0.00914000      -0.00810600       0.09268200
Cu       7.50909000       2.50303000      11.76991000  F      -0.04731100       0.02507000       0.12428600
Cu      10.01212000       2.50303000      11.76991000  F       0.07444700      -0.06130800       0.02626600
Cu       0.00000000       5.00606000      11.76991000  F      -0.11318200       0.00146600       0.06132700
Cu       2.50303000       5.00606000      11.76991000  F       0.05548500       0.00110400       0.05320600
Cu       5.00606000       5.00606000      11.76991000  F      -0.03308900       0.00166700       0.14908000
Cu       7.50909000       5.00606000      11.76991000  F      -0.08072600       0.00113100       0.13930500
Cu      10.01212000       5.00606000      11.76991000  F       0.05093300      -0.00032000       0.04193300
Cu       0.00000000       7.50909000      11.76991000  F      -0.08084500      -0.03495300       0.08289500
Cu       2.50303000       7.50909000      11.76991000  F       0.05752000      -0.02478000       0.05834000
Cu       5.00606000       7.50909000      11.76991000  F       0.01062700       0.00297600       0.09448300
Cu       7.50909000       7.50909000      11.76991000  F      -0.04664100      -0.02990200       0.12494500
Cu      10.01212000       7.50909000      11.76991000  F       0.07608300       0.05945200       0.02583400
Cu       0.00000000      10.01212000      11.76991000  F      -0.02184800      -0.03816400       0.09142200
Cu       2.50303000      10.01212000      11.76991000  F       0.03006600      -0.02697100       0.05822900
Cu       5.00606000      10.01212000      11.76991000  F       0.04812900      -0.08327200       0.06217100
Cu       7.50909000      10.01212000      11.76991000  F       0.03539400      -0.06543500       0.06125100
Cu      10.01212000      10.01212000      11.76991000  F      -0.00765800      -0.07070200       0.08312700
Cu       1.26512000       1.24296000      13.58072000  T      -0.00090700       0.00305300      -0.00962700
Cu       3.78025000       1.25574000      13.59354000  T       0.00292200       0.00489100      -0.00752100
Cu       6.29367000       1.27899000      13.60481000  T       0.00093100       0.00471800      -0.00616600
Cu       8.78023000       1.27608000      13.60738000  T      -0.00259800       0.00721300      -0.00270500
Cu      11.26996000       1.26510000      13.60564000  T      -0.00520300       0.00526400      -0.00633700
Cu       1.23562000       3.75287000      13.56836000  T      -0.00297700       0.00159400      -0.00633500
Cu       3.75387000       3.75588000      13.59792000  T       0.00246500       0.00313500      -0.00487300
Cu       6.25441000       3.78090000      13.59905000  T      -0.00019400       0.00252100      -0.00036800
Cu       8.74512000       3.76678000      13.55510000  T      -0.00434500       0.00287400       0.00079300
Cu      11.22124000       3.76060000      13.61026000  T      -0.00926800       0.00209300      -0.00458000
Cu       1.23568000       6.25984000      13.56808000  T      -0.00284900      -0.00297600      -0.00591600
Cu       3.75416000       6.25550000      13.59785000  T       0.00222400      -0.00304700      -0.00484800
Cu       6.25524000       6.23022000      13.59893000  T      -0.00051100      -0.00145000      -0.00063800
Cu       8.74593000       6.24456000      13.55476000  T      -0.00423200      -0.00297500       0.00050200
Cu      11.22138000       6.25121000      13.60979000  T      -0.00874200      -0.00255000      -0.00420200
Cu       1.26515000       8.76927000      13.58103000  T      -0.00079600      -0.00425800      -0.00950500
Cu       3.77999000       8.75628000      13.59305000  T       0.00291700      -0.00437900      -0.00810900
Cu       6.29414000       8.73323000      13.60398000  T       0.00083000      -0.00394800      -0.00630800
Cu       8.78086000       8.73610000      13.60694000  T      -0.00253400      -0.00723100      -0.00321000
Cu      11.27030000       8.74677000      13.60608000  T      -0.00483800      -0.00502100      -0.00665800
Cu       1.24649000      11.26402000      13.60066000  T       0.00173700      -0.00058300      -0.01224400
Cu       3.73925000      11.26397000      13.57442000  T       0.00439200       0.00051400      -0.01201400
Cu       6.25544000      11.26412000      13.56229000  T       0.00334500       0.00086300      -0.00836700
Cu       8.76478000      11.26377000      13.57187000  T      -0.00086700      -0.00003000      -0.00898700
Cu      11.27204000      11.26371000      13.58245000  T      -0.00162700       0.00013500      -0.01146500
Cu      12.51113000       0.00767000      15.37924000  T       0.00070200       0.00003500      -0.01780200
Cu       2.50852000       0.00817000      15.37384000  T      -0.00001800      -0.00076500      -0.01864400
Cu       5.00793000      12.47845000      15.35162000  T       0.00033200       0.00341500      -0.01713100
Cu       7.50957000      12.49380000      15.34245000  T       0.00223700       0.00489100      -0.01446700
Cu      10.01150000      12.49810000      15.36318000  T       0.00216200       0.00217800      -0.01594700
Cu       0.07019000       2.50699000      15.36484000  T      -0.00641700       0.00002100      -0.01380900
Cu       2.53017000       2.50933000      15.35746000  T      -0.00102600       0.00053100      -0.01300700
Cu       4.99197000       2.40583000      15.42428000  T      -0.00164000       0.00426700      -0.00776500
Cu       7.61592000       2.49961000      15.44939000  T      -0.00337300       0.00405200      -0.00492600
Cu      10.12373000       2.46065000      15.47141000  T      -0.00634900       0.00491300      -0.00400300
Cu      12.44242000       5.00640000      15.34567000  T      -0.01488300      -0.00162700      -0.01088100
Cu       2.34640000       5.00653000      15.37532000  T      -0.00903000      -0.00082000      -0.00947400
Pd       4.83217000       5.00464000      15.59795000  T      -0.02828700       0.00151300       0.01312900
Y        7.40172000       5.00600000      17.29743000  T      -0.01263200       0.00034800       0.00602100
Cu       9.92956000       5.00550000      15.47577000  T      -0.01306000       0.00019500      -0.00122800
Cu       0.07075000       7.50428000      15.36521000  T      -0.00676800      -0.00078400      -0.01480100
Cu       2.53050000       7.50267000      15.35738000  T      -0.00096000      -0.00080300      -0.01376700
Cu       4.99230000       7.60510000      15.42141000  T      -0.00135400      -0.00348700      -0.00757000
Cu       7.61843000       7.51213000      15.44824000  T      -0.00353300      -0.00510100      -0.00575100
Cu      10.12458000       7.55005000      15.47168000  T      -0.00680100      -0.00467700      -0.00520400
Cu      12.51116000      10.00545000      15.37888000  T       0.00123900       0.00123300      -0.01848600
Cu       2.50890000      10.00538000      15.37352000  T       0.00093800      -0.00025100      -0.01842800
Cu       5.00843000      10.04737000      15.35063000  T       0.00025000      -0.00154700      -0.01842700
Cu       7.50964000      10.03215000      15.34209000  T       0.00225500      -0.00321600      -0.01528800
Cu      10.01115000      10.02750000      15.36326000  T       0.00245300      -0.00185700      -0.01622100
O        6.21339000       3.38168000      16.49696000  T      -0.00817700       0.00285400      -0.00480600
O        6.21551000       6.62814000      16.49086000  T      -0.00828000      -0.00151800      -0.00495300
O        9.01839000       6.44739000      16.57234000  T      -0.00834100      -0.00097600      -0.00635100
O        9.01729000       3.56301000      16.57150000  T      -0.00959400       0.00142900      -0.00575600
C        5.19223000       5.02443000      18.64097000  T       0.01761900       0.00011600       0.02943400
O        4.92834000       5.05442000      19.97872000  T       0.02982600      -0.00188000       0.03393300
O        4.17511000       5.01740000      17.90303000  T       0.00987300       0.00020000       0.03492700
H        3.94064000       5.06700000      20.07204000  T       0.03095200      -0.00323900       0.04687700
108
Lattice="12.515153631 0.0 0.0 0.0 12.515153631 0.0 0.0 0.0 25.30973" Properties=species:S:1:pos:R:3:move_mask:L:1:forces:R:3 stress="0.007895215693313406 -3.5763847291311073e-06 -3.380401342578373e-05 -3.5763847291311073e-06 0.008147441318599473 -2.409222522590938e-06 -3.380401342578373e-05 -2.409222522590938e-06 0.001894404125360709" free_energy=-444.14376911 energy=-444.14037053 pbc="T T T"
Cu       1.25152000       1.25152000      10.00000000  F      -0.00320900      -0.01661600      -0.06832200
Cu       3.75455000       1.25152000      10.00000000  F       0.00626000       0.00522900      -0.07182600
Cu       6.25758000       1.25152000      10.00000000  F      -0.01196800       0.02049000      -0.05991400
Cu       8.76061000       1.25152000      10.00000000  F       0.01610400       0.00953100      -0.05114400
Cu      11.26364000       1.25152000      10.00000000  F      -0.01093900      -0.00164900      -0.07650900
Cu       1.25152000       3.75455000      10.00000000  F      -0.00263400       0.00876100      -0.07147700
Cu       3.75455000       3.75455000      10.00000000  F       0.01298000      -0.01761600      -0.05140600
Cu       6.25758000       3.75455000      10.00000000  F      -0.01345900      -0.01964100      -0.08001000
Cu       8.76061000       3.75455000      10.00000000  F       0.01763900      -0.01430600      -0.08586900
Cu      11.26364000       3.75455000      10.00000000  F      -0.01262600       0.00188700      -0.06171400
Cu       1.25152000       6.25758000      10.00000000  F      -0.00319100      -0.00731600      -0.07317400
Cu       3.75455000       6.25758000      10.00000000  F       0.01441100       0.01834500      -0.05195600
Cu       6.25758000       6.25758000      10.00000000  F      -0.01346400       0.02174100      -0.08323200
Cu       8.76061000       6.25758000      10.00000000  F       0.01631400       0.01509600      -0.08652200
Cu      11.26364000       6.25758000      10.00000000  F      -0.01220000      -0.00038600      -0.06343500
Cu       1.25152000       8.76061000      10.00000000  F      -0.00296900       0.01340900      -0.06720500
Cu       3.75455000       8.76061000      10.00000000  F       0.00554400      -0.00747400      -0.07076400
Cu       6.25758000       8.76061000      10.00000000  F      -0.01192200      -0.02460900      -0.05789200
Cu       8.76061000       8.76061000      10.00000000  F       0.01682800      -0.01185600      -0.05032000
Cu      11.26364000       8.76061000      10.00000000  F      -0.01129000      -0.00166000      -0.07533100
Cu       1.25152000      11.26364000      10.00000000  F       0.00041200       0.00187100      -0.01818700
Cu       3.75455000      11.26364000      10.00000000  F      -0.00825100       0.00164200      -0.07567600
Cu       6.25758000      11.26364000      10.00000000  F      -0.00911200       0.00212300      -0.06254800
Cu       8.76061000      11.26364000      10.00000000  F       0.00467200       0.00161500      -0.07303600
Cu      11.26364000      11.26364000      10.00000000  F       0.00843400       0.00193600      -0.07059300
Cu       0.00000000       0.00000000      11.76991000  F      -0.02300300       0.04163300       0.08770300
Cu       2.50303000       0.00000000      11.76991000  F       0.02978000       0.03015600       0.05204500
Cu       5.00606000       0.00000000      11.76991000  F       0.04930200       0.08797400       0.05744000
Cu       7.50909000       0.00000000      11.76991000  F       0.03436600       0.07060800       0.05830900
Cu      10.01212000       0.00000000      11.76991000  F      -0.00984700       0.07427100       0.07883800
Cu       0.00000000       2.50303000      11.76991000  F      -0.08272500       0.03389900       0.07685800
Cu       2.50303000       2.50303000      11.76991000  F       0.05846600       0.02436200       0.05350300
Cu       5.00606000       2.50303000      11.76991000  F       0.00964300      -0.00590400       0.08768700
Cu       7.50909000       2.50303000      11.76991000  F      -0.04787500       0.02739000       0.12019100
Cu      10.01212000       2.50303000      11.76991000  F       0.07138200      -0.05943600       0.02151500
Cu       0.00000000       5.00606000      11.76991000  F      -0.11568000       0.00136300       0.05689600
Cu       2.50303000       5.00606000      11.76991000  F       0.05554400       0.00098300       0.04872300
Cu       5.00606000       5.00606000      11.76991000  F      -0.03218800       0.00168100       0.14512700
Cu       7.50909000       5.00606000      11.76991000  F      -0.08256900       0.00112000       0.13671900
Cu      10.01212000       5.00606000      11.76991000  F       0.04738300      -0.00034800       0.03750500
Cu       0.00000000       7.50909000      11.76991000  F      -0.08265500      -0.03667100       0.07815300
Cu       2.50303000       7.50909000      11.76991000  F       0.05788100      -0.02673900       0.05350300
Cu       5.00606000       7.50909000      11.76991000  F       0.01110500       0.00087100       0.08939700
Cu       7.50909000       7.50909000      11.76991000  F      -0.04725300      -0.03212100       0.12076900
Cu      10.01212000       7.50909000      11.76991000  F       0.07318600       0.05745700       0.02113000
Cu       0.00000000      10.01212000      11.76991000  F      -0.02290300      -0.03980400       0.08592100
Cu       2.50303000      10.01212000      11.76991000  F       0.03051800      -0.02833200       0.05218400
Cu       5.00606000      10.01212000      11.76991000  F       0.04895300      -0.08468200       0.05634900
Cu       7.50909000      10.01212000      11.76991000  F       0.03501400      -0.06748400       0.05628600
Cu      10.01212000      10.01212000      11.76991000  F      -0.00963000      -0.07282500       0.07834000
Cu       1.26499000       1.24344000      13.57927000  T      -0.00110800       0.00000700      -0.00389700
Cu       3.78064000       1.25646000      13.59240000  T      -0.00115300       0.00125300      -0.00468000
Cu       6.29375000       1.27969000      13.60386000  T      -0.00112900       0.00233000      -0.00304000
Cu       8.77978000       1.27713000      13.60694000  T      -0.00038300       0.00136200      -0.00425400
Cu      11.26919000       1.26588000      13.60468000  T      -0.00129600       0.00089000      -0.00443400
Cu       1.23519000       3.75309000      13.56737000  T      -0.00253800      -0.00003600      -0.00303300
Cu       3.75419000       3.75634000      13.59717000  T      -0.00143200       0.00191300      -0.00210400
Cu       6.25430000       3.78125000      13.59896000  T      -0.00168100       0.00276500      -0.00101600
Cu       8.74445000       3.76716000      13.55519000  T      -0.00360800       0.00179400      -0.00423500
Cu      11.21991000       3.76091000      13.60953000  T      -0.00367300      -0.00027000      -0.00316000
Cu       1.23528000       6.25940000      13.56713000  T      -0.00260500      -0.00072100      -0.00277200
Cu       3.75445000       6.25504000      13.59710000  T      -0.00154700      -0.00163500      -0.00215900
Cu       6.25508000       6.23001000      13.59879000  T      -0.00181000      -0.00206900      -0.00116300
Cu       8.74528000       6.24415000      13.55480000  T      -0.00347700      -0.00202800      -0.00434600
Cu      11.22012000       6.25082000      13.60910000  T      -0.00351800       0.00010200      -0.00295500
Cu       1.26504000       8.76864000      13.57960000  T      -0.00103400      -0.00074100      -0.00388000
Cu       3.78037000       8.75563000      13.59182000  T      -0.00096200      -0.00094700      -0.00482200
Cu       6.29421000       8.73266000      13.60300000  T      -0.00107300      -0.00167900      -0.00288600
Cu       8.78041000       8.73505000      13.60642000  T      -0.00045500      -0.00119300      -0.00421100
Cu      11.26958000       8.74603000      13.60506000  T      -0.00133900      -0.00053300      -0.00450800
Cu       1.24673000      11.26395000      13.59884000  T       0.00003800      -0.00020400      -0.00543000
Cu       3.73984000      11.26406000      13.57264000  T       0.00034800       0.00016700      -0.00437900
Cu       6.25582000      11.26425000      13.56100000  T       0.00117400       0.00035100      -0.00298900
Cu       8.76460000      11.26378000      13.57050000  T       0.00032400       0.00007100      -0.00284300
Cu      11.27177000      11.26374000      13.58075000  T       0.00110700       0.00016600      -0.00412100
Cu      12.51120000       0.00770000      15.37678000  T       0.00080800       0.00021500      -0.01246200
Cu       2.50850000       0.00809000      15.37123000  T       0.00029800      -0.00023200      -0.01263400
Cu       5.00794000      12.47894000      15.34922000  T       0.00099400       0.00036600      -0.00996100
Cu       7.50982000      12.49451000      15.34043000  T       0.00015500      -0.00070300      -0.00800100
Cu      10.01176000      12.49840000      15.36096000  T      -0.00007200       0.00044900      -0.00889000
Cu       0.06930000       2.50701000      15.36289000  T      -0.00271000       0.00072700      -0.00783100
Cu       2.53000000       2.50942000      15.35559000  T      -0.00254900       0.00139500      -0.00774500
Cu       4.99176000       2.40654000      15.42318000  T      -0.00396200      -0.00070800      -0.00635700
Cu       7.61536000       2.50031000      15.44874000  T      -0.00587600       0.00035700      -0.00503200
Cu      10.12278000       2.46135000      15.47083000  T      -0.00281500       0.00138700      -0.00316900
Cu      12.44032000       5.00617000      15.34409000  T      -0.00627300      -0.00039800      -0.00506100
Cu       2.34515000       5.00641000      15.37394000  T      -0.01094700      -0.00011100      -0.00557500
Pd       4.82979000       5.00475000      15.59903000  T      -0.00368400       0.00056200       0.00419500
Y        7.40030000       5.00605000      17.29771000  T      -0.00743300       0.00040900       0.00250900
Cu       9.92747000       5.00552000      15.47572000  T      -0.00194400       0.00008400      -0.00895300
Cu       0.06982000       7.50417000      15.36313000  T      -0.00295200      -0.00127400      -0.00855300
Cu       2.53034000       7.50254000      15.35542000  T      -0.00243800      -0.00203600      -0.00824100
Cu       4.99209000       7.60451000      15.42032000  T      -0.00371200       0.00192700      -0.00659600
Cu       7.61786000       7.51133000      15.44746000  T      -0.00580100      -0.00051800      -0.00557400
Cu      10.12359000       7.54940000      15.47093000  T      -0.00280800      -0.00070400      -0.00395500
Cu      12.51131000      10.00561000      15.37634000  T       0.00115500       0.00020300      -0.01271100
Cu       2.50899000      10.00534000      15.37096000  T       0.00071500      -0.00047800      -0.01266500
Cu       5.00840000      10.04717000      15.34804000  T       0.00101100      -0.00004100      -0.01049600
Cu       7.50989000      10.03169000      15.33996000  T       0.00012700       0.00098200      -0.00830400
Cu      10.01144000      10.02726000      15.36101000  T       0.00020300      -0.00051500      -0.00930100
O        6.21257000       3.38223000      16.49598000  T      -0.00943600       0.00327600      -0.00138400
O        6.21471000       6.62772000      16.48992000  T      -0.00984400      -0.00239800      -0.00153400
O        9.01663000       6.44658000      16.57097000  T      -0.00535800       0.00580800       0.00034700
O        9.01536000       3.56383000      16.57017000  T      -0.00599400      -0.00553100       0.00063700
C        5.19442000       5.02443000      18.64519000  T       0.00861300       0.00029300       0.01987900
O        4.93297000       5.05413000      19.98354000  T       0.03006300      -0.00162900       0.02387700
O        4.17660000       5.01742000      17.90821000  T       0.01044200       0.00073500       0.03326200
H        3.94567000       5.06647000      20.07989000  T       0.02629900      -0.00298200       0.04056500
108
Lattice="12.515153631 0.0 0.0 0.0 12.515153631 0.0 0.0 0.0 25.30973" Properties=species:S:1:pos:R:3:move_mask:L:1:forces:R:3 stress="0.0079195450958861 -3.5202111469981578e-06 -3.7424088718796015e-05 -3.5202111469981578e-06 0.008170497453310487 -2.602709305493319e-06 -3.7424088718796015e-05 -2.602709305493319e-06 0.0019067872794664613" free_energy=-444.15280707 energy=-444.14942275 pbc="T T T"
Cu       1.25152000       1.25152000      10.00000000  F      -0.00293700      -0.01704200      -0.06814900
Cu       3.75455000       1.25152000      10.00000000  F       0.00651400       0.00484500      -0.07182100
Cu       6.25758000       1.25152000      10.00000000  F      -0.01148100       0.02015300      -0.05994700
Cu       8.76061000       1.25152000      10.00000000  F       0.01677700       0.00910900      -0.05115800
Cu      11.26364000       1.25152000      10.00000000  F      -0.01040300      -0.00211700      -0.07638500
Cu       1.25152000       3.75455000      10.00000000  F      -0.00228500       0.00859400      -0.07165300
Cu       3.75455000       3.75455000      10.00000000  F       0.01331400      -0.01776100      -0.05166800
Cu       6.25758000       3.75455000      10.00000000  F      -0.01302700      -0.01980400      -0.08030000
Cu       8.76061000       3.75455000      10.00000000  F       0.01822500      -0.01453000      -0.08610000
Cu      11.26364000       3.75455000      10.00000000  F      -0.01212300       0.00166700      -0.06190200
Cu       1.25152000       6.25758000      10.00000000  F      -0.00289100      -0.00699900      -0.07324900
Cu       3.75455000       6.25758000      10.00000000  F       0.01463800       0.01858600      -0.05219900
Cu       6.25758000       6.25758000      10.00000000  F      -0.01305600       0.02186900      -0.08355200
Cu       8.76061000       6.25758000      10.00000000  F       0.01699000       0.01534600      -0.08678700
Cu      11.26364000       6.25758000      10.00000000  F      -0.01161000      -0.00004600      -0.06358400
Cu       1.25152000       8.76061000      10.00000000  F      -0.00269700       0.01374300      -0.06650300
Cu       3.75455000       8.76061000      10.00000000  F       0.00572100      -0.00716400      -0.07067100
Cu       6.25758000       8.76061000      10.00000000  F      -0.01147500      -0.02429900      -0.05794900
Cu       8.76061000       8.76061000      10.00000000  F       0.01756200      -0.01147900      -0.05033300
Cu      11.26364000       8.76061000      10.00000000  F      -0.01069200      -0.00129200      -0.07482600
Cu       1.25152000      11.26364000      10.00000000  F       0.00063300       0.00172900      -0.01747700
Cu       3.75455000      11.26364000      10.00000000  F      -0.00804600       0.00152200      -0.07543800
Cu       6.25758000      11.26364000      10.00000000  F      -0.00859500       0.00208800      -0.06246700
Cu       8.76061000      11.26364000      10.00000000  F       0.00538900       0.00153600      -0.07284400
Cu      11.26364000      11.26364000      10.00000000  F       0.00899000       0.00180900      -0.06979000
Cu       0.00000000       0.00000000      11.76991000  F      -0.02267400       0.04160900       0.08679400
Cu       2.50303000       0.00000000      11.76991000  F       0.03010700       0.03010200       0.05106600
Cu       5.00606000       0.00000000      11.76991000  F       0.04973600       0.08792900       0.05653400
Cu       7.50909000       0.00000000      11.76991000  F       0.03479900       0.07057500       0.05750500
Cu      10.01212000       0.00000000      11.76991000  F      -0.00943900       0.07412800       0.07806900
Cu       0.00000000       2.50303000      11.76991000  F      -0.08242600       0.03366500       0.07591200
Cu       2.50303000       2.50303000      11.76991000  F       0.05875900       0.02424600       0.05258400
Cu       5.00606000       2.50303000      11.76991000  F       0.00993800      -0.00597300       0.08678300
Cu       7.50909000       2.50303000      11.76991000  F      -0.04761500       0.02709700       0.11920600
Cu      10.01212000       2.50303000      11.76991000  F       0.07173000      -0.05968800       0.02048500
Cu       0.00000000       5.00606000      11.76991000  F      -0.11546200       0.00127000       0.05598300
Cu       2.50303000       5.00606000      11.76991000  F       0.05581600       0.00092400       0.04782500
Cu       5.00606000       5.00606000      11.76991000  F      -0.03202100       0.00164800       0.14396400
Cu       7.50909000       5.00606000      11.76991000  F      -0.08259900       0.00107100       0.13558700
Cu      10.01212000       5.00606000      11.76991000  F       0.04776000      -0.00041600       0.03643000
Cu       0.00000000       7.50909000      11.76991000  F      -0.08233000      -0.03650500       0.07723500
Cu       2.50303000       7.50909000      11.76991000  F       0.05816800      -0.02668200       0.05259900
Cu       5.00606000       7.50909000      11.76991000  F       0.01140300       0.00090600       0.08849500
Cu       7.50909000       7.50909000      11.76991000  F      -0.04701600      -0.03187000       0.11981100
Cu      10.01212000       7.50909000      11.76991000  F       0.07354500       0.05765000       0.02014300
Cu       0.00000000      10.01212000      11.76991000  F      -0.02255500      -0.03974900       0.08502200
Cu       2.50303000      10.01212000      11.76991000  F       0.03086800      -0.02828000       0.05121700
Cu       5.00606000      10.01212000      11.76991000  F       0.04941200      -0.08459000       0.05546500
Cu       7.50909000      10.01212000      11.76991000  F       0.03541100      -0.06739600       0.05550600
Cu      10.01212000      10.01212000      11.76991000  F      -0.00924400      -0.07263300       0.07758900
Cu       1.26494000       1.24348000      13.57904000  T      -0.00103000      -0.00051700      -0.00397000
Cu       3.78059000       1.25653000      13.59214000  T      -0.00111600       0.00096800      -0.00482100
Cu       6.29367000       1.27978000      13.60366000  T      -0.00072000       0.00216700      -0.00290200
Cu       8.77970000       1.27722000      13.60674000  T       0.00011700       0.00100200      -0.00426900
Cu      11.26910000       1.26594000      13.60445000  T      -0.00095200       0.00039700      -0.00448500
Cu       1.23510000       3.75310000      13.56717000  T      -0.00261600      -0.00038400      -0.00318900
Cu       3.75414000       3.75640000      13.59702000  T      -0.00153800       0.00177900      -0.00168100
Cu       6.25419000       3.78132000      13.59885000  T      -0.00106800       0.00221000      -0.00119300
Cu       8.74429000       3.76721000      13.55502000  T      -0.00351700       0.00152400      -0.00408000
Cu      11.21975000       3.76091000      13.60935000  T      -0.00363600      -0.00055800      -0.00314400
Cu       1.23518000       6.25936000      13.56694000  T      -0.00270600      -0.00052000      -0.00292500
Cu       3.75439000       6.25497000      13.59695000  T      -0.00165500      -0.00155700      -0.00173800
Cu       6.25497000       6.22995000      13.59868000  T      -0.00122400      -0.00160400      -0.00143700
Cu       8.74512000       6.24409000      13.55463000  T      -0.00331700      -0.00193100      -0.00429900
Cu      11.21997000       6.25081000      13.60893000  T      -0.00340000       0.00037700      -0.00293700
Cu       1.26500000       8.76858000      13.57937000  T      -0.00094400      -0.00042000      -0.00406300
Cu       3.78033000       8.75558000      13.59156000  T      -0.00094000      -0.00065600      -0.00505600
Cu       6.29413000       8.73259000      13.60280000  T      -0.00069800      -0.00142500      -0.00282600
Cu       8.78033000       8.73497000      13.60622000  T       0.00008000      -0.00084100      -0.00425000
Cu      11.26950000       8.74598000      13.60483000  T      -0.00092800      -0.00003900      -0.00466500
Cu       1.24674000      11.26395000      13.59855000  T       0.00030300      -0.00030300      -0.00570700
Cu       3.73985000      11.26407000      13.57238000  T       0.00076400       0.00019900      -0.00443100
Cu       6.25582000      11.26427000      13.56079000  T       0.00199800       0.00051100      -0.00293100
Cu       8.76455000      11.26379000      13.57030000  T       0.00125300       0.00011600      -0.00279800
Cu      11.27175000      11.26376000      13.58051000  T       0.00190700       0.00017800      -0.00426900
Cu      12.51120000       0.00772000      15.37637000  T       0.00132100      -0.00008600      -0.01369100
Cu       2.50850000       0.00810000      15.37080000  T       0.00068300      -0.00054600      -0.01365900
Cu       5.00793000      12.47897000      15.34883000  T       0.00146100       0.00021000      -0.01067600
Cu       7.50979000      12.49454000      15.34012000  T       0.00071200      -0.00088100      -0.00868200
Cu      10.01173000      12.49843000      15.36063000  T       0.00054400       0.00012500      -0.00987700
Cu       0.06918000       2.50703000      15.36258000  T      -0.00275400       0.00028100      -0.00831800
Cu       2.52989000       2.50946000      15.35528000  T      -0.00274400       0.00110500      -0.00820200
Cu       4.99161000       2.40656000      15.42290000  T      -0.00490800      -0.00167700      -0.00697100
Cu       7.61512000       2.50038000      15.44855000  T      -0.00630600      -0.00022400      -0.00553200
Cu      10.12260000       2.46143000      15.47066000  T      -0.00230000       0.00069300      -0.00375100
Cu      12.44006000       5.00615000      15.34385000  T      -0.00655100      -0.00048500      -0.00512000
Cu       2.34483000       5.00640000      15.37368000  T      -0.00887700      -0.00017900      -0.00505200
Pd       4.83003000       5.00475000      15.59880000  T      -0.03609900       0.00163700       0.02292000
Y        7.40002000       5.00606000      17.29769000  T      -0.01557800       0.00066900       0.00559300
Cu       9.92723000       5.00553000      15.47549000  T      -0.00199400       0.00005900      -0.00908000
Cu       0.06968000       7.50413000      15.36281000  T      -0.00294700      -0.00088900      -0.00920800
Cu       2.53024000       7.50249000      15.35509000  T      -0.00268500      -0.00180700      -0.00883700
Cu       4.99195000       7.60454000      15.42004000  T      -0.00480800       0.00293200      -0.00728100
Cu       7.61761000       7.51124000      15.44725000  T      -0.00651300      -0.00006300      -0.00595400
Cu      10.12341000       7.54934000      15.47074000  T      -0.00210000       0.00021400      -0.00470400
Cu      12.51132000      10.00562000      15.37592000  T       0.00170900       0.00058700      -0.01396200
Cu       2.50900000      10.00532000      15.37053000  T       0.00105300      -0.00020500      -0.01373400
Cu       5.00840000      10.04716000      15.34765000  T       0.00139100       0.00032100      -0.01125700
Cu       7.50986000      10.03169000      15.33964000  T       0.00071100       0.00138400      -0.00899200
Cu      10.01142000      10.02724000      15.36068000  T       0.00090300      -0.00009000      -0.01026900
O        6.21204000       3.38239000      16.49578000  T      -0.00756900       0.00369600       0.00015600
O        6.21416000       6.62762000      16.48971000  T      -0.00780400      -0.00329200       0.00030800
O        9.01631000       6.44684000      16.57083000  T      -0.00647100       0.00380300       0.00150600
O        9.01500000       3.56360000      16.57005000  T      -0.00688700      -0.00380700       0.00160700
C        5.19502000       5.02445000      18.64639000  T       0.01328500       0.00028700       0.01658200
O        4.93472000       5.05403000      19.98476000  T       0.03296500      -0.00133100       0.03815400
O        4.17695000       5.01746000      17.90994000  T       0.01192500       0.00077400       0.03404200
H        3.94756000       5.06628000      20.08247000  T       0.02531000      -0.00299300       0.03895200
108
Lattice="12.515153631 0.0 0.0 0.0 12.515153631 0.0 0.0 0.0 25.30973" Properties=species:S:1:pos:R:3:move_mask:L:1:forces:R:3 stress="0.00782082938755113 -3.694973402522889e-06 -7.093475121566322e-05 -3.694973402522889e-06 0.008072324756269468 -1.2607848434284183e-06 -7.093475121566322e-05 -1.2607848434284183e-06 0.0017671896863569565" free_energy=-444.14610374 energy=-444.14274802 pbc="T T T"
Cu       1.25152000       1.25152000      10.00000000  F      -0.00294000      -0.01651400      -0.06811200
Cu       3.75455000       1.25152000      10.00000000  F       0.00656600       0.00520100      -0.07164100
Cu       6.25758000       1.25152000      10.00000000  F      -0.01182800       0.02032100      -0.05964500
Cu       8.76061000       1.25152000      10.00000000  F       0.01638500       0.00955400      -0.05092800
Cu      11.26364000       1.25152000      10.00000000  F      -0.01083100      -0.00147100      -0.07637400
Cu       1.25152000       3.75455000      10.00000000  F      -0.00250000       0.00873800      -0.07126500
Cu       3.75455000       3.75455000      10.00000000  F       0.01324800      -0.01751500      -0.05157800
Cu       6.25758000       3.75455000      10.00000000  F      -0.01336000      -0.01945300      -0.08023600
Cu       8.76061000       3.75455000      10.00000000  F       0.01794600      -0.01435300      -0.08543200
Cu      11.26364000       3.75455000      10.00000000  F      -0.01249500       0.00170200      -0.06153500
Cu       1.25152000       6.25758000      10.00000000  F      -0.00304600      -0.00734600      -0.07292000
Cu       3.75455000       6.25758000      10.00000000  F       0.01467600       0.01820600      -0.05210900
Cu       6.25758000       6.25758000      10.00000000  F      -0.01336500       0.02150800      -0.08345700
Cu       8.76061000       6.25758000      10.00000000  F       0.01660100       0.01507500      -0.08608500
Cu      11.26364000       6.25758000      10.00000000  F      -0.01205700      -0.00027100      -0.06325400
Cu       1.25152000       8.76061000      10.00000000  F      -0.00267900       0.01329700      -0.06701600
Cu       3.75455000       8.76061000      10.00000000  F       0.00585400      -0.00747500      -0.07054900
Cu       6.25758000       8.76061000      10.00000000  F      -0.01179600      -0.02445300      -0.05761500
Cu       8.76061000       8.76061000      10.00000000  F       0.01708800      -0.01187800      -0.05011400
Cu      11.26364000       8.76061000      10.00000000  F      -0.01117000      -0.00184500      -0.07520900
Cu       1.25152000      11.26364000      10.00000000  F       0.00065300       0.00186100      -0.01811400
Cu       3.75455000      11.26364000      10.00000000  F      -0.00793400       0.00162400      -0.07558800
Cu       6.25758000      11.26364000      10.00000000  F      -0.00876400       0.00210000      -0.06241600
Cu       8.76061000      11.26364000      10.00000000  F       0.00480300       0.00160600      -0.07289200
Cu      11.26364000      11.26364000      10.00000000  F       0.00844300       0.00192800      -0.07012800
Cu       0.00000000       0.00000000      11.76991000  F      -0.02400400       0.04289200       0.07849900
Cu       2.50303000       0.00000000      11.76991000  F       0.02985500       0.03118600       0.04220500
Cu       5.00606000       0.00000000      11.76991000  F       0.05052200       0.08940500       0.04906700
Cu       7.50909000       0.00000000      11.76991000  F       0.03440100       0.07243800       0.05138700
Cu      10.01212000       0.00000000      11.76991000  F      -0.01086000       0.07503400       0.07155600
Cu       0.00000000       2.50303000      11.76991000  F      -0.08464400       0.03484200       0.06839400
Cu       2.50303000       2.50303000      11.76991000  F       0.05804900       0.02640700       0.04560600
Cu       5.00606000       2.50303000      11.76991000  F       0.00959200      -0.00277200       0.08082300
Cu       7.50909000       2.50303000      11.76991000  F      -0.04956700       0.02868300       0.11245100
Cu      10.01212000       2.50303000      11.76991000  F       0.06913400      -0.05794000       0.01297400
Cu       0.00000000       5.00606000      11.76991000  F      -0.11909900       0.00120800       0.04951100
Cu       2.50303000       5.00606000      11.76991000  F       0.05478800       0.00085600       0.04187600
Cu       5.00606000       5.00606000      11.76991000  F      -0.03281600       0.00174300       0.13757700
Cu       7.50909000       5.00606000      11.76991000  F      -0.08701800       0.00110200       0.12806200
Cu      10.01212000       5.00606000      11.76991000  F       0.04535900      -0.00043000       0.02921200
Cu       0.00000000       7.50909000      11.76991000  F      -0.08448800      -0.03798900       0.07007300
Cu       2.50303000       7.50909000      11.76991000  F       0.05735100      -0.02908700       0.04577400
Cu       5.00606000       7.50909000      11.76991000  F       0.01108500      -0.00203500       0.08253200
Cu       7.50909000       7.50909000      11.76991000  F      -0.04889600      -0.03323000       0.11330300
Cu      10.01212000       7.50909000      11.76991000  F       0.07104300       0.05582400       0.01301200
Cu       0.00000000      10.01212000      11.76991000  F      -0.02380600      -0.04110800       0.07693500
Cu       2.50303000      10.01212000      11.76991000  F       0.03052700      -0.02937900       0.04255600
Cu       5.00606000      10.01212000      11.76991000  F       0.05031500      -0.08560500       0.04812700
Cu       7.50909000      10.01212000      11.76991000  F       0.03500000      -0.06896200       0.04958600
Cu      10.01212000      10.01212000      11.76991000  F      -0.01064600      -0.07334100       0.07117700
Cu       1.26452000       1.24371000      13.57713000  T      -0.00149000       0.00040100      -0.00162100
Cu       3.78018000       1.25710000      13.59004000  T      -0.00119000       0.00016000      -0.00152600
Cu       6.29316000       1.28062000      13.60213000  T       0.00061800       0.00026100      -0.00040400
Cu       8.77915000       1.27791000      13.60513000  T      -0.00080600       0.00044400       0.00133900
Cu      11.26838000       1.26644000      13.60261000  T      -0.00152600       0.00021900      -0.00010000
Cu       1.23412000       3.75315000      13.56559000  T      -0.00271300       0.00014400      -0.00100300
Cu       3.75359000       3.75706000      13.59595000  T      -0.00140100       0.00090500       0.00211800
Cu       6.25340000       3.78200000      13.59810000  T      -0.00099000      -0.00114500       0.00083200
Cu       8.74287000       3.76761000      13.55368000  T      -0.00085800      -0.00174100       0.00211000
Cu      11.21826000       3.76088000      13.60790000  T      -0.00207800      -0.00010700      -0.00026000
Cu       1.23420000       6.25900000      13.56542000  T      -0.00255800      -0.00026400      -0.00138500
Cu       3.75383000       6.25434000      13.59588000  T      -0.00121400      -0.00078500       0.00196900
Cu       6.25414000       6.22947000      13.59790000  T      -0.00109900       0.00167400       0.00048600
Cu       8.74373000       6.24357000      13.55326000  T      -0.00083600       0.00172400       0.00181900
Cu      11.21853000       6.25074000      13.60755000  T      -0.00198400       0.00038700      -0.00044100
Cu       1.26461000       8.76811000      13.57749000  T      -0.00155900      -0.00099800      -0.00166400
Cu       3.77996000       8.75514000      13.58939000  T      -0.00124500      -0.00009200      -0.00197200
Cu       6.29363000       8.73200000      13.60129000  T       0.00075200      -0.00005500      -0.00092700
Cu       8.77975000       8.73434000      13.60461000  T      -0.00084300      -0.00082000       0.00088400
Cu      11.26879000       8.74562000      13.60294000  T      -0.00125000      -0.00020500      -0.00069300
Cu       1.24683000      11.26389000      13.59611000  T       0.00040700      -0.00024800      -0.00246900
Cu       3.74008000      11.26418000      13.57024000  T       0.00127400      -0.00000800      -0.00208600
Cu       6.25604000      11.26444000      13.55908000  T       0.00199500       0.00005100      -0.00250800
Cu       8.76445000      11.26385000      13.56874000  T       0.00233500      -0.00004000      -0.00129300
Cu      11.27180000      11.26386000      13.57855000  T      -0.00032500      -0.00000900      -0.00145700
Cu      12.51135000       0.00784000      15.37220000  T       0.00059200      -0.00007400      -0.00547800
Cu       2.50858000       0.00808000      15.36652000  T       0.00096900       0.00019000      -0.00443500
Cu       5.00804000      12.47921000      15.34521000  T       0.00070200       0.00017100      -0.00379400
Cu       7.50968000      12.49467000      15.33716000  T       0.00108200       0.00118700      -0.00311200
Cu      10.01161000      12.49867000      15.35746000  T       0.00098600      -0.00007700      -0.00411300
Cu       0.06796000       2.50724000      15.35971000  T      -0.00388700      -0.00024800      -0.00298900
Cu       2.52887000       2.50990000      15.35238000  T      -0.00393400       0.00094800      -0.00235900
Cu       4.99001000       2.40654000      15.42044000  T      -0.00394700       0.00167200      -0.00035500
Cu       7.61270000       2.50097000      15.44682000  T      -0.00773200       0.00423200       0.00163800
Cu      10.12111000       2.46208000      15.46921000  T      -0.00458200       0.00041300      -0.00178100
Cu      12.43747000       5.00596000      15.34181000  T      -0.00514400      -0.00023400      -0.00132900
Cu       2.34202000       5.00631000      15.37160000  T       0.00291000      -0.00024900       0.00165900
Pd       4.82834000       5.00484000      15.59933000  T      -0.02756100       0.00140500       0.01571200
Y        7.39748000       5.00623000      17.29787000  T       0.00373600       0.00087300      -0.00643900
Cu       9.92501000       5.00556000      15.47329000  T      -0.01284700       0.00014200       0.00538600
Cu       0.06837000       7.50377000      15.35976000  T      -0.00371200       0.00046700      -0.00323900
Cu       2.52926000       7.50188000      15.35207000  T      -0.00395500      -0.00092800      -0.00233000
Cu       4.99040000       7.60492000      15.41752000  T      -0.00422000      -0.00155400      -0.00003600
Cu       7.61517000       7.51054000      15.44540000  T      -0.00807700      -0.00394800       0.00074900
Cu      10.12190000       7.54893000      15.46905000  T      -0.00465600       0.00003200      -0.00198900
Cu      12.51158000      10.00568000      15.37169000  T       0.00085400      -0.00004400      -0.00519000
Cu       2.50919000      10.00512000      15.36622000  T       0.00109100      -0.00073500      -0.00499300
Cu       5.00852000      10.04718000      15.34389000  T       0.00068100       0.00097200      -0.00383900
Cu       7.50977000      10.03176000      15.33660000  T       0.00131700      -0.00085100      -0.00326100
Cu      10.01141000      10.02707000      15.35741000  T       0.00127100       0.00075300      -0.00446000
O        6.20796000       3.38387000      16.49457000  T       0.00143000       0.00192900      -0.00089400
O        6.20998000       6.62652000      16.48851000  T       0.00218300      -0.00198800      -0.00027100
O        9.01335000       6.44871000      16.57001000  T      -0.00624000      -0.00786300      -0.00408600
O        9.01182000       3.56190000      16.56937000  T      -0.00524900       0.00779900      -0.00421100
C        5.20081000       5.02460000      18.65625000  T       0.01332400      -0.00012000       0.01936800
O        4.94967000       5.05316000      19.99707000  T       0.02164600      -0.00224000       0.02773700
O        4.17994000       5.01781000      17.92478000  T       0.00757900       0.00084100       0.02624500
H        3.96326000       5.06471000      20.10332000  T       0.03329800      -0.00261400       0.02868400
108
Lattice="12.515153631 0.0 0.0 0.0 12.515153631 0.0 0.0 0.0 25.30973" Properties=species:S:1:pos:R:3:move_mask:L:1:forces:R:3 stress="0.007770429201359621 -3.626316802138173e-06 -8.394205623400395e-05 -3.626316802138173e-06 0.008030188328160631 -1.185886733917819e-06 -8.394205623400395e-05 -1.185886733917819e-06 0.001701229417914622" free_energy=-444.14697726 energy=-444.14364027 pbc="T T T"
Cu       1.25152000       1.25152000      10.00000000  F      -0.00333800      -0.01656700      -0.06854700
Cu       3.75455000       1.25152000      10.00000000  F       0.00644900       0.00519200      -0.07214700
Cu       6.25758000       1.25152000      10.00000000  F      -0.01170700       0.02018300      -0.06000000
Cu       8.76061000       1.25152000      10.00000000  F       0.01660800       0.00932500      -0.05115100
Cu      11.26364000       1.25152000      10.00000000  F      -0.01112900      -0.00161000      -0.07666200
Cu       1.25152000       3.75455000      10.00000000  F      -0.00282200       0.00874700      -0.07158400
Cu       3.75455000       3.75455000      10.00000000  F       0.01309100      -0.01744200      -0.05206200
Cu       6.25758000       3.75455000      10.00000000  F      -0.01338400      -0.01941900      -0.08085500
Cu       8.76061000       3.75455000      10.00000000  F       0.01805400      -0.01449000      -0.08568500
Cu      11.26364000       3.75455000      10.00000000  F      -0.01264200       0.00149200      -0.06197100
Cu       1.25152000       6.25758000      10.00000000  F      -0.00337200      -0.00729700      -0.07322200
Cu       3.75455000       6.25758000      10.00000000  F       0.01448200       0.01815400      -0.05261200
Cu       6.25758000       6.25758000      10.00000000  F      -0.01340400       0.02144400      -0.08413300
Cu       8.76061000       6.25758000      10.00000000  F       0.01673300       0.01518900      -0.08637800
Cu      11.26364000       6.25758000      10.00000000  F      -0.01217000      -0.00003200      -0.06369400
Cu       1.25152000       8.76061000      10.00000000  F      -0.00308000       0.01335900      -0.06740800
Cu       3.75455000       8.76061000      10.00000000  F       0.00568500      -0.00746100      -0.07106500
Cu       6.25758000       8.76061000      10.00000000  F      -0.01169000      -0.02428100      -0.05806200
Cu       8.76061000       8.76061000      10.00000000  F       0.01733300      -0.01161400      -0.05041300
Cu      11.26364000       8.76061000      10.00000000  F      -0.01141600      -0.00169600      -0.07550200
Cu       1.25152000      11.26364000      10.00000000  F       0.00015300       0.00184900      -0.01855500
Cu       3.75455000      11.26364000      10.00000000  F      -0.00808300       0.00164000      -0.07627800
Cu       6.25758000      11.26364000      10.00000000  F      -0.00842900       0.00213800      -0.06291900
Cu       8.76061000      11.26364000      10.00000000  F       0.00500600       0.00164100      -0.07314200
Cu      11.26364000      11.26364000      10.00000000  F       0.00809800       0.00193900      -0.07018700
Cu       0.00000000       0.00000000      11.76991000  F      -0.02532300       0.04352600       0.07328800
Cu       2.50303000       0.00000000      11.76991000  F       0.02929300       0.03178700       0.03680800
Cu       5.00606000       0.00000000      11.76991000  F       0.05124400       0.09043500       0.04450100
Cu       7.50909000       0.00000000      11.76991000  F       0.03507700       0.07364600       0.04735600
Cu      10.01212000       0.00000000      11.76991000  F      -0.01148500       0.07565500       0.06713600
Cu       0.00000000       2.50303000      11.76991000  F      -0.08629400       0.03516500       0.06383200
Cu       2.50303000       2.50303000      11.76991000  F       0.05749500       0.02782000       0.04182700
Cu       5.00606000       2.50303000      11.76991000  F       0.00924200      -0.00098300       0.07776200
Cu       7.50909000       2.50303000      11.76991000  F      -0.04995100       0.02923900       0.10878700
Cu      10.01212000       2.50303000      11.76991000  F       0.06754200      -0.05749900       0.00875200
Cu       0.00000000       5.00606000      11.76991000  F      -0.12138200       0.00113200       0.04557200
Cu       2.50303000       5.00606000      11.76991000  F       0.05416500       0.00078300       0.03883500
Cu       5.00606000       5.00606000      11.76991000  F      -0.03331500       0.00169000       0.13504500
Cu       7.50909000       5.00606000      11.76991000  F      -0.08891500       0.00097400       0.12543400
Cu      10.01212000       5.00606000      11.76991000  F       0.04370200      -0.00051500       0.02583600
Cu       0.00000000       7.50909000      11.76991000  F      -0.08602500      -0.03848200       0.06547900
Cu       2.50303000       7.50909000      11.76991000  F       0.05670700      -0.03061800       0.04189700
Cu       5.00606000       7.50909000      11.76991000  F       0.01064400      -0.00369000       0.07924400
Cu       7.50909000       7.50909000      11.76991000  F      -0.04924800      -0.03374300       0.10951000
Cu      10.01212000       7.50909000      11.76991000  F       0.06960600       0.05530100       0.00876300
Cu       0.00000000      10.01212000      11.76991000  F      -0.02500200      -0.04171200       0.07171800
Cu       2.50303000      10.01212000      11.76991000  F       0.02987400      -0.02995500       0.03719800
Cu       5.00606000      10.01212000      11.76991000  F       0.05106000      -0.08624100       0.04354600
Cu       7.50909000      10.01212000      11.76991000  F       0.03567700      -0.06977200       0.04552300
Cu      10.01212000      10.01212000      11.76991000  F      -0.01124600      -0.07371900       0.06673300
Cu       1.26418000       1.24387000      13.57609000  T      -0.00130300       0.00064100      -0.00028400
Cu       3.77988000       1.25740000      13.58894000  T      -0.00078000       0.00024800       0.00041600
Cu       6.29297000       1.28105000      13.60139000  T       0.00016600      -0.00041900       0.00063700
Cu       8.77880000       1.27830000      13.60453000  T      -0.00102200       0.00005000       0.00239100
Cu      11.26788000       1.26670000      13.60174000  T      -0.00141700       0.00000700       0.00062100
Cu       1.23343000       3.75320000      13.56478000  T      -0.00158300       0.00089200       0.00087400
Cu       3.75323000       3.75745000      13.59564000  T      -0.00090600       0.00049700       0.00240400
Cu       6.25292000       3.78224000      13.59788000  T      -0.00181300      -0.00064400       0.00176500
Cu       8.74215000       3.76764000      13.55328000  T       0.00004700      -0.00162600       0.00277800
Cu      11.21735000       3.76088000      13.60721000  T      -0.00116000       0.00046800       0.00131500
Cu       1.23352000       6.25879000      13.56461000  T      -0.00143200      -0.00071100       0.00059700
Cu       3.75348000       6.25397000      13.59554000  T      -0.00088600      -0.00035000       0.00212400
Cu       6.25364000       6.22936000      13.59763000  T      -0.00184100       0.00085300       0.00143300
Cu       8.74302000       6.24347000      13.55281000  T       0.00004900       0.00158200       0.00254300
Cu      11.21766000       6.25071000      13.60688000  T      -0.00106900      -0.00018800       0.00111700
Cu       1.26428000       8.76780000      13.57646000  T      -0.00129500      -0.00081700      -0.00049800
Cu       3.77968000       8.75490000      13.58822000  T      -0.00078400      -0.00040800       0.00027900
Cu       6.29346000       8.73170000      13.60052000  T       0.00006200       0.00047300       0.00032700
Cu       8.77940000       8.73395000      13.60397000  T      -0.00089100      -0.00026800       0.00205000
Cu      11.26833000       8.74542000      13.60200000  T      -0.00111600       0.00002000       0.00025600
Cu       1.24690000      11.26385000      13.59475000  T       0.00027300      -0.00014800      -0.00063100
Cu       3.74030000      11.26423000      13.56905000  T       0.00107800      -0.00004100      -0.00070500
Cu       6.25634000      11.26453000      13.55806000  T       0.00179200      -0.00000700      -0.00126300
Cu       8.76460000      11.26388000      13.56788000  T       0.00159100       0.00000400      -0.00097900
Cu      11.27178000      11.26391000      13.57748000  T      -0.00037600      -0.00004000      -0.00092900
Cu      12.51145000       0.00790000      15.36987000  T       0.00040600      -0.00025000      -0.00023100
Cu       2.50869000       0.00811000      15.36423000  T       0.00064300       0.00041700       0.00090200
Cu       5.00816000      12.47937000      15.34327000  T       0.00049700       0.00070000       0.00046900
Cu       7.50975000      12.49487000      15.33559000  T       0.00126700       0.00139400       0.00068500
Cu      10.01165000      12.49880000      15.35571000  T       0.00116900      -0.00003400       0.00045500
Cu       0.06699000       2.50731000      15.35816000  T      -0.00398500      -0.00029200       0.00046500
Cu       2.52804000       2.51018000      15.35087000  T      -0.00382700       0.00057500       0.00092300
Cu       4.98893000       2.40674000      15.41932000  T      -0.00402000       0.00189900       0.00218800
Cu       7.61091000       2.50162000      15.44617000  T      -0.00507600       0.00195700       0.00148700
Cu      10.11994000       2.46242000      15.46840000  T      -0.00498900       0.00010600      -0.00039100
Cu      12.43579000       5.00585000      15.34078000  T      -0.00317300       0.00008200       0.00089800
Cu       2.34080000       5.00625000      15.37079000  T      -0.00189900      -0.00014500       0.00253700
Pd       4.82561000       5.00499000      15.60079000  T      -0.02105800       0.00081400       0.01427200
Y        7.39636000       5.00637000      17.29755000  T      -0.00520700       0.00048700      -0.00012400
Cu       9.92284000       5.00558000      15.47273000  T      -0.00889600       0.00012000       0.00497500
Cu       0.06737000       7.50365000      15.35812000  T      -0.00375500       0.00078300       0.00046100
Cu       2.52844000       7.50152000      15.35052000  T      -0.00387800      -0.00045200       0.00134600
Cu       4.98935000       7.60489000      15.41644000  T      -0.00416800      -0.00171600       0.00269400
Cu       7.61335000       7.50986000      15.44462000  T      -0.00547400      -0.00182600       0.00083800
Cu      10.12071000       7.54872000      15.46810000  T      -0.00507800      -0.00000200      -0.00035300
Cu      12.51177000      10.00571000      15.36937000  T       0.00064400      -0.00018100       0.00046600
Cu       2.50936000      10.00496000      15.36389000  T       0.00064100      -0.00074500       0.00050800
Cu       5.00864000      10.04725000      15.34188000  T       0.00049800       0.00027600       0.00066500
Cu       7.50986000      10.03168000      15.33498000  T       0.00147900      -0.00112400       0.00084700
Cu      10.01152000      10.02705000      15.35557000  T       0.00142100       0.00075200       0.00011500
O        6.20595000       3.38476000      16.49380000  T      -0.00064700       0.00217300      -0.00090100
O        6.20797000       6.62583000      16.48782000  T      -0.00014100      -0.00196200      -0.00005000
O        9.01137000       6.44900000      16.56914000  T      -0.00420600      -0.00729800      -0.00534200
O        9.00981000       3.56168000      16.56857000  T      -0.00355000       0.00753300      -0.00524700
C        5.20487000       5.02466000      18.66282000  T       0.02031300      -0.00023900       0.02475900
O        4.95932000       5.05252000      20.00509000  T       0.03311300      -0.00270100       0.02489700
O        4.18216000       5.01806000      17.93460000  T       0.01116100       0.00058200       0.03122000
H        3.97356000       5.06374000      20.11591000  T       0.02622300      -0.00235500       0.02878000
108
Lattice="12.515153631 0.0 0.0 0.0 12.515153631 0.0 0.0 0.0 25.30973" Properties=species:S:1:pos:R:3:move_mask:L:1:forces:R:3 stress="0.007787268792981254 -3.8510111306699704e-06 -8.738112776236562e-05 -3.8510111306699704e-06 0.008046722085835095 5.617358213294932e-08 -8.738112776236562e-05 5.617358213294932e-08 0.001719248654761047" free_energy=-444.14826679 energy=-444.14494968 pbc="T T T"
Cu       1.25152000       1.25152000      10.00000000  F      -0.00335300      -0.01649400      -0.06827800
Cu       3.75455000       1.25152000      10.00000000  F       0.00584400       0.00524900      -0.07224700
Cu       6.25758000       1.25152000      10.00000000  F      -0.01204500       0.02018500      -0.06068100
Cu       8.76061000       1.25152000      10.00000000  F       0.01700700       0.00937800      -0.05184900
Cu      11.26364000       1.25152000      10.00000000  F      -0.01052400      -0.00149700      -0.07675100
Cu       1.25152000       3.75455000      10.00000000  F      -0.00287800       0.00885400      -0.07126500
Cu       3.75455000       3.75455000      10.00000000  F       0.01249400      -0.01731600      -0.05219900
Cu       6.25758000       3.75455000      10.00000000  F      -0.01376300      -0.01927600      -0.08151000
Cu       8.76061000       3.75455000      10.00000000  F       0.01851600      -0.01438400      -0.08618400
Cu      11.26364000       3.75455000      10.00000000  F      -0.01204200       0.00156300      -0.06201500
Cu       1.25152000       6.25758000      10.00000000  F      -0.00343000      -0.00729500      -0.07281200
Cu       3.75455000       6.25758000      10.00000000  F       0.01388100       0.01814000      -0.05266900
Cu       6.25758000       6.25758000      10.00000000  F      -0.01377600       0.02141800      -0.08470300
Cu       8.76061000       6.25758000      10.00000000  F       0.01718800       0.01520000      -0.08677500
Cu      11.26364000       6.25758000      10.00000000  F      -0.01156500       0.00001000      -0.06365000
Cu       1.25152000       8.76061000      10.00000000  F      -0.00310100       0.01323900      -0.06702500
Cu       3.75455000       8.76061000      10.00000000  F       0.00508200      -0.00756200      -0.07102600
Cu       6.25758000       8.76061000      10.00000000  F      -0.01202700      -0.02432400      -0.05860400
Cu       8.76061000       8.76061000      10.00000000  F       0.01773500      -0.01170800      -0.05095600
Cu      11.26364000       8.76061000      10.00000000  F      -0.01081200      -0.00184900      -0.07545300
Cu       1.25152000      11.26364000      10.00000000  F       0.00012000       0.00176900      -0.01838500
Cu       3.75455000      11.26364000      10.00000000  F      -0.00869700       0.00154500      -0.07632700
Cu       6.25758000      11.26364000      10.00000000  F      -0.00868400       0.00204100      -0.06369700
Cu       8.76061000      11.26364000      10.00000000  F       0.00533100       0.00154400      -0.07390300
Cu      11.26364000      11.26364000      10.00000000  F       0.00872500       0.00184300      -0.07020100
Cu       0.00000000       0.00000000      11.76991000  F      -0.02508100       0.04367200       0.07242600
Cu       2.50303000       0.00000000      11.76991000  F       0.02868200       0.03189700       0.03594500
Cu       5.00606000       0.00000000      11.76991000  F       0.05045000       0.09067000       0.04386600
Cu       7.50909000       0.00000000      11.76991000  F       0.03521800       0.07402800       0.04679800
Cu      10.01212000       0.00000000      11.76991000  F      -0.01080000       0.07594800       0.06656300
Cu       0.00000000       2.50303000      11.76991000  F      -0.08620500       0.03542600       0.06327000
Cu       2.50303000       2.50303000      11.76991000  F       0.05672700       0.02835800       0.04151900
Cu       5.00606000       2.50303000      11.76991000  F       0.00812800      -0.00049600       0.07757400
Cu       7.50909000       2.50303000      11.76991000  F      -0.05003800       0.02948600       0.10858400
Cu      10.01212000       2.50303000      11.76991000  F       0.06788200      -0.05724900       0.00838500
Cu       0.00000000       5.00606000      11.76991000  F      -0.12156800       0.00124900       0.04507400
Cu       2.50303000       5.00606000      11.76991000  F       0.05347400       0.00088400       0.03866200
Cu       5.00606000       5.00606000      11.76991000  F      -0.03447900       0.00182700       0.13484600
Cu       7.50909000       5.00606000      11.76991000  F      -0.08928900       0.00109800       0.12584400
Cu      10.01212000       5.00606000      11.76991000  F       0.04391500      -0.00037500       0.02585900
Cu       0.00000000       7.50909000      11.76991000  F      -0.08592400      -0.03870900       0.06486000
Cu       2.50303000       7.50909000      11.76991000  F       0.05593600      -0.03109600       0.04150400
Cu       5.00606000       7.50909000      11.76991000  F       0.00951300      -0.00406600       0.07895800
Cu       7.50909000       7.50909000      11.76991000  F      -0.04931600      -0.03389100       0.10923400
Cu      10.01212000       7.50909000      11.76991000  F       0.06999000       0.05510000       0.00837700
Cu       0.00000000      10.01212000      11.76991000  F      -0.02472700      -0.04207700       0.07081300
Cu       2.50303000      10.01212000      11.76991000  F       0.02923000      -0.03029700       0.03631900
Cu       5.00606000      10.01212000      11.76991000  F       0.05025900      -0.08663600       0.04287100
Cu       7.50909000      10.01212000      11.76991000  F       0.03583100      -0.07034000       0.04496100
Cu      10.01212000      10.01212000      11.76991000  F      -0.01053100      -0.07420800       0.06612000
Cu       1.26402000       1.24391000      13.57584000  T      -0.00113800       0.00071900       0.00067700
Cu       3.77974000       1.25746000      13.58872000  T      -0.00143800       0.00036000       0.00127900
Cu       6.29289000       1.28111000      13.60127000  T      -0.00080700      -0.00031800       0.00113400
Cu       8.77866000       1.27837000      13.60452000  T      -0.00051600      -0.00009700       0.00235500
Cu      11.26770000       1.26674000      13.60157000  T      -0.00042100       0.00014100       0.00108400
Cu       1.23318000       3.75324000      13.56462000  T      -0.00142800       0.00097400       0.00173300
Cu       3.75307000       3.75755000      13.59567000  T      -0.00214800       0.00042400       0.00239100
Cu       6.25270000       3.78227000      13.59791000  T      -0.00178300      -0.00049400       0.00104300
Cu       8.74197000       3.76757000      13.55330000  T       0.00041500      -0.00071700       0.00213100
Cu      11.21707000       3.76090000      13.60710000  T      -0.00018300       0.00063700       0.00196600
Cu       1.23328000       6.25873000      13.56444000  T      -0.00121700      -0.00067900       0.00170900
Cu       3.75333000       6.25390000      13.59556000  T      -0.00213700      -0.00018000       0.00231500
Cu       6.25340000       6.22939000      13.59763000  T      -0.00186300       0.00074700       0.00087400
Cu       8.74284000       6.24354000      13.55282000  T       0.00049400       0.00082300       0.00203000
Cu      11.21741000       6.25070000      13.60677000  T      -0.00015900      -0.00022700       0.00190300
Cu       1.26413000       8.76772000      13.57620000  T      -0.00114300      -0.00091800       0.00048500
Cu       3.77954000       8.75485000      13.58798000  T      -0.00142900      -0.00054000       0.00120400
Cu       6.29338000       8.73167000      13.60038000  T      -0.00095600       0.00036300       0.00101700
Cu       8.77925000       8.73387000      13.60393000  T      -0.00030500      -0.00006500       0.00215000
Cu      11.26817000       8.74540000      13.60179000  T      -0.00019000      -0.00015700       0.00091900
Cu       1.24691000      11.26383000      13.59443000  T       0.00057200      -0.00022000       0.00048800
Cu       3.74036000      11.26423000      13.56876000  T       0.00021300      -0.00015100       0.00039800
Cu       6.25644000      11.26454000      13.55780000  T       0.00113400      -0.00010900       0.00018700
Cu       8.76469000      11.26388000      13.56766000  T       0.00154000      -0.00008400       0.00008800
Cu      11.27176000      11.26392000      13.57720000  T       0.00087600      -0.00014400       0.00004600
Cu      12.51148000       0.00787000      15.36937000  T       0.00087300      -0.00041400       0.00005800
Cu       2.50871000       0.00811000      15.36379000  T       0.00012000       0.00020300       0.00090400
Cu       5.00817000      12.47942000      15.34289000  T       0.00005500       0.00062100       0.00082600
Cu       7.50979000      12.49496000      15.33532000  T       0.00128400       0.00060200       0.00150700
Cu      10.01171000      12.49880000      15.35539000  T       0.00182300      -0.00013500       0.00112100
Cu       0.06657000       2.50728000      15.35787000  T      -0.00364200       0.00001700       0.00027300
Cu       2.52763000       2.51023000      15.35061000  T      -0.00434400       0.00044700       0.00077100
Cu       4.98846000       2.40685000      15.41920000  T      -0.00514100       0.00082400       0.00214500
Cu       7.61025000       2.50183000      15.44611000  T      -0.00329400      -0.00016800      -0.00003000
Cu      10.11942000       2.46247000      15.46821000  T      -0.00413000       0.00031900      -0.00019100
Cu      12.43526000       5.00584000      15.34063000  T      -0.00259000       0.00028300       0.00072200
Cu       2.34039000       5.00623000      15.37075000  T      -0.00247500       0.00002000       0.00181800
Pd       4.82522000       5.00501000      15.60110000  T      -0.02549600       0.00131100       0.01502400
Y        7.39585000       5.00640000      17.29745000  T      -0.00337900       0.00067900       0.00267800
Cu       9.92196000       5.00560000      15.47282000  T      -0.00427100       0.00052600       0.00171800
Cu       0.06696000       7.50370000      15.35781000  T      -0.00354400       0.00043700       0.00018100
Cu       2.52804000       7.50147000      15.35027000  T      -0.00440500      -0.00031800       0.00094800
Cu       4.98888000       7.60483000      15.41634000  T      -0.00510200      -0.00070100       0.00257200
Cu       7.61266000       7.50965000      15.44449000  T      -0.00360500      -0.00036600      -0.00014200
Cu      10.12018000       7.54871000      15.46789000  T      -0.00444700      -0.00031600      -0.00013400
Cu      12.51182000      10.00572000      15.36891000  T       0.00106400      -0.00018700       0.00058200
Cu       2.50940000      10.00490000      15.36342000  T       0.00014600      -0.00062900       0.00051500
Cu       5.00865000      10.04728000      15.34150000  T       0.00008900      -0.00003700       0.00096600
Cu       7.50992000      10.03161000      15.33470000  T       0.00147300      -0.00064700       0.00151300
Cu      10.01160000      10.02710000      15.35521000  T       0.00211100       0.00048000       0.00081100
O        6.20537000       3.38506000      16.49356000  T      -0.00409700       0.00134900       0.00066600
O        6.20740000       6.62562000      16.48762000  T      -0.00389000      -0.00050100       0.00099800
O        9.01056000       6.44882000      16.56869000  T      -0.00201200      -0.00319100      -0.00517600
O        9.00903000       3.56192000      16.56814000  T      -0.00182800       0.00407700      -0.00436400
C        5.20685000       5.02466000      18.66553000  T       0.01431500      -0.00074500       0.01541900
O        4.96354000       5.05218000      20.00797000  T       0.04167000      -0.00246400       0.03731100
O        4.18315000       5.01816000      17.93868000  T       0.01442500       0.00046300       0.02938100
H        3.97798000       5.06336000      20.12080000  T       0.02376000      -0.00240900       0.02693300
108
Lattice="12.515153631 0.0 0.0 0.0 12.515153631 0.0 0.0 0.0 25.30973" Properties=species:S:1:pos:R:3:move_mask:L:1:forces:R:3 stress="0.007771527706965776 -3.757388493781722e-06 -9.090133890936378e-05 -3.757388493781722e-06 0.008035424954317246 -5.804603487071431e-07 -9.090133890936378e-05 -5.804603487071431e-07 0.0017165960133825467" free_energy=-444.14824833 energy=-444.1449199 pbc="T T T"
Cu       1.25152000       1.25152000      10.00000000  F      -0.00310200      -0.01664100      -0.06781800
Cu       3.75455000       1.25152000      10.00000000  F       0.00636200       0.00506900      -0.07142500
Cu       6.25758000       1.25152000      10.00000000  F      -0.01191900       0.02009500      -0.05947100
Cu       8.76061000       1.25152000      10.00000000  F       0.01661800       0.00937500      -0.05079000
Cu      11.26364000       1.25152000      10.00000000  F      -0.01088700      -0.00154400      -0.07621000
Cu       1.25152000       3.75455000      10.00000000  F      -0.00268900       0.00869500      -0.07106300
Cu       3.75455000       3.75455000      10.00000000  F       0.01305900      -0.01746100      -0.05156000
Cu       6.25758000       3.75455000      10.00000000  F      -0.01354000      -0.01936500      -0.08049100
Cu       8.76061000       3.75455000      10.00000000  F       0.01813800      -0.01443800      -0.08523900
Cu      11.26364000       3.75455000      10.00000000  F      -0.01248300       0.00146200      -0.06157400
Cu       1.25152000       6.25758000      10.00000000  F      -0.00323600      -0.00723400      -0.07268700
Cu       3.75455000       6.25758000      10.00000000  F       0.01446300       0.01819900      -0.05209100
Cu       6.25758000       6.25758000      10.00000000  F      -0.01355300       0.02144000      -0.08373400
Cu       8.76061000       6.25758000      10.00000000  F       0.01680300       0.01518100      -0.08589100
Cu      11.26364000       6.25758000      10.00000000  F      -0.01202000       0.00001700      -0.06327900
Cu       1.25152000       8.76061000      10.00000000  F      -0.00284100       0.01345300      -0.06666100
Cu       3.75455000       8.76061000      10.00000000  F       0.00562400      -0.00732000      -0.07028400
Cu       6.25758000       8.76061000      10.00000000  F      -0.01189100      -0.02417900      -0.05747100
Cu       8.76061000       8.76061000      10.00000000  F       0.01732800      -0.01164800      -0.04999100
Cu      11.26364000       8.76061000      10.00000000  F      -0.01119700      -0.00174200      -0.07501400
Cu       1.25152000      11.26364000      10.00000000  F       0.00040600       0.00186000      -0.01781800
Cu       3.75455000      11.26364000      10.00000000  F      -0.00819500       0.00163600      -0.07544600
Cu       6.25758000      11.26364000      10.00000000  F      -0.00862000       0.00211600      -0.06238700
Cu       8.76061000      11.26364000      10.00000000  F       0.00492500       0.00162400      -0.07281100
Cu      11.26364000      11.26364000      10.00000000  F       0.00842300       0.00194000      -0.06961500
Cu       0.00000000       0.00000000      11.76991000  F      -0.02518000       0.04365300       0.07350900
Cu       2.50303000       0.00000000      11.76991000  F       0.02930100       0.03174600       0.03706900
Cu       5.00606000       0.00000000      11.76991000  F       0.05096200       0.09049900       0.04509700
Cu       7.50909000       0.00000000      11.76991000  F       0.03496000       0.07396200       0.04798900
Cu      10.01212000       0.00000000      11.76991000  F      -0.01148700       0.07589900       0.06762400
Cu       0.00000000       2.50303000      11.76991000  F      -0.08645300       0.03511900       0.06415100
Cu       2.50303000       2.50303000      11.76991000  F       0.05732900       0.02790800       0.04244700
Cu       5.00606000       2.50303000      11.76991000  F       0.00866400      -0.00094100       0.07865200
Cu       7.50909000       2.50303000      11.76991000  F      -0.05013200       0.02914100       0.10979600
Cu      10.01212000       2.50303000      11.76991000  F       0.06718500      -0.05745800       0.00948900
Cu       0.00000000       5.00606000      11.76991000  F      -0.12173500       0.00114600       0.04574800
Cu       2.50303000       5.00606000      11.76991000  F       0.05399400       0.00077800       0.03939500
Cu       5.00606000       5.00606000      11.76991000  F      -0.03374600       0.00172500       0.13592500
Cu       7.50909000       5.00606000      11.76991000  F      -0.08935500       0.00101300       0.12714900
Cu      10.01212000       5.00606000      11.76991000  F       0.04321700      -0.00047700       0.02675900
Cu       0.00000000       7.50909000      11.76991000  F      -0.08618400      -0.03844900       0.06567200
Cu       2.50303000       7.50909000      11.76991000  F       0.05658500      -0.03068000       0.04236700
Cu       5.00606000       7.50909000      11.76991000  F       0.01009300      -0.00365300       0.07997500
Cu       7.50909000       7.50909000      11.76991000  F      -0.04943400      -0.03356900       0.11039400
Cu      10.01212000       7.50909000      11.76991000  F       0.06923900       0.05528900       0.00937700
Cu       0.00000000      10.01212000      11.76991000  F      -0.02484900      -0.04180000       0.07185300
Cu       2.50303000      10.01212000      11.76991000  F       0.02989700      -0.02990900       0.03740800
Cu       5.00606000      10.01212000      11.76991000  F       0.05079800      -0.08630400       0.04406900
Cu       7.50909000      10.01212000      11.76991000  F       0.03556900      -0.07011200       0.04610900
Cu      10.01212000      10.01212000      11.76991000  F      -0.01126500      -0.07396100       0.06715000
Cu       1.26398000       1.24392000      13.57597000  T      -0.00100900       0.00016700       0.00008000
Cu       3.77968000       1.25744000      13.58888000  T      -0.00088200       0.00008000       0.00030300
Cu       6.29286000       1.28104000      13.60140000  T      -0.00059500      -0.00013000       0.00077100
Cu       8.77865000       1.27832000      13.60467000  T      -0.00086600       0.00000200       0.00146000
Cu      11.26770000       1.26672000      13.60170000  T      -0.00102000      -0.00003200       0.00033400
Cu       1.23316000       3.75327000      13.56477000  T      -0.00164600       0.00021100       0.00061600
Cu       3.75299000       3.75753000      13.59580000  T      -0.00100500       0.00048800       0.00169500
Cu       6.25265000       3.78222000      13.59799000  T      -0.00171900      -0.00006100       0.00149500
Cu       8.74203000       3.76754000      13.55342000  T      -0.00078400      -0.00064000       0.00133800
Cu      11.21713000       3.76092000      13.60725000  T      -0.00132200       0.00017500       0.00091800
Cu       1.23327000       6.25873000      13.56458000  T      -0.00150700      -0.00024700       0.00060100
Cu       3.75325000       6.25393000      13.59569000  T      -0.00102800      -0.00035100       0.00153900
Cu       6.25335000       6.22943000      13.59770000  T      -0.00179700       0.00025800       0.00129000
Cu       8.74290000       6.24358000      13.55293000  T      -0.00074100       0.00057100       0.00119500
Cu      11.21746000       6.25070000      13.60690000  T      -0.00125000      -0.00002100       0.00084200
Cu       1.26409000       8.76772000      13.57632000  T      -0.00096600      -0.00032500      -0.00004400
Cu       3.77949000       8.75486000      13.58814000  T      -0.00078300      -0.00010100       0.00029500
Cu       6.29334000       8.73173000      13.60051000  T      -0.00065100       0.00030100       0.00068100
Cu       8.77925000       8.73392000      13.60407000  T      -0.00076000      -0.00002000       0.00129300
Cu      11.26818000       8.74542000      13.60192000  T      -0.00085800       0.00016700       0.00015600
Cu       1.24692000      11.26383000      13.59458000  T       0.00049700      -0.00007500      -0.00028000
Cu       3.74034000      11.26422000      13.56890000  T       0.00071900       0.00001400      -0.00009100
Cu       6.25646000      11.26453000      13.55793000  T       0.00120100       0.00004600       0.00000300
Cu       8.76472000      11.26387000      13.56776000  T       0.00095800       0.00003500       0.00002200
Cu      11.27179000      11.26391000      13.57731000  T       0.00040300       0.00002200      -0.00026600
Cu      12.51149000       0.00785000      15.36961000  T       0.00064400      -0.00040600      -0.00090000
Cu       2.50868000       0.00812000      15.36406000  T       0.00049600       0.00000400      -0.00040800
Cu       5.00816000      12.47942000      15.34311000  T       0.00058400       0.00027200      -0.00042300
Cu       7.50984000      12.49496000      15.33552000  T       0.00094600       0.00036800       0.00022900
Cu      10.01178000      12.49878000      15.35561000  T       0.00104700      -0.00014400       0.00010000
Cu       0.06646000       2.50727000      15.35804000  T      -0.00368200      -0.00036400       0.00002100
Cu       2.52748000       2.51023000      15.35080000  T      -0.00359500       0.00028300       0.00049800
Cu       4.98829000       2.40685000      15.41939000  T      -0.00370800       0.00104600       0.00182400
Cu       7.61018000       2.50177000      15.44617000  T      -0.00415000       0.00061100       0.00039800
Cu      10.11934000       2.46244000      15.46826000  T      -0.00446300       0.00014400       0.00005700
Cu      12.43527000       5.00587000      15.34078000  T      -0.00355800       0.00009500       0.00104100
Cu       2.34032000       5.00624000      15.37091000  T      -0.00477600      -0.00006000       0.00197300
Pd       4.82431000       5.00505000      15.60168000  T      -0.01278300       0.00043300       0.00978300
Y        7.39557000       5.00643000      17.29753000  T      -0.00082100       0.00035200       0.00083800
Cu       9.92201000       5.00561000      15.47290000  T      -0.00453800       0.00038200       0.00124900
Cu       0.06685000       7.50373000      15.35799000  T      -0.00360000       0.00061600      -0.00002700
Cu       2.52789000       7.50148000      15.35047000  T      -0.00351700      -0.00024600       0.00062100
Cu       4.98870000       7.60483000      15.41654000  T      -0.00363100      -0.00063500       0.00220600
Cu       7.61259000       7.50969000      15.44456000  T      -0.00443600      -0.00087600       0.00003600
Cu      10.12011000       7.54876000      15.46794000  T      -0.00460600       0.00004900       0.00002000
Cu      12.51184000      10.00572000      15.36917000  T       0.00085600       0.00019400      -0.00051800
Cu       2.50937000      10.00490000      15.36368000  T       0.00056300      -0.00028500      -0.00067000
Cu       5.00863000      10.04728000      15.34173000  T       0.00061100       0.00036400      -0.00031200
Cu       7.50997000      10.03161000      15.33491000  T       0.00109600      -0.00021300       0.00027900
Cu      10.01168000      10.02712000      15.35542000  T       0.00128600       0.00066200      -0.00019200
O        6.20535000       3.38507000      16.49367000  T      -0.00202900      -0.00032700      -0.00012800
O        6.20739000       6.62563000      16.48776000  T      -0.00215400       0.00078000       0.00035800
O        9.01060000       6.44865000      16.56852000  T      -0.00201700      -0.00228800      -0.00152400
O        9.00908000       3.56212000      16.56799000  T      -0.00195000       0.00248300      -0.00131200
C        5.20772000       5.02460000      18.66639000  T       0.01209700      -0.00060000       0.01756400
O        4.96451000       5.05207000      20.00902000  T       0.05457200      -0.00218700       0.02606400
O        4.18379000       5.01817000      17.93996000  T       0.01225200      -0.00004500       0.02074400
H        3.97966000       5.06326000      20.12188000  T       0.00043000      -0.00215200       0.02991300
108
Lattice="12.515153631 0.0 0.0 0.0 12.515153631 0.0 0.0 0.0 25.30973" Properties=species:S:1:pos:R:3:move_mask:L:1:forces:R:3 stress="0.00775837684723754 -3.732422457278188e-06 -9.268641051936638e-05 -3.732422457278188e-06 0.008019633936228763 -3.1207545629416294e-08 -9.268641051936638e-05 -3.1207545629416294e-08 0.0017045124517148364" free_energy=-444.14870364 energy=-444.14537389 pbc="T T T"
Cu       1.25152000       1.25152000      10.00000000  F      -0.00310600      -0.01659400      -0.06793600
Cu       3.75455000       1.25152000      10.00000000  F       0.00645200       0.00510700      -0.07147300
Cu       6.25758000       1.25152000      10.00000000  F      -0.01194400       0.02012000      -0.05942100
Cu       8.76061000       1.25152000      10.00000000  F       0.01647400       0.00939900      -0.05072300
Cu      11.26364000       1.25152000      10.00000000  F      -0.01105600      -0.00148300      -0.07626100
Cu       1.25152000       3.75455000      10.00000000  F      -0.00269300       0.00876200      -0.07107100
Cu       3.75455000       3.75455000      10.00000000  F       0.01314200      -0.01738200      -0.05154500
Cu       6.25758000       3.75455000      10.00000000  F      -0.01358200      -0.01930200      -0.08046200
Cu       8.76061000       3.75455000      10.00000000  F       0.01798900      -0.01439400      -0.08513400
Cu      11.26364000       3.75455000      10.00000000  F      -0.01263100       0.00148000      -0.06157900
Cu       1.25152000       6.25758000      10.00000000  F      -0.00323900      -0.00724900      -0.07267500
Cu       3.75455000       6.25758000      10.00000000  F       0.01454200       0.01817900      -0.05205500
Cu       6.25758000       6.25758000      10.00000000  F      -0.01359600       0.02142800      -0.08367600
Cu       8.76061000       6.25758000      10.00000000  F       0.01665400       0.01519100      -0.08576600
Cu      11.26364000       6.25758000      10.00000000  F      -0.01216500       0.00005000      -0.06326700
Cu       1.25152000       8.76061000      10.00000000  F      -0.00284000       0.01340000      -0.06675600
Cu       3.75455000       8.76061000      10.00000000  F       0.00571500      -0.00736500      -0.07031100
Cu       6.25758000       8.76061000      10.00000000  F      -0.01191800      -0.02420600      -0.05738800
Cu       8.76061000       8.76061000      10.00000000  F       0.01718100      -0.01167600      -0.04990800
Cu      11.26364000       8.76061000      10.00000000  F      -0.01136600      -0.00180400      -0.07504800
Cu       1.25152000      11.26364000      10.00000000  F       0.00040000       0.00184300      -0.01795000
Cu       3.75455000      11.26364000      10.00000000  F      -0.00810800       0.00161100      -0.07553800
Cu       6.25758000      11.26364000      10.00000000  F      -0.00859900       0.00209600      -0.06236500
Cu       8.76061000      11.26364000      10.00000000  F       0.00475100       0.00160200      -0.07279100
Cu      11.26364000      11.26364000      10.00000000  F       0.00824900       0.00192100      -0.06968600
Cu       0.00000000       0.00000000      11.76991000  F      -0.02541500       0.04376800       0.07349300
Cu       2.50303000       0.00000000      11.76991000  F       0.02936000       0.03185800       0.03699900
Cu       5.00606000       0.00000000      11.76991000  F       0.05109700       0.09063800       0.04504200
Cu       7.50909000       0.00000000      11.76991000  F       0.03488100       0.07417100       0.04800300
Cu      10.01212000       0.00000000      11.76991000  F      -0.01185100       0.07602100       0.06766300
Cu       0.00000000       2.50303000      11.76991000  F      -0.08672500       0.03531300       0.06425500
Cu       2.50303000       2.50303000      11.76991000  F       0.05733100       0.02825000       0.04261200
Cu       5.00606000       2.50303000      11.76991000  F       0.00854600      -0.00063900       0.07885300
Cu       7.50909000       2.50303000      11.76991000  F      -0.05031900       0.02925100       0.11003500
Cu      10.01212000       2.50303000      11.76991000  F       0.06668000      -0.05730400       0.00974100
Cu       0.00000000       5.00606000      11.76991000  F      -0.12205000       0.00119900       0.04587000
Cu       2.50303000       5.00606000      11.76991000  F       0.05400700       0.00082300       0.03965200
Cu       5.00606000       5.00606000      11.76991000  F      -0.03385500       0.00176900       0.13629500
Cu       7.50909000       5.00606000      11.76991000  F      -0.08976000       0.00104700       0.12774200
Cu      10.01212000       5.00606000      11.76991000  F       0.04273300      -0.00043200       0.02712600
Cu       0.00000000       7.50909000      11.76991000  F      -0.08643700      -0.03862100       0.06573500
Cu       2.50303000       7.50909000      11.76991000  F       0.05658700      -0.03098300       0.04248000
Cu       5.00606000       7.50909000      11.76991000  F       0.00996400      -0.00389200       0.08011800
Cu       7.50909000       7.50909000      11.76991000  F      -0.04962900      -0.03362700       0.11058800
Cu      10.01212000       7.50909000      11.76991000  F       0.06875700       0.05517700       0.00957800
Cu       0.00000000      10.01212000      11.76991000  F      -0.02507200      -0.04196400       0.07180100
Cu       2.50303000      10.01212000      11.76991000  F       0.02995500      -0.03008400       0.03732000
Cu       5.00606000      10.01212000      11.76991000  F       0.05093100      -0.08648000       0.04399100
Cu       7.50909000      10.01212000      11.76991000  F       0.03549200      -0.07035000       0.04610900
Cu      10.01212000      10.01212000      11.76991000  F      -0.01162400      -0.07412000       0.06716400
Cu       1.26390000       1.24395000      13.57594000  T      -0.00049300       0.00034000       0.00017900
Cu       3.77961000       1.25747000      13.58887000  T      -0.00032300       0.00032700      -0.00014100
Cu       6.29280000       1.28106000      13.60143000  T      -0.00061000      -0.00006300       0.00012000
Cu       8.77857000       1.27834000      13.60473000  T      -0.00113500      -0.00008900       0.00086600
Cu      11.26760000       1.26674000      13.60168000  T      -0.00113300       0.00001800       0.00036600
Cu       1.23303000       3.75330000      13.56478000  T      -0.00094900       0.00025100       0.00069600
Cu       3.75290000       3.75758000      13.59589000  T      -0.00029800       0.00094500       0.00136200
Cu       6.25252000       3.78223000      13.59805000  T      -0.00205400       0.00051600       0.00128500
Cu       8.74194000       3.76751000      13.55348000  T      -0.00117600      -0.00040900       0.00077400
Cu      11.21700000       3.76094000      13.60727000  T      -0.00125200       0.00021500       0.00109600
Cu       1.23315000       6.25870000      13.56459000  T      -0.00078700      -0.00025900       0.00066600
Cu       3.75315000       6.25389000      13.59577000  T      -0.00038100      -0.00078300       0.00109700
Cu       6.25322000       6.22944000      13.59776000  T      -0.00214400      -0.00043900       0.00101100
Cu       8.74282000       6.24361000      13.55297000  T      -0.00112400       0.00023800       0.00055000
Cu      11.21733000       6.25070000      13.60692000  T      -0.00112100      -0.00008600       0.00095800
Cu       1.26401000       8.76768000      13.57627000  T      -0.00042000      -0.00041400      -0.00000600
Cu       3.77942000       8.75483000      13.58813000  T      -0.00024900      -0.00030500      -0.00015500
Cu       6.29328000       8.73172000      13.60053000  T      -0.00069200       0.00023600      -0.00000700
Cu       8.77917000       8.73389000      13.60413000  T      -0.00104700       0.00015500       0.00066200
Cu      11.26808000       8.74541000      13.60190000  T      -0.00097100       0.00013500       0.00016500
Cu       1.24693000      11.26382000      13.59452000  T       0.00087000      -0.00006200      -0.00024400
Cu       3.74038000      11.26422000      13.56887000  T       0.00126800       0.00001900      -0.00055000
Cu       6.25652000      11.26453000      13.55790000  T       0.00123900       0.00007800      -0.00058000
Cu       8.76476000      11.26387000      13.56773000  T       0.00053300       0.00009100      -0.00031800
Cu      11.27178000      11.26391000      13.57725000  T       0.00031300       0.00004300      -0.00023500
Cu      12.51151000       0.00783000      15.36950000  T       0.00060700      -0.00023700       0.00007800
Cu       2.50869000       0.00813000      15.36398000  T       0.00066300       0.00019300       0.00034600
Cu       5.00817000      12.47945000      15.34304000  T       0.00095000       0.00026200      -0.00000500
Cu       7.50987000      12.49499000      15.33549000  T       0.00106900       0.00020100       0.00055200
Cu      10.01182000      12.49878000      15.35557000  T       0.00093800       0.00000400       0.00074600
Cu       0.06620000       2.50727000      15.35799000  T      -0.00370300      -0.00017000       0.00066900
Cu       2.52724000       2.51026000      15.35078000  T      -0.00324000       0.00066700       0.00103100
Cu       4.98799000       2.40691000      15.41943000  T      -0.00371300       0.00100000       0.00144500
Cu       7.60983000       2.50184000      15.44616000  T      -0.00382600       0.00059900       0.00019500
Cu      10.11904000       2.46246000      15.46821000  T      -0.00381400      -0.00005700      -0.00000700
Cu      12.43500000       5.00587000      15.34079000  T      -0.00336100       0.00012700       0.00158700
Cu       2.34003000       5.00624000      15.37098000  T      -0.00631900      -0.00004800       0.00190300
Pd       4.82336000       5.00510000      15.60242000  T      -0.01302500      -0.00001100       0.01037600
Y        7.39528000       5.00646000      17.29755000  T      -0.00212000       0.00016100       0.00027400
Cu       9.92167000       5.00563000      15.47292000  T      -0.00308500       0.00020100       0.00052900
Cu       0.06659000       7.50375000      15.35793000  T      -0.00355100       0.00040200       0.00069400
Cu       2.52765000       7.50145000      15.35046000  T      -0.00324300      -0.00068200       0.00108800
Cu       4.98841000       7.60480000      15.41659000  T      -0.00382300      -0.00032200       0.00169400
Cu       7.61223000       7.50961000      15.44452000  T      -0.00407400      -0.00058600      -0.00038600
Cu      10.11980000       7.54876000      15.46787000  T      -0.00371300       0.00044800      -0.00014400
Cu      12.51187000      10.00572000      15.36909000  T       0.00080700       0.00007900       0.00046500
Cu       2.50938000      10.00486000      15.36359000  T       0.00070400      -0.00039300       0.00014700
Cu       5.00865000      10.04729000      15.34166000  T       0.00096000       0.00035500       0.00013300
Cu       7.51002000      10.03158000      15.33488000  T       0.00122300       0.00000500       0.00057500
Cu      10.01173000      10.02715000      15.35536000  T       0.00118200       0.00059200       0.00052700
O        6.20499000       3.38519000      16.49359000  T      -0.00154600       0.00052600       0.00035900
O        6.20703000       6.62557000      16.48772000  T      -0.00171500      -0.00016600       0.00090600
O        9.01028000       6.44855000      16.56824000  T      -0.00158300      -0.00177100      -0.00041900
O        9.00877000       3.56225000      16.56774000  T      -0.00153800       0.00186800      -0.00048400
C        5.20920000       5.02455000      18.66821000  T       0.01160000      -0.00071500       0.01633400
O        4.96760000       5.05184000      20.01124000  T       0.02782000      -0.00198100       0.01883000
O        4.18473000       5.01819000      17.94252000  T       0.01572400      -0.00040700       0.02427200
H        3.98231000       5.06301000      20.12505000  T       0.02259200      -0.00236300       0.02860000
108
Lattice="12.515153631 0.0 0.0 0.0 12.515153631 0.0 0.0 0.0 25.30973" Properties=species:S:1:pos:R:3:move_mask:L:1:forces:R:3 stress="0.007770223231558467 -3.7074564207746552e-06 -9.23056784626875e-05 -3.7074564207746552e-06 0.008030937309255737 -1.373132007694317e-07 -9.23056784626875e-05 -1.373132007694317e-07 0.0017159656209608323" free_energy=-444.14914837 energy=-444.14582267 pbc="T T T"
Cu       1.25152000       1.25152000      10.00000000  F      -0.00289900      -0.01665500      -0.06792600
Cu       3.75455000       1.25152000      10.00000000  F       0.00666900       0.00506400      -0.07148300
Cu       6.25758000       1.25152000      10.00000000  F      -0.01162000       0.02007100      -0.05946800
Cu       8.76061000       1.25152000      10.00000000  F       0.01684500       0.00935100      -0.05075000
Cu      11.26364000       1.25152000      10.00000000  F      -0.01073600      -0.00154300      -0.07623900
Cu       1.25152000       3.75455000      10.00000000  F      -0.00248300       0.00869500      -0.07109200
Cu       3.75455000       3.75455000      10.00000000  F       0.01336800      -0.01744500      -0.05160300
Cu       6.25758000       3.75455000      10.00000000  F      -0.01325400      -0.01935900      -0.08050700
Cu       8.76061000       3.75455000      10.00000000  F       0.01835900      -0.01444200      -0.08517200
Cu      11.26364000       3.75455000      10.00000000  F      -0.01232600       0.00143400      -0.06158200
Cu       1.25152000       6.25758000      10.00000000  F      -0.00303600      -0.00724100      -0.07271400
Cu       3.75455000       6.25758000      10.00000000  F       0.01477000       0.01818100      -0.05212700
Cu       6.25758000       6.25758000      10.00000000  F      -0.01326000       0.02143200      -0.08372400
Cu       8.76061000       6.25758000      10.00000000  F       0.01702700       0.01519900      -0.08580200
Cu      11.26364000       6.25758000      10.00000000  F      -0.01186700       0.00004500      -0.06327100
Cu       1.25152000       8.76061000      10.00000000  F      -0.00263800       0.01344300      -0.06678500
Cu       3.75455000       8.76061000      10.00000000  F       0.00593600      -0.00733600      -0.07036600
Cu       6.25758000       8.76061000      10.00000000  F      -0.01158400      -0.02417600      -0.05745400
Cu       8.76061000       8.76061000      10.00000000  F       0.01755200      -0.01165200      -0.04994000
Cu      11.26364000       8.76061000      10.00000000  F      -0.01105700      -0.00176700      -0.07502200
Cu       1.25152000      11.26364000      10.00000000  F       0.00059700       0.00184700      -0.01794000
Cu       3.75455000      11.26364000      10.00000000  F      -0.00789200       0.00161600      -0.07555700
Cu       6.25758000      11.26364000      10.00000000  F      -0.00827000       0.00209500      -0.06241800
Cu       8.76061000      11.26364000      10.00000000  F       0.00513500       0.00159500      -0.07279900
Cu      11.26364000      11.26364000      10.00000000  F       0.00856400       0.00192100      -0.06965300
Cu       0.00000000       0.00000000      11.76991000  F      -0.02523300       0.04372800       0.07368500
Cu       2.50303000       0.00000000      11.76991000  F       0.02941000       0.03181700       0.03719500
Cu       5.00606000       0.00000000      11.76991000  F       0.05129000       0.09059100       0.04519100
Cu       7.50909000       0.00000000      11.76991000  F       0.03527500       0.07411100       0.04809500
Cu      10.01212000       0.00000000      11.76991000  F      -0.01148100       0.07598400       0.06779600
Cu       0.00000000       2.50303000      11.76991000  F      -0.08654300       0.03522400       0.06448100
Cu       2.50303000       2.50303000      11.76991000  F       0.05740500       0.02814200       0.04281000
Cu       5.00606000       2.50303000      11.76991000  F       0.00879300      -0.00073800       0.07902500
Cu       7.50909000       2.50303000      11.76991000  F      -0.04992900       0.02920200       0.11022400
Cu      10.01212000       2.50303000      11.76991000  F       0.06706700      -0.05736600       0.00996000
Cu       0.00000000       5.00606000      11.76991000  F      -0.12184700       0.00116600       0.04613400
Cu       2.50303000       5.00606000      11.76991000  F       0.05409500       0.00078800       0.03985100
Cu       5.00606000       5.00606000      11.76991000  F      -0.03361300       0.00174100       0.13628200
Cu       7.50909000       5.00606000      11.76991000  F      -0.08930900       0.00102100       0.12788900
Cu      10.01212000       5.00606000      11.76991000  F       0.04308300      -0.00046300       0.02739400
Cu       0.00000000       7.50909000      11.76991000  F      -0.08625900      -0.03856800       0.06596400
Cu       2.50303000       7.50909000      11.76991000  F       0.05666900      -0.03090700       0.04267000
Cu       5.00606000       7.50909000      11.76991000  F       0.01021900      -0.00383400       0.08030500
Cu       7.50909000       7.50909000      11.76991000  F      -0.04923800      -0.03361100       0.11080100
Cu      10.01212000       7.50909000      11.76991000  F       0.06913600       0.05520600       0.00981800
Cu       0.00000000      10.01212000      11.76991000  F      -0.02489500      -0.04191300       0.07199000
Cu       2.50303000      10.01212000      11.76991000  F       0.03001300      -0.03003300       0.03751000
Cu       5.00606000      10.01212000      11.76991000  F       0.05112900      -0.08643400       0.04414500
Cu       7.50909000      10.01212000      11.76991000  F       0.03588400      -0.07029800       0.04621400
Cu      10.01212000      10.01212000      11.76991000  F      -0.01125900      -0.07408100       0.06730800
Cu       1.26387000       1.24394000      13.57599000  T      -0.00009600       0.00055300      -0.00059500
Cu       3.77958000       1.25745000      13.58889000  T       0.00013800       0.00058700       0.00026400
Cu       6.29279000       1.28104000      13.60143000  T      -0.00034000       0.00041800       0.00105200
Cu       8.77856000       1.27832000      13.60476000  T      -0.00104000       0.00041500       0.00106200
Cu      11.26758000       1.26672000      13.60174000  T      -0.00085600       0.00037800      -0.00048300
Cu       1.23301000       3.75329000      13.56484000  T      -0.00086600       0.00044300      -0.00018100
Cu       3.75286000       3.75757000      13.59591000  T      -0.00004600       0.00068900       0.00190600
Cu       6.25251000       3.78222000      13.59806000  T      -0.00147000       0.00004600       0.00138000
Cu       8.74194000       3.76751000      13.55352000  T      -0.00112800      -0.00041400       0.00046800
Cu      11.21699000       3.76093000      13.60735000  T      -0.00126000       0.00043600      -0.00016400
Cu       1.23313000       6.25871000      13.56465000  T      -0.00080300      -0.00056000      -0.00015100
Cu       3.75312000       6.25390000      13.59579000  T      -0.00000100      -0.00056200       0.00182500
Cu       6.25321000       6.22944000      13.59776000  T      -0.00151300       0.00026400       0.00128700
Cu       8.74282000       6.24361000      13.55302000  T      -0.00109500       0.00038200       0.00039300
Cu      11.21733000       6.25071000      13.60700000  T      -0.00122700      -0.00022800      -0.00019800
Cu       1.26398000       8.76769000      13.57632000  T      -0.00005300      -0.00076400      -0.00065700
Cu       3.77939000       8.75485000      13.58815000  T       0.00031900      -0.00062000       0.00035100
Cu       6.29326000       8.73175000      13.60053000  T      -0.00032500      -0.00032000       0.00112500
Cu       8.77917000       8.73392000      13.60415000  T      -0.00095400      -0.00052100       0.00101400
Cu      11.26807000       8.74543000      13.60195000  T      -0.00079000      -0.00028600      -0.00058500
Cu       1.24689000      11.26382000      13.59457000  T       0.00184900      -0.00009900      -0.00075100
Cu       3.74034000      11.26422000      13.56888000  T       0.00222500      -0.00001600      -0.00005100
Cu       6.25649000      11.26453000      13.55791000  T       0.00192300      -0.00002200       0.00021300
Cu       8.76474000      11.26388000      13.56775000  T       0.00116700      -0.00005800      -0.00015300
Cu      11.27175000      11.26391000      13.57730000  T       0.00100300      -0.00002000      -0.00102100
Cu      12.51146000       0.00784000      15.36957000  T       0.00169400      -0.00045800      -0.00131800
Cu       2.50864000       0.00812000      15.36406000  T       0.00196000       0.00013300      -0.00116200
Cu       5.00814000      12.47944000      15.34311000  T       0.00163800       0.00064100      -0.00142500
Cu       7.50986000      12.49498000      15.33555000  T       0.00119900       0.00062900      -0.00043100
Cu      10.01180000      12.49879000      15.35562000  T       0.00141200      -0.00008600      -0.00015200
Cu       0.06618000       2.50727000      15.35805000  T      -0.00367100      -0.00029000      -0.00042300
Cu       2.52719000       2.51025000      15.35084000  T      -0.00262900       0.00084500       0.00007100
Cu       4.98797000       2.40688000      15.41948000  T      -0.00314700       0.00184500       0.00146500
Cu       7.60988000       2.50182000      15.44621000  T      -0.00552200       0.00124200      -0.00002700
Cu      10.11905000       2.46246000      15.46828000  T      -0.00467500      -0.00001400      -0.00079200
Cu      12.43499000       5.00587000      15.34085000  T      -0.00352900       0.00015800       0.00080600
Cu       2.33998000       5.00624000      15.37102000  T      -0.00318800      -0.00004900       0.00199100
Pd       4.82400000       5.00506000      15.60188000  T      -0.03974300       0.00220500       0.03421700
Y        7.39526000       5.00647000      17.29767000  T      -0.00255300       0.00019100       0.00088500
Cu       9.92169000       5.00562000      15.47298000  T      -0.00425300       0.00040800       0.00003400
Cu       0.06658000       7.50375000      15.35800000  T      -0.00368100       0.00056300      -0.00044500
Cu       2.52760000       7.50146000      15.35051000  T      -0.00253700      -0.00092100       0.00026900
Cu       4.98838000       7.60483000      15.41664000  T      -0.00289200      -0.00143300       0.00194400
Cu       7.61227000       7.50965000      15.44457000  T      -0.00586800      -0.00159600      -0.00042800
Cu      10.11982000       7.54876000      15.46794000  T      -0.00494000       0.00025600      -0.00089300
Cu      12.51182000      10.00572000      15.36915000  T       0.00191200       0.00006200      -0.00085900
Cu       2.50933000      10.00487000      15.36366000  T       0.00206800      -0.00060200      -0.00141300
Cu       5.00862000      10.04730000      15.34173000  T       0.00174000      -0.00007600      -0.00129000
Cu       7.51001000      10.03160000      15.33494000  T       0.00139800      -0.00075000      -0.00044700
Cu      10.01171000      10.02715000      15.35542000  T       0.00166700       0.00046600      -0.00052600
O        6.20504000       3.38516000      16.49372000  T      -0.00298300      -0.00024600      -0.00155900
O        6.20708000       6.62560000      16.48786000  T      -0.00323000       0.00087200      -0.00131900
O        9.01028000       6.44855000      16.56833000  T      -0.00156700      -0.00151200      -0.00179600
O        9.00877000       3.56224000      16.56781000  T      -0.00162400       0.00193900      -0.00150400
C        5.20967000       5.02450000      18.66902000  T       0.00682500      -0.00045300       0.00308300
O        4.96837000       5.05180000      20.01171000  T       0.03853800      -0.00216600       0.03447100
O        4.18522000       5.01816000      17.94317000  T       0.01930600      -0.00064300       0.02610800
H        3.98344000       5.06284000      20.12700000  T       0.01434800      -0.00213400       0.02417700
108
Lattice="12.515153631 0.0 0.0 0.0 12.515153631 0.0 0.0 0.0 25.30973" Properties=species:S:1:pos:R:3:move_mask:L:1:forces:R:3 stress="0.007768650371258744 -3.7636300029076047e-06 -9.38410897076548e-05 -3.7636300029076047e-06 0.008033121837449796 4.369056388118281e-08 -9.38410897076548e-05 4.369056388118281e-08 0.001712526549432471" free_energy=-444.15501089 energy=-444.15167806 pbc="T T T"
Cu       1.25152000       1.25152000      10.00000000  F      -0.00289700      -0.01665600      -0.06872100
Cu       3.75455000       1.25152000      10.00000000  F       0.00670000       0.00507200      -0.07230000
Cu       6.25758000       1.25152000      10.00000000  F      -0.01160000       0.02017000      -0.06017300
Cu       8.76061000       1.25152000      10.00000000  F       0.01689900       0.00940600      -0.05142300
Cu      11.26364000       1.25152000      10.00000000  F      -0.01072500      -0.00151800      -0.07699800
Cu       1.25152000       3.75455000      10.00000000  F      -0.00247900       0.00885300      -0.07180800
Cu       3.75455000       3.75455000      10.00000000  F       0.01341600      -0.01730500      -0.05227800
Cu       6.25758000       3.75455000      10.00000000  F      -0.01322300      -0.01925800      -0.08118700
Cu       8.76061000       3.75455000      10.00000000  F       0.01838500      -0.01434100      -0.08575400
Cu      11.26364000       3.75455000      10.00000000  F      -0.01231300       0.00153400      -0.06225900
Cu       1.25152000       6.25758000      10.00000000  F      -0.00305000      -0.00720800      -0.07327500
Cu       3.75455000       6.25758000      10.00000000  F       0.01472600       0.01822400      -0.05277100
Cu       6.25758000       6.25758000      10.00000000  F      -0.01326100       0.02138900      -0.08440900
Cu       8.76061000       6.25758000      10.00000000  F       0.01711000       0.01518400      -0.08639200
Cu      11.26364000       6.25758000      10.00000000  F      -0.01177000       0.00014400      -0.06388900
Cu       1.25152000       8.76061000      10.00000000  F      -0.00264100       0.01334800      -0.06696600
Cu       3.75455000       8.76061000      10.00000000  F       0.00591400      -0.00743100      -0.07104300
Cu       6.25758000       8.76061000      10.00000000  F      -0.01160900      -0.02431500      -0.05816600
Cu       8.76061000       8.76061000      10.00000000  F       0.01767000      -0.01175700      -0.05059900
Cu      11.26364000       8.76061000      10.00000000  F      -0.01100000      -0.00188900      -0.07553600
Cu       1.25152000      11.26364000      10.00000000  F       0.00060100       0.00171900      -0.01856800
Cu       3.75455000      11.26364000      10.00000000  F      -0.00795500       0.00147000      -0.07636500
Cu       6.25758000      11.26364000      10.00000000  F      -0.00827100       0.00203100      -0.06319000
Cu       8.76061000      11.26364000      10.00000000  F       0.00522200       0.00151200      -0.07356700
Cu      11.26364000      11.26364000      10.00000000  F       0.00866700       0.00176600      -0.07033500
Cu       0.00000000       0.00000000      11.76991000  F      -0.02515400       0.04386800       0.07286000
Cu       2.50303000       0.00000000      11.76991000  F       0.02974100       0.03197100       0.03645400
Cu       5.00606000       0.00000000      11.76991000  F       0.05158300       0.09074700       0.04457700
Cu       7.50909000       0.00000000      11.76991000  F       0.03532300       0.07432700       0.04751300
Cu      10.01212000       0.00000000      11.76991000  F      -0.01154600       0.07605400       0.06705400
Cu       0.00000000       2.50303000      11.76991000  F      -0.08651200       0.03537400       0.06359300
Cu       2.50303000       2.50303000      11.76991000  F       0.05771800       0.02847700       0.04218100
Cu       5.00606000       2.50303000      11.76991000  F       0.00888200      -0.00038200       0.07852300
Cu       7.50909000       2.50303000      11.76991000  F      -0.05004900       0.02936000       0.10964700
Cu      10.01212000       2.50303000      11.76991000  F       0.06685000      -0.05725000       0.00913200
Cu       0.00000000       5.00606000      11.76991000  F      -0.12188000       0.00112300       0.04516500
Cu       2.50303000       5.00606000      11.76991000  F       0.05436800       0.00075200       0.03919400
Cu       5.00606000       5.00606000      11.76991000  F      -0.03349600       0.00174900       0.13619000
Cu       7.50909000       5.00606000      11.76991000  F      -0.08968700       0.00102800       0.12753700
Cu      10.01212000       5.00606000      11.76991000  F       0.04295000      -0.00045900       0.02649600
Cu       0.00000000       7.50909000      11.76991000  F      -0.08622600      -0.03875300       0.06505000
Cu       2.50303000       7.50909000      11.76991000  F       0.05699300      -0.03126400       0.04202900
Cu       5.00606000       7.50909000      11.76991000  F       0.01035900      -0.00418000       0.07977900
Cu       7.50909000       7.50909000      11.76991000  F      -0.04937400      -0.03377400       0.11020000
Cu      10.01212000       7.50909000      11.76991000  F       0.06887800       0.05506600       0.00896800
Cu       0.00000000      10.01212000      11.76991000  F      -0.02480400      -0.04205000       0.07113100
Cu       2.50303000      10.01212000      11.76991000  F       0.03035500      -0.03020800       0.03676600
Cu       5.00606000      10.01212000      11.76991000  F       0.05146900      -0.08664100       0.04354200
Cu       7.50909000      10.01212000      11.76991000  F       0.03592100      -0.07056900       0.04563200
Cu      10.01212000      10.01212000      11.76991000  F      -0.01136900      -0.07419500       0.06655600
Cu       1.26391000       1.24398000      13.57588000  T      -0.00106600       0.00020300       0.00096500
Cu       3.77963000       1.25751000      13.58884000  T      -0.00082600       0.00035600       0.00043900
Cu       6.29278000       1.28109000      13.60143000  T      -0.00081700      -0.00001200       0.00073200
Cu       8.77852000       1.27836000      13.60474000  T      -0.00111300      -0.00029800       0.00143200
Cu      11.26757000       1.26676000      13.60163000  T      -0.00147300      -0.00022500       0.00094100
Cu       1.23301000       3.75332000      13.56473000  T      -0.00173700       0.00000800       0.00126700
Cu       3.75294000       3.75765000      13.59595000  T      -0.00084500       0.00131700       0.00229700
Cu       6.25241000       3.78229000      13.59814000  T      -0.00273900       0.00083000       0.00271700
Cu       8.74188000       3.76751000      13.55345000  T      -0.00144800      -0.00047700       0.00145800
Cu      11.21695000       3.76097000      13.60723000  T      -0.00176900       0.00000700       0.00178000
Cu       1.23313000       6.25867000      13.56455000  T      -0.00148100      -0.00000500       0.00120700
Cu       3.75319000       6.25383000      13.59582000  T      -0.00098500      -0.00106400       0.00193800
Cu       6.25311000       6.22939000      13.59783000  T      -0.00289700      -0.00073900       0.00237400
Cu       8.74276000       6.24361000      13.55295000  T      -0.00137500       0.00028800       0.00115700
Cu      11.21729000       6.25069000      13.60688000  T      -0.00154000       0.00019200       0.00159800
Cu       1.26403000       8.76763000      13.57622000  T      -0.00097700      -0.00032600       0.00062300
Cu       3.77945000       8.75479000      13.58810000  T      -0.00078300      -0.00031200       0.00033000
Cu       6.29326000       8.73169000      13.60053000  T      -0.00091900       0.00024600       0.00052700
Cu       8.77913000       8.73387000      13.60413000  T      -0.00100300       0.00038600       0.00117800
Cu      11.26806000       8.74539000      13.60184000  T      -0.00124400       0.00039900       0.00066600
Cu       1.24703000      11.26381000      13.59445000  T       0.00059400      -0.00012400       0.00023900
Cu       3.74048000      11.26422000      13.56882000  T       0.00102800      -0.00000500      -0.00007300
Cu       6.25660000      11.26453000      13.55787000  T       0.00157900       0.00008500      -0.00000900
Cu       8.76480000      11.26387000      13.56769000  T       0.00085800       0.00010300       0.00026300
Cu      11.27184000      11.26391000      13.57718000  T       0.00036900       0.00002800       0.00035800
Cu      12.51160000       0.00782000      15.36939000  T       0.00053900      -0.00029600      -0.00005600
Cu       2.50879000       0.00814000      15.36389000  T       0.00050800       0.00020900       0.00050600
Cu       5.00825000      12.47949000      15.34294000  T       0.00105200       0.00035800       0.00041200
Cu       7.50993000      12.49502000      15.33544000  T       0.00139900       0.00013200       0.00090600
Cu      10.01189000      12.49878000      15.35552000  T       0.00112000       0.00001300       0.00073600
Cu       0.06607000       2.50727000      15.35792000  T      -0.00469100      -0.00022100       0.00071900
Cu       2.52716000       2.51033000      15.35073000  T      -0.00415100       0.00081000       0.00144500
Cu       4.98784000       2.40700000      15.41940000  T      -0.00443900       0.00106300       0.00201100
Cu       7.60960000       2.50190000      15.44608000  T      -0.00432100       0.00072400       0.00041300
Cu      10.11886000       2.46246000      15.46811000  T      -0.00501100       0.00014400       0.00008300
Cu      12.43486000       5.00588000      15.34076000  T      -0.00518800       0.00014300       0.00190700
Cu       2.33969000       5.00623000      15.37099000  T      -0.00982900      -0.00005500       0.00242700
Pd       4.82200000       5.00516000      15.60354000  T      -0.01146100       0.00040000       0.01048200
Y        7.39514000       5.00647000      17.29735000  T      -0.00218500       0.00020700      -0.00024200
Cu       9.92152000       5.00564000      15.47282000  T      -0.00372000       0.00020100       0.00047500
Cu       0.06646000       7.50377000      15.35787000  T      -0.00454700       0.00044400       0.00068400
Cu       2.52757000       7.50138000      15.35042000  T      -0.00412200      -0.00091400       0.00146100
Cu       4.98826000       7.60475000      15.41658000  T      -0.00462300      -0.00019700       0.00224700
Cu       7.61199000       7.50954000      15.44442000  T      -0.00460900      -0.00076800      -0.00026700
Cu      10.11961000       7.54878000      15.46776000  T      -0.00486300       0.00035400      -0.00007400
Cu      12.51197000      10.00572000      15.36900000  T       0.00079000       0.00015000       0.00028500
Cu       2.50949000      10.00483000      15.36349000  T       0.00056400      -0.00044500       0.00025200
Cu       5.00873000      10.04728000      15.34157000  T       0.00108400       0.00046400       0.00054100
Cu       7.51008000      10.03155000      15.33483000  T       0.00157600       0.00009700       0.00096900
Cu      10.01181000      10.02716000      15.35530000  T       0.00143300       0.00068900       0.00052200
O        6.20484000       3.38531000      16.49342000  T      -0.00241300       0.00029800      -0.00037300
O        6.20688000       6.62548000      16.48756000  T      -0.00271700       0.00026200       0.00016500
O        9.01015000       6.44848000      16.56810000  T      -0.00209800      -0.00088000      -0.00155400
O        9.00864000       3.56234000      16.56760000  T      -0.00216400       0.00116200      -0.00155900
C        5.20928000       5.02458000      18.66808000  T       0.01735800      -0.00095500       0.01942600
O        4.96740000       5.05185000      20.01105000  T       0.02600100      -0.00180100       0.02403100
O        4.18468000       5.01824000      17.94258000  T       0.01732800      -0.00033200       0.02494900
H        3.98189000       5.06314000      20.12365000  T       0.02520100      -0.00263800       0.03187200
108
Lattice="12.515153631 0.0 0.0 0.0 12.515153631 0.0 0.0 0.0 25.30973" Properties=species:S:1:pos:R:3:move_mask:L:1:forces:R:3 stress="0.0077433036026985326 -3.738663966404072e-06 -9.257406335510049e-05 -3.738663966404072e-06 0.00800940410277144 1.2483018251766519e-08 -9.257406335510049e-05 1.2483018251766519e-08 0.001688615327971212" free_energy=-444.14996996 energy=-444.14663342 pbc="T T T"
Cu       1.25152000       1.25152000      10.00000000  F      -0.00306700      -0.01667100      -0.06842800
Cu       3.75455000       1.25152000      10.00000000  F       0.00659900       0.00507400      -0.07206000
Cu       6.25758000       1.25152000      10.00000000  F      -0.01154000       0.02012600      -0.05991800
Cu       8.76061000       1.25152000      10.00000000  F       0.01698100       0.00935100      -0.05107200
Cu      11.26364000       1.25152000      10.00000000  F      -0.01080500      -0.00155900      -0.07667300
Cu       1.25152000       3.75455000      10.00000000  F      -0.00261600       0.00870100      -0.07161500
Cu       3.75455000       3.75455000      10.00000000  F       0.01332100      -0.01741600      -0.05207300
Cu       6.25758000       3.75455000      10.00000000  F      -0.01317800      -0.01933800      -0.08098000
Cu       8.76061000       3.75455000      10.00000000  F       0.01843200      -0.01444800      -0.08554900
Cu      11.26364000       3.75455000      10.00000000  F      -0.01238600       0.00137600      -0.06205600
Cu       1.25152000       6.25758000      10.00000000  F      -0.00315300      -0.00727200      -0.07324000
Cu       3.75455000       6.25758000      10.00000000  F       0.01472300       0.01813300      -0.05259800
Cu       6.25758000       6.25758000      10.00000000  F      -0.01320000       0.02137900      -0.08420500
Cu       8.76061000       6.25758000      10.00000000  F       0.01709100       0.01516000      -0.08620400
Cu      11.26364000       6.25758000      10.00000000  F      -0.01191600       0.00005700      -0.06376000
Cu       1.25152000       8.76061000      10.00000000  F      -0.00279500       0.01345000      -0.06731300
Cu       3.75455000       8.76061000      10.00000000  F       0.00586100      -0.00736000      -0.07093200
Cu       6.25758000       8.76061000      10.00000000  F      -0.01151600      -0.02423600      -0.05791900
Cu       8.76061000       8.76061000      10.00000000  F       0.01768200      -0.01165100      -0.05033500
Cu      11.26364000       8.76061000      10.00000000  F      -0.01111600      -0.00174900      -0.07552400
Cu       1.25152000      11.26364000      10.00000000  F       0.00042700       0.00185100      -0.01844000
Cu       3.75455000      11.26364000      10.00000000  F      -0.00799000       0.00161700      -0.07617500
Cu       6.25758000      11.26364000      10.00000000  F      -0.00818800       0.00210400      -0.06290700
Cu       8.76061000      11.26364000      10.00000000  F       0.00527700       0.00160800      -0.07320900
Cu      11.26364000      11.26364000      10.00000000  F       0.00851500       0.00193600      -0.07008700
Cu       0.00000000       0.00000000      11.76991000  F      -0.02528000       0.04374200       0.07279300
Cu       2.50303000       0.00000000      11.76991000  F       0.02949500       0.03188600       0.03630400
Cu       5.00606000       0.00000000      11.76991000  F       0.05152600       0.09072600       0.04431100
Cu       7.50909000       0.00000000      11.76991000  F       0.03547000       0.07427300       0.04724100
Cu      10.01212000       0.00000000      11.76991000  F      -0.01148700       0.07600200       0.06690300
Cu       0.00000000       2.50303000      11.76991000  F      -0.08659000       0.03528700       0.06357600
Cu       2.50303000       2.50303000      11.76991000  F       0.05756200       0.02839600       0.04209000
Cu       5.00606000       2.50303000      11.76991000  F       0.00888800      -0.00044400       0.07832800
Cu       7.50909000       2.50303000      11.76991000  F      -0.04994600       0.02935200       0.10948300
Cu      10.01212000       2.50303000      11.76991000  F       0.06692700      -0.05735800       0.00902400
Cu       0.00000000       5.00606000      11.76991000  F      -0.12192200       0.00117100       0.04516900
Cu       2.50303000       5.00606000      11.76991000  F       0.05422000       0.00078100       0.03909900
Cu       5.00606000       5.00606000      11.76991000  F      -0.03346100       0.00172800       0.13589700
Cu       7.50909000       5.00606000      11.76991000  F      -0.08954600       0.00100900       0.12737200
Cu      10.01212000       5.00606000      11.76991000  F       0.04300300      -0.00045800       0.02641500
Cu       0.00000000       7.50909000      11.76991000  F      -0.08630400      -0.03865800       0.06503600
Cu       2.50303000       7.50909000      11.76991000  F       0.05681200      -0.03117100       0.04192200
Cu       5.00606000       7.50909000      11.76991000  F       0.01031800      -0.00411400       0.07955100
Cu       7.50909000       7.50909000      11.76991000  F      -0.04925500      -0.03376300       0.11001000
Cu      10.01212000       7.50909000      11.76991000  F       0.06900800       0.05518000       0.00883700
Cu       0.00000000      10.01212000      11.76991000  F      -0.02493600      -0.04196600       0.07108200
Cu       2.50303000      10.01212000      11.76991000  F       0.03009300      -0.03014600       0.03662000
Cu       5.00606000      10.01212000      11.76991000  F       0.05136600      -0.08659600       0.04324700
Cu       7.50909000      10.01212000      11.76991000  F       0.03608300      -0.07048700       0.04534300
Cu      10.01212000      10.01212000      11.76991000  F      -0.01126300      -0.07413800       0.06638900
Cu       1.26392000       1.24398000      13.57590000  T      -0.00096900       0.00024200       0.00007600
Cu       3.77964000       1.25750000      13.58884000  T      -0.00070300       0.00049100       0.00011000
Cu       6.29279000       1.28108000      13.60142000  T      -0.00061900       0.00019600       0.00048500
Cu       8.77852000       1.27836000      13.60475000  T      -0.00084200      -0.00016300       0.00069300
Cu      11.26757000       1.26675000      13.60165000  T      -0.00122200      -0.00009900      -0.00005500
Cu       1.23304000       3.75332000      13.56476000  T      -0.00167100      -0.00004900       0.00022000
Cu       3.75296000       3.75765000      13.59594000  T      -0.00082800       0.00114000       0.00184300
Cu       6.25242000       3.78230000      13.59814000  T      -0.00237000       0.00069200       0.00217800
Cu       8.74190000       3.76751000      13.55347000  T      -0.00126900      -0.00042000       0.00047200
Cu      11.21697000       3.76097000      13.60726000  T      -0.00155600       0.00003700       0.00056200
Cu       1.23316000       6.25867000      13.56458000  T      -0.00153800      -0.00001300       0.00022400
Cu       3.75322000       6.25383000      13.59580000  T      -0.00088500      -0.00096400       0.00161300
Cu       6.25312000       6.22938000      13.59783000  T      -0.00251400      -0.00055000       0.00195700
Cu       8.74277000       6.24361000      13.55296000  T      -0.00120300       0.00025500       0.00028100
Cu      11.21730000       6.25068000      13.60691000  T      -0.00143000       0.00011300       0.00046600
Cu       1.26404000       8.76764000      13.57623000  T      -0.00090200      -0.00037300      -0.00007200
Cu       3.77946000       8.75479000      13.58810000  T      -0.00061400      -0.00043800       0.00009800
Cu       6.29327000       8.73170000      13.60051000  T      -0.00067700       0.00001400       0.00040600
Cu       8.77913000       8.73387000      13.60414000  T      -0.00074900       0.00021500       0.00056300
Cu      11.26806000       8.74539000      13.60186000  T      -0.00104700       0.00026300      -0.00020900
Cu       1.24702000      11.26381000      13.59447000  T       0.00071200      -0.00009400      -0.00046200
Cu       3.74048000      11.26422000      13.56881000  T       0.00112900       0.00002200      -0.00033300
Cu       6.25659000      11.26453000      13.55786000  T       0.00174200       0.00007000      -0.00022700
Cu       8.76479000      11.26387000      13.56770000  T       0.00121700       0.00007000      -0.00032000
Cu      11.27182000      11.26391000      13.57720000  T       0.00061800       0.00004400      -0.00055300
Cu      12.51159000       0.00782000      15.36941000  T       0.00090200      -0.00038600      -0.00054300
Cu       2.50878000       0.00814000      15.36391000  T       0.00086100       0.00018500      -0.00002300
Cu       5.00824000      12.47948000      15.34295000  T       0.00119000       0.00046300      -0.00006200
Cu       7.50992000      12.49501000      15.33545000  T       0.00142700       0.00018700       0.00059200
Cu      10.01188000      12.49878000      15.35552000  T       0.00133200      -0.00007700       0.00041600
Cu       0.06609000       2.50727000      15.35793000  T      -0.00431900      -0.00031000       0.00025400
Cu       2.52718000       2.51032000      15.35074000  T      -0.00375900       0.00074900       0.00084800
Cu       4.98787000       2.40700000      15.41939000  T      -0.00406800       0.00109200       0.00156600
Cu       7.60965000       2.50190000      15.44608000  T      -0.00451200       0.00075100       0.00025500
Cu      10.11889000       2.46247000      15.46812000  T      -0.00472400       0.00001000      -0.00010100
Cu      12.43491000       5.00588000      15.34076000  T      -0.00506100       0.00014300       0.00146500
Cu       2.33970000       5.00623000      15.37097000  T      -0.00870600      -0.00005800       0.00214900
Pd       4.82214000       5.00515000      15.60340000  T      -0.02726100       0.00123800       0.02329300
Y        7.39511000       5.00647000      17.29734000  T      -0.00328700       0.00023500       0.00244600
Cu       9.92155000       5.00564000      15.47284000  T      -0.00349300       0.00026500       0.00029700
Cu       0.06649000       7.50377000      15.35788000  T      -0.00422200       0.00053200       0.00025800
Cu       2.52759000       7.50139000      15.35043000  T      -0.00372100      -0.00085400       0.00093200
Cu       4.98829000       7.60475000      15.41657000  T      -0.00403700      -0.00035200       0.00186800
Cu       7.61203000       7.50955000      15.44442000  T      -0.00480700      -0.00090900      -0.00030600
Cu      10.11965000       7.54877000      15.46778000  T      -0.00475900       0.00036200      -0.00019700
Cu      12.51195000      10.00571000      15.36902000  T       0.00113500       0.00018200      -0.00015700
Cu       2.50947000      10.00483000      15.36351000  T       0.00094500      -0.00048000      -0.00023800
Cu       5.00873000      10.04728000      15.34158000  T       0.00127300       0.00029100       0.00005900
Cu       7.51008000      10.03155000      15.33483000  T       0.00162000      -0.00008500       0.00059900
Cu      10.01180000      10.02716000      15.35531000  T       0.00161000       0.00066600       0.00016600
O        6.20491000       3.38531000      16.49344000  T      -0.00212100      -0.00041400       0.00013700
O        6.20695000       6.62547000      16.48758000  T      -0.00231500       0.00099400       0.00039700
O        9.01018000       6.44845000      16.56812000  T      -0.00192500      -0.00090300      -0.00047600
O        9.00868000       3.56236000      16.56761000  T      -0.00207300       0.00128700      -0.00033500
C        5.20920000       5.02456000      18.66790000  T       0.01174900      -0.00081300       0.02074200
O        4.96701000       5.05188000      20.01079000  T       0.04153300      -0.00217000       0.02556300
O        4.18461000       5.01825000      17.94228000  T       0.02378400      -0.00057400       0.02769300
H        3.98176000       5.06314000      20.12371000  T       0.01577200      -0.00240300       0.03165600
108
Lattice="12.515153631 0.0 0.0 0.0 12.515153631 0.0 0.0 0.0 25.30973" Properties=species:S:1:pos:R:3:move_mask:L:1:forces:R:3 stress="0.007750837104213474 -3.8010790576629046e-06 -0.00010719791923704497 -3.8010790576629046e-06 0.008023353875667789 6.179094034624426e-07 -0.00010719791923704497 6.179094034624426e-07 0.0017146736285717744" free_energy=-444.15234459 energy=-444.14902444 pbc="T T T"
Cu       1.25152000       1.25152000      10.00000000  F      -0.00306300      -0.01647600      -0.06792200
Cu       3.75455000       1.25152000      10.00000000  F       0.00617900       0.00522800      -0.07153300
Cu       6.25758000       1.25152000      10.00000000  F      -0.01208600       0.02029200      -0.05959500
Cu       8.76061000       1.25152000      10.00000000  F       0.01676400       0.00960700      -0.05099000
Cu      11.26364000       1.25152000      10.00000000  F      -0.01069200      -0.00124400      -0.07636200
Cu       1.25152000       3.75455000      10.00000000  F      -0.00270900       0.00878200      -0.07087300
Cu       3.75455000       3.75455000      10.00000000  F       0.01294800      -0.01724900      -0.05141800
Cu       6.25758000       3.75455000      10.00000000  F      -0.01372100      -0.01916600      -0.08058200
Cu       8.76061000       3.75455000      10.00000000  F       0.01827800      -0.01432400      -0.08504100
Cu      11.26364000       3.75455000      10.00000000  F      -0.01232800       0.00145100      -0.06154100
Cu       1.25152000       6.25758000      10.00000000  F      -0.00323100      -0.00737900      -0.07252600
Cu       3.75455000       6.25758000      10.00000000  F       0.01436500       0.01798100      -0.05195400
Cu       6.25758000       6.25758000      10.00000000  F      -0.01373500       0.02124400      -0.08379400
Cu       8.76061000       6.25758000      10.00000000  F       0.01691400       0.01503400      -0.08567600
Cu      11.26364000       6.25758000      10.00000000  F      -0.01187100      -0.00001000      -0.06328900
Cu       1.25152000       8.76061000      10.00000000  F      -0.00278300       0.01328400      -0.06685000
Cu       3.75455000       8.76061000      10.00000000  F       0.00546900      -0.00749100      -0.07042000
Cu       6.25758000       8.76061000      10.00000000  F      -0.01207000      -0.02438500      -0.05757600
Cu       8.76061000       8.76061000      10.00000000  F       0.01745400      -0.01188000      -0.05019400
Cu      11.26364000       8.76061000      10.00000000  F      -0.01101300      -0.00202800      -0.07535200
Cu       1.25152000      11.26364000      10.00000000  F       0.00044200       0.00189900      -0.01813500
Cu       3.75455000      11.26364000      10.00000000  F      -0.00843200       0.00163100      -0.07578700
Cu       6.25758000      11.26364000      10.00000000  F      -0.00865700       0.00210100      -0.06281300
Cu       8.76061000      11.26364000      10.00000000  F       0.00500100       0.00163700      -0.07340800
Cu      11.26364000      11.26364000      10.00000000  F       0.00863900       0.00194700      -0.06994300
Cu       0.00000000       0.00000000      11.76991000  F      -0.02538500       0.04419500       0.07424700
Cu       2.50303000       0.00000000      11.76991000  F       0.02897000       0.03231100       0.03787300
Cu       5.00606000       0.00000000      11.76991000  F       0.05077900       0.09116100       0.04594600
Cu       7.50909000       0.00000000      11.76991000  F       0.03483000       0.07496800       0.04868100
Cu      10.01212000       0.00000000      11.76991000  F      -0.01171900       0.07632800       0.06821100
Cu       0.00000000       2.50303000      11.76991000  F      -0.08726600       0.03554600       0.06531300
Cu       2.50303000       2.50303000      11.76991000  F       0.05677400       0.02918000       0.04442400
Cu       5.00606000       2.50303000      11.76991000  F       0.00739200       0.00050800       0.08081900
Cu       7.50909000       2.50303000      11.76991000  F      -0.05115700       0.02972300       0.11186200
Cu      10.01212000       2.50303000      11.76991000  F       0.06602500      -0.05681800       0.01125300
Cu       0.00000000       5.00606000      11.76991000  F      -0.12272600       0.00119200       0.04706400
Cu       2.50303000       5.00606000      11.76991000  F       0.05320900       0.00072300       0.04150900
Cu       5.00606000       5.00606000      11.76991000  F      -0.03486100       0.00166900       0.13822500
Cu       7.50909000       5.00606000      11.76991000  F      -0.09150800       0.00093800       0.13071500
Cu      10.01212000       5.00606000      11.76991000  F       0.04219400      -0.00048600       0.02902500
Cu       0.00000000       7.50909000      11.76991000  F      -0.08690600      -0.03892700       0.06663000
Cu       2.50303000       7.50909000      11.76991000  F       0.05603300      -0.03186900       0.04400800
Cu       5.00606000       7.50909000      11.76991000  F       0.00880400      -0.00491100       0.08184500
Cu       7.50909000       7.50909000      11.76991000  F      -0.05046400      -0.03404800       0.11238700
Cu      10.01212000       7.50909000      11.76991000  F       0.06815500       0.05471800       0.01098400
Cu       0.00000000      10.01212000      11.76991000  F      -0.02501800      -0.04228100       0.07239000
Cu       2.50303000      10.01212000      11.76991000  F       0.02960800      -0.03046400       0.03807700
Cu       5.00606000      10.01212000      11.76991000  F       0.05061200      -0.08687700       0.04481800
Cu       7.50909000      10.01212000      11.76991000  F       0.03547300      -0.07099300       0.04677400
Cu      10.01212000      10.01212000      11.76991000  F      -0.01150000      -0.07430600       0.06765600
Cu       1.26356000       1.24400000      13.57627000  T      -0.00037100       0.00063100      -0.00125100
Cu       3.77929000       1.25759000      13.58912000  T      -0.00057400       0.00119000      -0.00028400
Cu       6.29246000       1.28109000      13.60175000  T      -0.00088000       0.00128500       0.00039600
Cu       8.77817000       1.27827000      13.60517000  T      -0.00066000       0.00080000      -0.00101000
Cu      11.26717000       1.26669000      13.60199000  T      -0.00036200       0.00084100      -0.00164100
Cu       1.23248000       3.75329000      13.56515000  T      -0.00159600       0.00030700      -0.00177600
Cu       3.75250000       3.75790000      13.59664000  T      -0.00145200       0.00073700       0.00098000
Cu       6.25172000       3.78240000      13.59881000  T      -0.00106600       0.00001300      -0.00034400
Cu       8.74143000       3.76740000      13.55389000  T      -0.00148300       0.00045000      -0.00184800
Cu      11.21645000       3.76095000      13.60778000  T      -0.00132000       0.00032700      -0.00210300
Cu       1.23265000       6.25871000      13.56496000  T      -0.00174000      -0.00040800      -0.00166400
Cu       3.75274000       6.25364000      13.59645000  T      -0.00129900      -0.00064000       0.00105800
Cu       6.25238000       6.22931000      13.59844000  T      -0.00112800       0.00026900      -0.00011100
Cu       8.74233000       6.24368000      13.55332000  T      -0.00146200      -0.00035600      -0.00167200
Cu      11.21684000       6.25075000      13.60739000  T      -0.00136800      -0.00011500      -0.00194800
Cu       1.26370000       8.76761000      13.57654000  T      -0.00032200      -0.00067600      -0.00103200
Cu       3.77912000       8.75474000      13.58837000  T      -0.00038500      -0.00107900      -0.00005800
Cu       6.29291000       8.73177000      13.60082000  T      -0.00077900      -0.00118300       0.00064400
Cu       8.77881000       8.73400000      13.60452000  T      -0.00066100      -0.00078600      -0.00075400
Cu      11.26771000       8.74552000      13.60215000  T      -0.00042500      -0.00078500      -0.00144100
Cu       1.24706000      11.26380000      13.59468000  T       0.00109900       0.00001900      -0.00128800
Cu       3.74057000      11.26423000      13.56899000  T       0.00082400       0.00006300      -0.00024000
Cu       6.25681000      11.26456000      13.55804000  T       0.00040900       0.00004300       0.00013600
Cu       8.76492000      11.26391000      13.56790000  T       0.00074400      -0.00000800      -0.00049200
Cu      11.27186000      11.26393000      13.57742000  T       0.00104300       0.00007300      -0.00140300
Cu      12.51162000       0.00775000      15.36965000  T       0.00113900      -0.00008800       0.00004400
Cu       2.50879000       0.00817000      15.36422000  T       0.00114300       0.00019400      -0.00053800
Cu       5.00836000      12.47956000      15.34324000  T       0.00064100       0.00063300      -0.00065300
Cu       7.51013000      12.49501000      15.33587000  T       0.00020000       0.00021300       0.00015200
Cu      10.01204000      12.49878000      15.35593000  T       0.00065000       0.00010800       0.00050800
Cu       0.06491000       2.50721000      15.35834000  T      -0.00232100       0.00031400      -0.00018300
Cu       2.52607000       2.51048000      15.35128000  T      -0.00168400       0.00105600       0.00025500
Cu       4.98664000       2.40719000      15.42012000  T      -0.00276200       0.00090600       0.00075700
Cu       7.60856000       2.50199000      15.44641000  T      -0.00374200       0.00086300       0.00013800
Cu      10.11765000       2.46244000      15.46838000  T      -0.00262000      -0.00003900      -0.00055400
Cu      12.43351000       5.00592000      15.34146000  T      -0.00392800       0.00012100       0.00051600
Cu       2.33759000       5.00623000      15.37179000  T      -0.00111800      -0.00004200       0.00113900
Pd       4.82015000       5.00526000      15.60535000  T      -0.01435700       0.00104900       0.01591500
Y        7.39450000       5.00654000      17.29784000  T       0.00128700       0.00022000       0.00242100
Cu       9.92060000       5.00569000      15.47317000  T      -0.00277900       0.00021500      -0.00075500
Cu       0.06534000       7.50388000      15.35827000  T      -0.00231400      -0.00018300      -0.00015200
Cu       2.52649000       7.50121000      15.35096000  T      -0.00152100      -0.00124600       0.00029500
Cu       4.98703000       7.60475000      15.41737000  T      -0.00223900      -0.00046600       0.00118900
Cu       7.61087000       7.50945000      15.44460000  T      -0.00366300      -0.00124700       0.00019300
Cu      10.11843000       7.54892000      15.46801000  T      -0.00267700       0.00023600      -0.00061600
Cu      12.51205000      10.00578000      15.36931000  T       0.00121500      -0.00000700      -0.00003600
Cu       2.50950000      10.00476000      15.36376000  T       0.00127900      -0.00043000      -0.00051900
Cu       5.00885000      10.04741000      15.34190000  T       0.00078100      -0.00034000      -0.00061700
Cu       7.51032000      10.03162000      15.33526000  T       0.00031000      -0.00045600      -0.00002000
Cu      10.01204000      10.02734000      15.35568000  T       0.00071000      -0.00003400       0.00036300
O        6.20397000       3.38532000      16.49384000  T      -0.00645400       0.00215100      -0.00095900
O        6.20592000       6.62566000      16.48816000  T      -0.00632500      -0.00139700      -0.00051500
O        9.00934000       6.44831000      16.56822000  T      -0.00226000       0.00215800      -0.00069300
O        9.00780000       3.56261000      16.56772000  T      -0.00222400      -0.00140500      -0.00025700
C        5.21627000       5.02413000      18.67690000  T       0.01370300       0.00096200       0.01742000
O        4.97928000       5.05098000      20.02090000  T       0.03950100      -0.00393600       0.03003400
O        4.19110000       5.01797000      17.95286000  T       0.00874700      -0.00076900       0.03250400
H        3.99470000       5.06166000      20.14115000  T       0.02248600      -0.00198900       0.01520700
108
Lattice="12.515153631 0.0 0.0 0.0 12.515153631 0.0 0.0 0.0 25.30973" Properties=species:S:1:pos:R:3:move_mask:L:1:forces:R:3 stress="0.0077426420027311895 -3.807320566788788e-06 -0.00011058705869239958 -3.807320566788788e-06 0.008014790525147078 1.0111244783930879e-06 -0.00011058705869239958 1.0111244783930879e-06 0.0017157971002144336" free_energy=-444.15010037 energy=-444.1467979 pbc="T T T"
Cu       1.25152000       1.25152000      10.00000000  F      -0.00291300      -0.01625500      -0.06877100
Cu       3.75455000       1.25152000      10.00000000  F       0.00677900       0.00547500      -0.07287800
Cu       6.25758000       1.25152000      10.00000000  F      -0.01079200       0.02043900      -0.06093000
Cu       8.76061000       1.25152000      10.00000000  F       0.01808600       0.00968700      -0.05184700
Cu      11.26364000       1.25152000      10.00000000  F      -0.01011900      -0.00112300      -0.07706500
Cu       1.25152000       3.75455000      10.00000000  F      -0.00246800       0.00897100      -0.07158600
Cu       3.75455000       3.75455000      10.00000000  F       0.01352200      -0.01704500      -0.05257300
Cu       6.25758000       3.75455000      10.00000000  F      -0.01258200      -0.01901700      -0.08185200
Cu       8.76061000       3.75455000      10.00000000  F       0.01959200      -0.01423900      -0.08583200
Cu      11.26364000       3.75455000      10.00000000  F      -0.01167100       0.00154200      -0.06208600
Cu       1.25152000       6.25758000      10.00000000  F      -0.00301400      -0.00759100      -0.07321900
Cu       3.75455000       6.25758000      10.00000000  F       0.01491900       0.01771200      -0.05311300
Cu       6.25758000       6.25758000      10.00000000  F      -0.01258600       0.02101900      -0.08507000
Cu       8.76061000       6.25758000      10.00000000  F       0.01825400       0.01491500      -0.08645600
Cu      11.26364000       6.25758000      10.00000000  F      -0.01120700      -0.00014100      -0.06378500
Cu       1.25152000       8.76061000      10.00000000  F      -0.00264400       0.01295700      -0.06762900
Cu       3.75455000       8.76061000      10.00000000  F       0.00604400      -0.00783100      -0.07177200
Cu       6.25758000       8.76061000      10.00000000  F      -0.01076800      -0.02461900      -0.05892200
Cu       8.76061000       8.76061000      10.00000000  F       0.01879700      -0.01206000      -0.05102000
Cu      11.26364000       8.76061000      10.00000000  F      -0.01043500      -0.00225900      -0.07586800
Cu       1.25152000      11.26364000      10.00000000  F       0.00055600       0.00181400      -0.01910800
Cu       3.75455000      11.26364000      10.00000000  F      -0.00779300       0.00157300      -0.07725800
Cu       6.25758000      11.26364000      10.00000000  F      -0.00726800       0.00204900      -0.06424300
Cu       8.76061000      11.26364000      10.00000000  F       0.00632500       0.00155900      -0.07427400
Cu      11.26364000      11.26364000      10.00000000  F       0.00915100       0.00187600      -0.07046000
Cu       0.00000000       0.00000000      11.76991000  F      -0.02529000       0.04434400       0.07351800
Cu       2.50303000       0.00000000      11.76991000  F       0.02890500       0.03255400       0.03711000
Cu       5.00606000       0.00000000      11.76991000  F       0.05167300       0.09134700       0.04481800
Cu       7.50909000       0.00000000      11.76991000  F       0.03643400       0.07511500       0.04730200
Cu      10.01212000       0.00000000      11.76991000  F      -0.01057400       0.07628900       0.06713000
Cu       0.00000000       2.50303000      11.76991000  F      -0.08712200       0.03563900       0.06472500
Cu       2.50303000       2.50303000      11.76991000  F       0.05671400       0.02961500       0.04400600
Cu       5.00606000       2.50303000      11.76991000  F       0.00792600       0.00098700       0.08005700
Cu       7.50909000       2.50303000      11.76991000  F      -0.04981400       0.02969800       0.11072000
Cu      10.01212000       2.50303000      11.76991000  F       0.06706200      -0.05678200       0.01031300
Cu       0.00000000       5.00606000      11.76991000  F      -0.12251300       0.00112800       0.04653600
Cu       2.50303000       5.00606000      11.76991000  F       0.05321200       0.00067500       0.04130400
Cu       5.00606000       5.00606000      11.76991000  F      -0.03440800       0.00161800       0.13769800
Cu       7.50909000       5.00606000      11.76991000  F      -0.09064000       0.00089200       0.12990700
Cu      10.01212000       5.00606000      11.76991000  F       0.04327400      -0.00055100       0.02820800
Cu       0.00000000       7.50909000      11.76991000  F      -0.08673700      -0.03911200       0.06603400
Cu       2.50303000       7.50909000      11.76991000  F       0.05600100      -0.03237800       0.04359200
Cu       5.00606000       7.50909000      11.76991000  F       0.00933400      -0.00544300       0.08107300
Cu       7.50909000       7.50909000      11.76991000  F      -0.04915100      -0.03410100       0.11127500
Cu      10.01212000       7.50909000      11.76991000  F       0.06919400       0.05460200       0.01004300
Cu       0.00000000      10.01212000      11.76991000  F      -0.02491200      -0.04246300       0.07165200
Cu       2.50303000      10.01212000      11.76991000  F       0.02957300      -0.03077700       0.03732200
Cu       5.00606000      10.01212000      11.76991000  F       0.05150400      -0.08712200       0.04369600
Cu       7.50909000      10.01212000      11.76991000  F       0.03705800      -0.07118500       0.04541700
Cu      10.01212000      10.01212000      11.76991000  F      -0.01035600      -0.07429500       0.06657300
Cu       1.26348000       1.24401000      13.57633000  T      -0.00124000       0.00110200      -0.00088300
Cu       3.77920000       1.25764000      13.58918000  T      -0.00141300       0.00204200      -0.00018000
Cu       6.29237000       1.28112000      13.60184000  T      -0.00082600       0.00184900       0.00059100
Cu       8.77809000       1.27828000      13.60523000  T      -0.00009000       0.00085500      -0.00113700
Cu      11.26708000       1.26670000      13.60203000  T      -0.00040500       0.00094400      -0.00173500
Cu       1.23232000       3.75329000      13.56520000  T      -0.00309000       0.00062400      -0.00145300
Cu       3.75236000       3.75797000      13.59682000  T      -0.00256000       0.00202900       0.00264300
Cu       6.25156000       3.78241000      13.59893000  T      -0.00235300       0.00057500       0.00041900
Cu       8.74129000       3.76739000      13.55393000  T      -0.00161400       0.00046300      -0.00230000
Cu      11.21631000       3.76095000      13.60783000  T      -0.00183400       0.00049100      -0.00219500
Cu       1.23250000       6.25871000      13.56500000  T      -0.00315600      -0.00081000      -0.00135500
Cu       3.75260000       6.25359000      13.59661000  T      -0.00244900      -0.00185400       0.00261000
Cu       6.25221000       6.22931000      13.59856000  T      -0.00246500      -0.00023200       0.00060100
Cu       8.74220000       6.24369000      13.55336000  T      -0.00159300      -0.00046000      -0.00223300
Cu      11.21671000       6.25077000      13.60744000  T      -0.00184700      -0.00019200      -0.00208300
Cu       1.26362000       8.76759000      13.57659000  T      -0.00109500      -0.00125600      -0.00073900
Cu       3.77903000       8.75470000      13.58844000  T      -0.00116000      -0.00188400       0.00004000
Cu       6.29282000       8.73175000      13.60091000  T      -0.00076000      -0.00162700       0.00080600
Cu       8.77873000       8.73401000      13.60458000  T      -0.00008800      -0.00082500      -0.00091600
Cu      11.26763000       8.74552000      13.60219000  T      -0.00037500      -0.00079900      -0.00160700
Cu       1.24709000      11.26380000      13.59470000  T       0.00151700      -0.00004600      -0.00137700
Cu       3.74060000      11.26424000      13.56903000  T       0.00145900       0.00007300      -0.00028000
Cu       6.25686000      11.26457000      13.55810000  T       0.00217900       0.00009700      -0.00012500
Cu       8.76496000      11.26391000      13.56794000  T       0.00280300       0.00003100      -0.00080500
Cu      11.27189000      11.26394000      13.57744000  T       0.00229900       0.00011800      -0.00159800
Cu      12.51165000       0.00773000      15.36971000  T       0.00223100      -0.00013800       0.00004300
Cu       2.50881000       0.00818000      15.36427000  T       0.00140000       0.00057800      -0.00020700
Cu       5.00838000      12.47959000      15.34329000  T       0.00149700       0.00121900       0.00004100
Cu       7.51016000      12.49501000      15.33596000  T       0.00211600       0.00029300       0.00112900
Cu      10.01208000      12.49878000      15.35603000  T       0.00274300       0.00010400       0.00101800
Cu       0.06463000       2.50721000      15.35842000  T      -0.00520700       0.00063100      -0.00005800
Cu       2.52581000       2.51053000      15.35140000  T      -0.00516300       0.00228900       0.00142800
Cu       4.98633000       2.40725000      15.42030000  T      -0.00629000       0.00176000       0.00220400
Cu       7.60825000       2.50203000      15.44649000  T      -0.00666300       0.00151300       0.00059800
Cu      10.11735000       2.46243000      15.46844000  T      -0.00446100      -0.00016100      -0.00099900
Cu      12.43314000       5.00593000      15.34162000  T      -0.00744900       0.00019600       0.00148700
Cu       2.33720000       5.00623000      15.37199000  T      -0.00643300      -0.00010000       0.00319500
Pd       4.81950000       5.00531000      15.60608000  T      -0.03122500       0.00227200       0.03476000
Y        7.39442000       5.00656000      17.29801000  T       0.00097400       0.00029700       0.00062700
Cu       9.92034000       5.00571000      15.47322000  T      -0.00425100       0.00033100      -0.00118000
Cu       0.06507000       7.50389000      15.35835000  T      -0.00517100      -0.00039300       0.00003000
Cu       2.52624000       7.50114000      15.35109000  T      -0.00491000      -0.00272400       0.00145700
Cu       4.98673000       7.60474000      15.41756000  T      -0.00576100      -0.00070000       0.00283200
Cu       7.61055000       7.50939000      15.44466000  T      -0.00670900      -0.00205600       0.00039800
Cu      10.11814000       7.54896000      15.46806000  T      -0.00437100       0.00067700      -0.00115700
Cu      12.51209000      10.00579000      15.36938000  T       0.00246100      -0.00004600      -0.00001100
Cu       2.50952000      10.00474000      15.36381000  T       0.00163700      -0.00106300      -0.00021500
Cu       5.00888000      10.04742000      15.34195000  T       0.00175500      -0.00037800       0.00012700
Cu       7.51036000      10.03162000      15.33535000  T       0.00233400      -0.00057700       0.00092000
Cu      10.01209000      10.02737000      15.35577000  T       0.00299400       0.00035200       0.00074300
O        6.20358000       3.38540000      16.49393000  T      -0.00577800       0.00355000      -0.00044700
O        6.20551000       6.62564000      16.48830000  T      -0.00554100      -0.00273400       0.00021300
O        9.00909000       6.44835000      16.56825000  T      -0.00188300       0.00214800      -0.00085600
O        9.00754000       3.56261000      16.56776000  T      -0.00169000      -0.00147500      -0.00039200
C        5.21823000       5.02406000      18.67936000  T       0.01783600       0.00078900       0.01887500
O        4.98291000       5.05066000      20.02385000  T       0.03618600      -0.00450100       0.03039000
O        4.19264000       5.01789000      17.95607000  T       0.01310300      -0.00071800       0.04249100
H        3.99844000       5.06126000      20.14557000  T       0.02773400      -0.00224300       0.01339800
108
Lattice="12.515153631 0.0 0.0 0.0 12.515153631 0.0 0.0 0.0 25.30973" Properties=species:S:1:pos:R:3:move_mask:L:1:forces:R:3 stress="0.007799389803703719 -3.5763847291311073e-06 -0.00012019898274625978 -3.5763847291311073e-06 0.008076575223984195 1.5791018088484645e-06 -0.00012019898274625978 1.5791018088484645e-06 0.0018071852768356165" free_energy=-444.15559075 energy=-444.15230948 pbc="T T T"
Cu       1.25152000       1.25152000      10.00000000  F      -0.00297300      -0.01663900      -0.06799200
Cu       3.75455000       1.25152000      10.00000000  F       0.00650000       0.00500700      -0.07150700
Cu       6.25758000       1.25152000      10.00000000  F      -0.01196900       0.02002400      -0.05935500
Cu       8.76061000       1.25152000      10.00000000  F       0.01665000       0.00945100      -0.05076400
Cu      11.26364000       1.25152000      10.00000000  F      -0.01088100      -0.00133600      -0.07648900
Cu       1.25152000       3.75455000      10.00000000  F      -0.00267900       0.00876900      -0.07106200
Cu       3.75455000       3.75455000      10.00000000  F       0.01332500      -0.01717700      -0.05163700
Cu       6.25758000       3.75455000      10.00000000  F      -0.01368700      -0.01911400      -0.08076400
Cu       8.76061000       3.75455000      10.00000000  F       0.01825200      -0.01436300      -0.08474800
Cu      11.26364000       3.75455000      10.00000000  F      -0.01254200       0.00131300      -0.06168000
Cu       1.25152000       6.25758000      10.00000000  F      -0.00322500      -0.00723800      -0.07268500
Cu       3.75455000       6.25758000      10.00000000  F       0.01471100       0.01800300      -0.05218300
Cu       6.25758000       6.25758000      10.00000000  F      -0.01368700       0.02127400      -0.08395900
Cu       8.76061000       6.25758000      10.00000000  F       0.01691500       0.01519900      -0.08534900
Cu      11.26364000       6.25758000      10.00000000  F      -0.01207400       0.00025100      -0.06337400
Cu       1.25152000       8.76061000      10.00000000  F      -0.00270800       0.01343000      -0.06677100
Cu       3.75455000       8.76061000      10.00000000  F       0.00577200      -0.00727100      -0.07037700
Cu       6.25758000       8.76061000      10.00000000  F      -0.01193800      -0.02410800      -0.05732100
Cu       8.76061000       8.76061000      10.00000000  F       0.01736800      -0.01173000      -0.04989200
Cu      11.26364000       8.76061000      10.00000000  F      -0.01120500      -0.00195400      -0.07525200
Cu       1.25152000      11.26364000      10.00000000  F       0.00053900       0.00185200      -0.01808800
Cu       3.75455000      11.26364000      10.00000000  F      -0.00811400       0.00160100      -0.07569800
Cu       6.25758000      11.26364000      10.00000000  F      -0.00835000       0.00207300      -0.06259800
Cu       8.76061000      11.26364000      10.00000000  F       0.00476900       0.00158200      -0.07319000
Cu      11.26364000      11.26364000      10.00000000  F       0.00845400       0.00189300      -0.06967900
Cu       0.00000000       0.00000000      11.76991000  F      -0.02597400       0.04433200       0.07540800
Cu       2.50303000       0.00000000      11.76991000  F       0.02903000       0.03250800       0.03926600
Cu       5.00606000       0.00000000      11.76991000  F       0.05115100       0.09131000       0.04746900
Cu       7.50909000       0.00000000      11.76991000  F       0.03450200       0.07536400       0.05002000
Cu      10.01212000       0.00000000      11.76991000  F      -0.01246500       0.07602500       0.06935100
Cu       0.00000000       2.50303000      11.76991000  F      -0.08833200       0.03512400       0.06634700
Cu       2.50303000       2.50303000      11.76991000  F       0.05649100       0.02962800       0.04648500
Cu       5.00606000       2.50303000      11.76991000  F       0.00658300       0.00114800       0.08305100
Cu       7.50909000       2.50303000      11.76991000  F      -0.05200800       0.02906100       0.11340900
Cu      10.01212000       2.50303000      11.76991000  F       0.06448900      -0.05694800       0.01267400
Cu       0.00000000       5.00606000      11.76991000  F      -0.12402800       0.00120900       0.04804300
Cu       2.50303000       5.00606000      11.76991000  F       0.05286300       0.00072000       0.04372200
Cu       5.00606000       5.00606000      11.76991000  F      -0.03559300       0.00167000       0.14047700
Cu       7.50909000       5.00606000      11.76991000  F      -0.09377400       0.00097600       0.13307000
Cu      10.01212000       5.00606000      11.76991000  F       0.04079500      -0.00046500       0.03055300
Cu       0.00000000       7.50909000      11.76991000  F      -0.08791100      -0.03846100       0.06761900
Cu       2.50303000       7.50909000      11.76991000  F       0.05579500      -0.03220000       0.04599800
Cu       5.00606000       7.50909000      11.76991000  F       0.00800800      -0.00535000       0.08397600
Cu       7.50909000       7.50909000      11.76991000  F      -0.05135200      -0.03327500       0.11402700
Cu      10.01212000       7.50909000      11.76991000  F       0.06663400       0.05496700       0.01239700
Cu       0.00000000      10.01212000      11.76991000  F      -0.02559000      -0.04227100       0.07350500
Cu       2.50303000      10.01212000      11.76991000  F       0.02974200      -0.03057600       0.03946100
Cu       5.00606000      10.01212000      11.76991000  F       0.05100000      -0.08689600       0.04633600
Cu       7.50909000      10.01212000      11.76991000  F       0.03514600      -0.07124300       0.04816700
Cu      10.01212000      10.01212000      11.76991000  F      -0.01226400      -0.07385700       0.06880100
Cu       1.26320000       1.24404000      13.57658000  T      -0.00033800       0.00042000      -0.00113000
Cu       3.77890000       1.25774000      13.58942000  T      -0.00018600       0.00093000      -0.00080400
Cu       6.29201000       1.28119000      13.60218000  T      -0.00014600       0.00100600      -0.00022500
Cu       8.77770000       1.27825000      13.60552000  T      -0.00022400       0.00058900      -0.00120400
Cu      11.26672000       1.26668000      13.60223000  T      -0.00020100       0.00037100      -0.00153800
Cu       1.23179000       3.75328000      13.56542000  T      -0.00126000       0.00043500      -0.00118400
Cu       3.75191000       3.75817000      13.59745000  T      -0.00035100       0.00111400       0.00098600
Cu       6.25096000       3.78243000      13.59937000  T      -0.00068100       0.00019800      -0.00085200
Cu       8.74075000       3.76734000      13.55413000  T      -0.00104400       0.00031100      -0.00200400
Cu      11.21579000       3.76094000      13.60809000  T      -0.00110700       0.00015800      -0.00210400
Cu       1.23199000       6.25872000      13.56523000  T      -0.00136300      -0.00047100      -0.00113100
Cu       3.75215000       6.25343000      13.59721000  T      -0.00026400      -0.00097300       0.00098100
Cu       6.25158000       6.22934000      13.59899000  T      -0.00064500       0.00008700      -0.00064300
Cu       8.74167000       6.24374000      13.55354000  T      -0.00102700      -0.00013500      -0.00186600
Cu      11.21620000       6.25083000      13.60769000  T      -0.00119000      -0.00001200      -0.00198300
Cu       1.26336000       8.76757000      13.57683000  T      -0.00022600      -0.00046600      -0.00099000
Cu       3.77876000       8.75463000      13.58868000  T      -0.00006100      -0.00082700      -0.00069700
Cu       6.29245000       8.73175000      13.60124000  T       0.00002500      -0.00092900      -0.00011500
Cu       8.77835000       8.73407000      13.60486000  T      -0.00024700      -0.00063700      -0.00103700
Cu      11.26730000       8.74559000      13.60238000  T      -0.00029000      -0.00032100      -0.00137200
Cu       1.24720000      11.26379000      13.59485000  T       0.00070500       0.00002300      -0.00133600
Cu       3.74072000      11.26426000      13.56921000  T       0.00084100       0.00003700      -0.00088300
Cu       6.25695000      11.26460000      13.55831000  T       0.00081800       0.00003200      -0.00067100
Cu       8.76498000      11.26394000      13.56814000  T       0.00088400      -0.00004200      -0.00077700
Cu      11.27193000      11.26396000      13.57761000  T       0.00076400       0.00006200      -0.00117100
Cu      12.51172000       0.00766000      15.36996000  T       0.00093400       0.00004100      -0.00036500
Cu       2.50889000       0.00819000      15.36446000  T       0.00098700       0.00024600      -0.00057700
Cu       5.00846000      12.47966000      15.34346000  T       0.00071400       0.00060400      -0.00041600
Cu       7.51020000      12.49501000      15.33628000  T       0.00035600       0.00025400      -0.00014100
Cu      10.01213000      12.49876000      15.35639000  T       0.00056000      -0.00002000      -0.00037400
Cu       0.06365000       2.50718000      15.35875000  T      -0.00164100       0.00030500      -0.00072600
Cu       2.52492000       2.51068000      15.35184000  T      -0.00120900       0.00103400       0.00016300
Cu       4.98522000       2.40739000      15.42089000  T      -0.00191900       0.00078600       0.00029000
Cu       7.60710000       2.50217000      15.44683000  T      -0.00345800       0.00117900       0.00012400
Cu      10.11626000       2.46237000      15.46864000  T      -0.00129500      -0.00025600      -0.00132100
Cu      12.43188000       5.00597000      15.34219000  T      -0.00264300       0.00007600      -0.00035900
Cu       2.33577000       5.00623000      15.37269000  T      -0.00077500      -0.00005100       0.00040100
Pd       4.81760000       5.00545000      15.60833000  T      -0.01041300       0.00089000       0.01501100
Y        7.39400000       5.00664000      17.29856000  T      -0.00001800       0.00015700       0.00010100
Cu       9.91935000       5.00576000      15.47348000  T      -0.00266600       0.00011000      -0.00112400
Cu       0.06411000       7.50398000      15.35868000  T      -0.00169600      -0.00019500      -0.00063600
Cu       2.52538000       7.50097000      15.35153000  T      -0.00105900      -0.00130000       0.00017700
Cu       4.98564000       7.60479000      15.41823000  T      -0.00158000      -0.00024400       0.00050300
Cu       7.60934000       7.50922000      15.44492000  T      -0.00367700      -0.00154100       0.00044900
Cu      10.11705000       7.54911000      15.46825000  T      -0.00133700       0.00046000      -0.00128200
Cu      12.51219000      10.00586000      15.36964000  T       0.00093900      -0.00000200      -0.00053000
Cu       2.50963000      10.00469000      15.36398000  T       0.00109900      -0.00040200      -0.00045000
Cu       5.00898000      10.04751000      15.34213000  T       0.00088400      -0.00032400      -0.00040900
Cu       7.51043000      10.03165000      15.33565000  T       0.00043400      -0.00056300      -0.00035000
Cu      10.01219000      10.02751000      15.35609000  T       0.00061600       0.00002600      -0.00037300
O        6.20229000       3.38570000      16.49427000  T      -0.00307500       0.00393700      -0.00084400
O        6.20418000       6.62557000      16.48884000  T      -0.00275000      -0.00350600      -0.00051800
O        9.00812000       6.44857000      16.56838000  T      -0.00107400       0.00261000      -0.00093100
O        9.00657000       3.56255000      16.56793000  T      -0.00086200      -0.00242300      -0.00079700
C        5.22600000       5.02372000      18.68907000  T       0.01597600       0.00005300       0.01512100
O        4.99714000       5.04940000      20.03496000  T       0.02880800      -0.00380500       0.01946300
O        4.19876000       5.01758000      17.96892000  T       0.00191600      -0.00017800       0.03285900
H        4.01364000       5.05961000      20.16353000  T       0.02557900      -0.00220700       0.00439600
108
Lattice="12.515153631 0.0 0.0 0.0 12.515153631 0.0 0.0 0.0 25.30973" Properties=species:S:1:pos:R:3:move_mask:L:1:forces:R:3 stress="0.007770042227793816 -3.719939439026422e-06 -0.0001220215034110177 -3.719939439026422e-06 0.008048226289534433 1.7039319913661292e-06 -0.0001220215034110177 1.7039319913661292e-06 0.0017748917086182964" free_energy=-444.15317198 energy=-444.14988728 pbc="T T T"
Cu       1.25152000       1.25152000      10.00000000  F      -0.00292200      -0.01657600      -0.06800000
Cu       3.75455000       1.25152000      10.00000000  F       0.00645600       0.00503900      -0.07135700
Cu       6.25758000       1.25152000      10.00000000  F      -0.01213100       0.02004100      -0.05927700
Cu       8.76061000       1.25152000      10.00000000  F       0.01651900       0.00952200      -0.05081500
Cu      11.26364000       1.25152000      10.00000000  F      -0.01093300      -0.00121400      -0.07661200
Cu       1.25152000       3.75455000      10.00000000  F      -0.00268700       0.00879600      -0.07089000
Cu       3.75455000       3.75455000      10.00000000  F       0.01326200      -0.01713100      -0.05146500
Cu       6.25758000       3.75455000      10.00000000  F      -0.01384700      -0.01908100      -0.08072000
Cu       8.76061000       3.75455000      10.00000000  F       0.01814100      -0.01434900      -0.08469800
Cu      11.26364000       3.75455000      10.00000000  F      -0.01256500       0.00130500      -0.06167800
Cu       1.25152000       6.25758000      10.00000000  F      -0.00322500      -0.00728300      -0.07251500
Cu       3.75455000       6.25758000      10.00000000  F       0.01465000       0.01793700      -0.05201200
Cu       6.25758000       6.25758000      10.00000000  F      -0.01384700       0.02122400      -0.08391800
Cu       8.76061000       6.25758000      10.00000000  F       0.01679900       0.01516600      -0.08530800
Cu      11.26364000       6.25758000      10.00000000  F      -0.01209900       0.00023200      -0.06337400
Cu       1.25152000       8.76061000      10.00000000  F      -0.00265400       0.01336500      -0.06681900
Cu       3.75455000       8.76061000      10.00000000  F       0.00572400      -0.00730700      -0.07023000
Cu       6.25758000       8.76061000      10.00000000  F      -0.01209900      -0.02412600      -0.05725200
Cu       8.76061000       8.76061000      10.00000000  F       0.01723100      -0.01180300      -0.04996900
Cu      11.26364000       8.76061000      10.00000000  F      -0.01125400      -0.00207500      -0.07539300
Cu       1.25152000      11.26364000      10.00000000  F       0.00061200       0.00185700      -0.01829400
Cu       3.75455000      11.26364000      10.00000000  F      -0.00819300       0.00160900      -0.07565900
Cu       6.25758000      11.26364000      10.00000000  F      -0.00849700       0.00207700      -0.06260500
Cu       8.76061000      11.26364000      10.00000000  F       0.00459300       0.00158800      -0.07337400
Cu      11.26364000      11.26364000      10.00000000  F       0.00841900       0.00190500      -0.06988400
Cu       0.00000000       0.00000000      11.76991000  F      -0.02587200       0.04440100       0.07531300
Cu       2.50303000       0.00000000      11.76991000  F       0.02911500       0.03258800       0.03925600
Cu       5.00606000       0.00000000      11.76991000  F       0.05099600       0.09145300       0.04756300
Cu       7.50909000       0.00000000      11.76991000  F       0.03420100       0.07552200       0.05014700
Cu      10.01212000       0.00000000      11.76991000  F      -0.01252800       0.07605900       0.06934800
Cu       0.00000000       2.50303000      11.76991000  F      -0.08829700       0.03518100       0.06605600
Cu       2.50303000       2.50303000      11.76991000  F       0.05649600       0.02988700       0.04658100
Cu       5.00606000       2.50303000      11.76991000  F       0.00616400       0.00144700       0.08318500
Cu       7.50909000       2.50303000      11.76991000  F      -0.05240000       0.02903400       0.11319300
Cu      10.01212000       2.50303000      11.76991000  F       0.06420200      -0.05685600       0.01237200
Cu       0.00000000       5.00606000      11.76991000  F      -0.12418500       0.00122700       0.04762100
Cu       2.50303000       5.00606000      11.76991000  F       0.05289800       0.00073400       0.04384300
Cu       5.00606000       5.00606000      11.76991000  F      -0.03597900       0.00169000       0.14056700
Cu       7.50909000       5.00606000      11.76991000  F      -0.09450900       0.00101000       0.13283500
Cu      10.01212000       5.00606000      11.76991000  F       0.04055500      -0.00043600       0.03009700
Cu       0.00000000       7.50909000      11.76991000  F      -0.08787700      -0.03850300       0.06736700
Cu       2.50303000       7.50909000      11.76991000  F       0.05580000      -0.03244000       0.04612100
Cu       5.00606000       7.50909000      11.76991000  F       0.00760400      -0.00561500       0.08410900
Cu       7.50909000       7.50909000      11.76991000  F      -0.05174000      -0.03324000       0.11382100
Cu      10.01212000       7.50909000      11.76991000  F       0.06635100       0.05489400       0.01211300
Cu       0.00000000      10.01212000      11.76991000  F      -0.02548600      -0.04236100       0.07345500
Cu       2.50303000      10.01212000      11.76991000  F       0.02982800      -0.03067400       0.03947700
Cu       5.00606000      10.01212000      11.76991000  F       0.05085400      -0.08704100       0.04643700
Cu       7.50909000      10.01212000      11.76991000  F       0.03485300      -0.07140700       0.04830400
Cu      10.01212000      10.01212000      11.76991000  F      -0.01232400      -0.07391400       0.06881800
Cu       1.26314000       1.24407000      13.57652000  T       0.00026500       0.00047200      -0.00035200
Cu       3.77885000       1.25782000      13.58937000  T      -0.00028700       0.00076900      -0.00025000
Cu       6.29197000       1.28126000      13.60219000  T      -0.00069800       0.00077000       0.00014600
Cu       8.77764000       1.27829000      13.60546000  T      -0.00053700       0.00056900      -0.00031900
Cu      11.26667000       1.26671000      13.60214000  T       0.00009400       0.00036300      -0.00066400
Cu       1.23165000       3.75331000      13.56536000  T      -0.00040600       0.00039300      -0.00041200
Cu       3.75186000       3.75828000      13.59757000  T      -0.00024300       0.00101700       0.00113400
Cu       6.25086000       3.78245000      13.59934000  T      -0.00130000       0.00050900      -0.00000600
Cu       8.74063000       3.76736000      13.55401000  T      -0.00098700       0.00027700      -0.00075400
Cu      11.21565000       3.76095000      13.60795000  T      -0.00058300       0.00027800      -0.00090700
Cu       1.23184000       6.25869000      13.56517000  T      -0.00043200      -0.00040600      -0.00036500
Cu       3.75210000       6.25335000      13.59732000  T      -0.00020300      -0.00091300       0.00105100
Cu       6.25148000       6.22934000      13.59897000  T      -0.00127800      -0.00033000       0.00007000
Cu       8.74155000       6.24373000      13.55343000  T      -0.00095600      -0.00020300      -0.00067000
Cu      11.21606000       6.25084000      13.60757000  T      -0.00059700      -0.00018400      -0.00082600
Cu       1.26332000       8.76754000      13.57678000  T       0.00034200      -0.00052000      -0.00027300
Cu       3.77873000       8.75457000      13.58865000  T      -0.00019500      -0.00070300      -0.00018800
Cu       6.29243000       8.73169000      13.60126000  T      -0.00061300      -0.00071200       0.00016700
Cu       8.77829000       8.73402000      13.60481000  T      -0.00051200      -0.00060200      -0.00025600
Cu      11.26724000       8.74557000      13.60230000  T       0.00007600      -0.00031000      -0.00062600
Cu       1.24724000      11.26380000      13.59477000  T       0.00099600      -0.00000200      -0.00050400
Cu       3.74078000      11.26426000      13.56917000  T       0.00053900       0.00002300      -0.00023100
Cu       6.25700000      11.26460000      13.55828000  T       0.00003500       0.00003200      -0.00014400
Cu       8.76503000      11.26394000      13.56810000  T       0.00024600      -0.00001500      -0.00014700
Cu      11.27197000      11.26397000      13.57754000  T       0.00092000       0.00003900      -0.00037900
Cu      12.51177000       0.00767000      15.36993000  T       0.00093300       0.00015100      -0.00036400
Cu       2.50895000       0.00822000      15.36442000  T       0.00078500       0.00028000      -0.00088000
Cu       5.00851000      12.47971000      15.34343000  T       0.00032800       0.00044000      -0.00067000
Cu       7.51022000      12.49503000      15.33627000  T       0.00004800       0.00031900      -0.00011400
Cu      10.01216000      12.49876000      15.35637000  T       0.00049000       0.00007300      -0.00012800
Cu       0.06346000       2.50721000      15.35870000  T      -0.00107500       0.00031900      -0.00080000
Cu       2.52476000       2.51076000      15.35187000  T      -0.00089200       0.00087100      -0.00040800
Cu       4.98500000       2.40745000      15.42094000  T      -0.00156200       0.00095700       0.00010900
Cu       7.60675000       2.50228000      15.44685000  T      -0.00291400       0.00117800      -0.00007200
Cu      10.11608000       2.46236000      15.46854000  T      -0.00111000      -0.00008300      -0.00115700
Cu      12.43159000       5.00598000      15.34218000  T      -0.00191700       0.00004900      -0.00065400
Cu       2.33556000       5.00623000      15.37274000  T      -0.00163600      -0.00002600      -0.00020900
Pd       4.81687000       5.00551000      15.60929000  T      -0.00789200       0.00051600       0.00879500
Y        7.39404000       5.00666000      17.29864000  T       0.00156700       0.00003600       0.00026100
Cu       9.91905000       5.00577000      15.47341000  T      -0.00238100       0.00008600      -0.00076900
Cu       0.06391000       7.50397000      15.35864000  T      -0.00107300      -0.00021700      -0.00073300
Cu       2.52523000       7.50087000      15.35156000  T      -0.00078200      -0.00108900      -0.00032500
Cu       4.98545000       7.60478000      15.41830000  T      -0.00137200      -0.00047500       0.00027000
Cu       7.60898000       7.50909000      15.44496000  T      -0.00295200      -0.00131800      -0.00001400
Cu      10.11687000       7.54915000      15.46816000  T      -0.00101600       0.00030300      -0.00114600
Cu      12.51225000      10.00586000      15.36960000  T       0.00095600      -0.00010300      -0.00043600
Cu       2.50970000      10.00466000      15.36394000  T       0.00086400      -0.00038800      -0.00080800
Cu       5.00904000      10.04750000      15.34211000  T       0.00044600      -0.00016800      -0.00064300
Cu       7.51046000      10.03161000      15.33563000  T       0.00011100      -0.00049800      -0.00019200
Cu      10.01222000      10.02752000      15.35607000  T       0.00054600      -0.00001300      -0.00012000
O        6.20190000       3.38610000      16.49424000  T      -0.00312500       0.00312900      -0.00127600
O        6.20380000       6.62522000      16.48886000  T      -0.00305100      -0.00280500      -0.00093700
O        9.00792000       6.44882000      16.56832000  T      -0.00110900       0.00115200      -0.00082200
O        9.00638000       3.56233000      16.56788000  T      -0.00103000      -0.00098300      -0.00074900
C        5.22816000       5.02368000      18.69138000  T       0.01066400      -0.00099800       0.01089400
O        5.00108000       5.04893000      20.03760000  T       0.02758000      -0.00248600       0.01533300
O        4.19949000       5.01754000      17.97313000  T       0.01035000       0.00028100       0.02632600
H        4.01756000       5.05925000      20.16555000  T       0.02336700      -0.00246200       0.01226500
108
Lattice="12.515153631 0.0 0.0 0.0 12.515153631 0.0 0.0 0.0 25.30973" Properties=species:S:1:pos:R:3:move_mask:L:1:forces:R:3 stress="0.007776121457682427 -3.744905475529955e-06 -0.00012323859769056492 -3.744905475529955e-06 0.008054692492988848 1.8412451921355611e-06 -0.00012323859769056492 1.8412451921355611e-06 0.001783835791195687" free_energy=-444.15267658 energy=-444.14940259 pbc="T T T"
Cu       1.25152000       1.25152000      10.00000000  F      -0.00303100      -0.01666500      -0.06797500
Cu       3.75455000       1.25152000      10.00000000  F       0.00641600       0.00495900      -0.07139600
Cu       6.25758000       1.25152000      10.00000000  F      -0.01204400       0.01991900      -0.05931300
Cu       8.76061000       1.25152000      10.00000000  F       0.01670900       0.00938900      -0.05080900
Cu      11.26364000       1.25152000      10.00000000  F      -0.01090600      -0.00131200      -0.07659600
Cu       1.25152000       3.75455000      10.00000000  F      -0.00278600       0.00873400      -0.07099700
Cu       3.75455000       3.75455000      10.00000000  F       0.01325100      -0.01713300      -0.05163200
Cu       6.25758000       3.75455000      10.00000000  F      -0.01383400      -0.01908000      -0.08097700
Cu       8.76061000       3.75455000      10.00000000  F       0.01832300      -0.01442400      -0.08477000
Cu      11.26364000       3.75455000      10.00000000  F      -0.01250100       0.00118300      -0.06182600
Cu       1.25152000       6.25758000      10.00000000  F      -0.00332300      -0.00725600      -0.07263000
Cu       3.75455000       6.25758000      10.00000000  F       0.01464000       0.01790400      -0.05218600
Cu       6.25758000       6.25758000      10.00000000  F      -0.01382600       0.02119200      -0.08417200
Cu       8.76061000       6.25758000      10.00000000  F       0.01697700       0.01521500      -0.08537900
Cu      11.26364000       6.25758000      10.00000000  F      -0.01204200       0.00032000      -0.06352600
Cu       1.25152000       8.76061000      10.00000000  F      -0.00276200       0.01344000      -0.06683000
Cu       3.75455000       8.76061000      10.00000000  F       0.00568300      -0.00724000      -0.07029900
Cu       6.25758000       8.76061000      10.00000000  F      -0.01200700      -0.02401800      -0.05729200
Cu       8.76061000       8.76061000      10.00000000  F       0.01741800      -0.01168600      -0.04996600
Cu      11.26364000       8.76061000      10.00000000  F      -0.01122900      -0.00199000      -0.07538600
Cu       1.25152000      11.26364000      10.00000000  F       0.00049100       0.00186000      -0.01828500
Cu       3.75455000      11.26364000      10.00000000  F      -0.00824000       0.00161100      -0.07568700
Cu       6.25758000      11.26364000      10.00000000  F      -0.00833100       0.00207400      -0.06263400
Cu       8.76061000      11.26364000      10.00000000  F       0.00476100       0.00158400      -0.07332600
Cu      11.26364000      11.26364000      10.00000000  F       0.00845000       0.00190600      -0.06972100
Cu       0.00000000       0.00000000      11.76991000  F      -0.02598300       0.04433600       0.07476600
Cu       2.50303000       0.00000000      11.76991000  F       0.02903000       0.03264800       0.03899700
Cu       5.00606000       0.00000000      11.76991000  F       0.05113600       0.09155200       0.04746400
Cu       7.50909000       0.00000000      11.76991000  F       0.03437600       0.07561100       0.04990600
Cu      10.01212000       0.00000000      11.76991000  F      -0.01242100       0.07582900       0.06887300
Cu       0.00000000       2.50303000      11.76991000  F      -0.08843200       0.03493100       0.06536000
Cu       2.50303000       2.50303000      11.76991000  F       0.05646100       0.03013500       0.04665600
Cu       5.00606000       2.50303000      11.76991000  F       0.00585100       0.00175200       0.08329000
Cu       7.50909000       2.50303000      11.76991000  F      -0.05248000       0.02871000       0.11270500
Cu      10.01212000       2.50303000      11.76991000  F       0.06402100      -0.05711600       0.01156100
Cu       0.00000000       5.00606000      11.76991000  F      -0.12442100       0.00123800       0.04680400
Cu       2.50303000       5.00606000      11.76991000  F       0.05290900       0.00073800       0.04396600
Cu       5.00606000       5.00606000      11.76991000  F      -0.03630000       0.00170500       0.14064500
Cu       7.50909000       5.00606000      11.76991000  F      -0.09520100       0.00103800       0.13241000
Cu      10.01212000       5.00606000      11.76991000  F       0.04039800      -0.00041300       0.02912500
Cu       0.00000000       7.50909000      11.76991000  F      -0.08800200      -0.03825500       0.06671900
Cu       2.50303000       7.50909000      11.76991000  F       0.05575800      -0.03267300       0.04622200
Cu       5.00606000       7.50909000      11.76991000  F       0.00731000      -0.00588900       0.08420300
Cu       7.50909000       7.50909000      11.76991000  F      -0.05181400      -0.03292500       0.11333700
Cu      10.01212000       7.50909000      11.76991000  F       0.06617900       0.05515500       0.01131900
Cu       0.00000000      10.01212000      11.76991000  F      -0.02558400      -0.04232500       0.07295900
Cu       2.50303000      10.01212000      11.76991000  F       0.02974500      -0.03076400       0.03925400
Cu       5.00606000      10.01212000      11.76991000  F       0.05100300      -0.08714500       0.04635100
Cu       7.50909000      10.01212000      11.76991000  F       0.03503700      -0.07150000       0.04807500
Cu      10.01212000      10.01212000      11.76991000  F      -0.01221700      -0.07370600       0.06836000
Cu       1.26308000       1.24412000      13.57646000  T       0.00014300       0.00012300       0.00000600
Cu       3.77880000       1.25792000      13.58932000  T      -0.00028200       0.00053600       0.00009900
Cu       6.29192000       1.28136000      13.60220000  T      -0.00069000       0.00036700       0.00030800
Cu       8.77757000       1.27835000      13.60540000  T      -0.00065600       0.00007000       0.00006600
Cu      11.26660000       1.26674000      13.60202000  T      -0.00004000      -0.00026700      -0.00044100
Cu       1.23146000       3.75335000      13.56528000  T      -0.00029300       0.00001300      -0.00015400
Cu       3.75179000       3.75843000      13.59776000  T      -0.00004700       0.00105500       0.00157600
Cu       6.25072000       3.78250000      13.59934000  T      -0.00168000       0.00068000       0.00089500
Cu       8.74048000       3.76738000      13.55386000  T      -0.00112100      -0.00012400      -0.00028200
Cu      11.21547000       3.76097000      13.60779000  T      -0.00063100      -0.00001600      -0.00049900
Cu       1.23165000       6.25865000      13.56510000  T      -0.00025600      -0.00006100      -0.00012100
Cu       3.75205000       6.25322000      13.59750000  T      -0.00004500      -0.00092300       0.00141700
Cu       6.25134000       6.22932000      13.59898000  T      -0.00167400      -0.00056500       0.00087600
Cu       8.74140000       6.24373000      13.55329000  T      -0.00112100       0.00010600      -0.00031800
Cu      11.21588000       6.25084000      13.60741000  T      -0.00060600       0.00005200      -0.00047500
Cu       1.26326000       8.76748000      13.57673000  T       0.00020500      -0.00017400       0.00007100
Cu       3.77869000       8.75449000      13.58861000  T      -0.00022900      -0.00048800       0.00010900
Cu       6.29239000       8.73160000      13.60128000  T      -0.00066500      -0.00030800       0.00024700
Cu       8.77822000       8.73396000      13.60476000  T      -0.00060000      -0.00009900       0.00003500
Cu      11.26717000       8.74556000      13.60219000  T       0.00001200       0.00033100      -0.00051200
Cu       1.24730000      11.26380000      13.59468000  T       0.00074500      -0.00003400      -0.00020500
Cu       3.74087000      11.26427000      13.56911000  T       0.00051600       0.00001600       0.00000100
Cu       6.25709000      11.26461000      13.55824000  T       0.00032100       0.00003600      -0.00006800
Cu       8.76511000      11.26394000      13.56806000  T       0.00026500      -0.00001500      -0.00012200
Cu      11.27204000      11.26398000      13.57747000  T       0.00076100       0.00003200      -0.00022500
Cu      12.51185000       0.00768000      15.36987000  T       0.00076400       0.00007800      -0.00071600
Cu       2.50903000       0.00825000      15.36434000  T       0.00060700       0.00027300      -0.00095700
Cu       5.00859000      12.47977000      15.34337000  T       0.00045200       0.00039600      -0.00076900
Cu       7.51027000      12.49507000      15.33625000  T       0.00032900       0.00019500      -0.00038900
Cu      10.01222000      12.49876000      15.35631000  T       0.00058700      -0.00016600      -0.00056800
Cu       0.06319000       2.50724000      15.35859000  T      -0.00108500       0.00011400      -0.00084700
Cu       2.52454000       2.51088000      15.35189000  T      -0.00103500       0.00077600      -0.00034000
Cu       4.98470000       2.40757000      15.42101000  T      -0.00177900       0.00102800       0.00023100
Cu       7.60628000       2.50245000      15.44685000  T      -0.00296300       0.00109300      -0.00041500
Cu      10.11584000       2.46233000      15.46836000  T      -0.00129400      -0.00049300      -0.00143200
Cu      12.43119000       5.00599000      15.34212000  T      -0.00211600       0.00002400      -0.00061300
Cu       2.33519000       5.00622000      15.37278000  T      -0.00357300      -0.00009900       0.00006000
Pd       4.81578000       5.00559000      15.61065000  T      -0.00836300       0.00060400       0.00925000
Y        7.39419000       5.00668000      17.29872000  T      -0.00013200      -0.00009900      -0.00001400
Cu       9.91863000       5.00578000      15.47329000  T      -0.00219000       0.00020700      -0.00120700
Cu       0.06364000       7.50395000      15.35855000  T      -0.00102300      -0.00000700      -0.00077900
Cu       2.52503000       7.50071000      15.35159000  T      -0.00083200      -0.00095600      -0.00018500
Cu       4.98519000       7.60474000      15.41840000  T      -0.00159600      -0.00055300       0.00043700
Cu       7.60850000       7.50889000      15.44498000  T      -0.00287300      -0.00114700      -0.00054500
Cu      10.11664000       7.54922000      15.46797000  T      -0.00123200       0.00064000      -0.00142100
Cu      12.51233000      10.00586000      15.36953000  T       0.00080400      -0.00000300      -0.00072600
Cu       2.50979000      10.00461000      15.36388000  T       0.00068000      -0.00038500      -0.00090900
Cu       5.00914000      10.04748000      15.34206000  T       0.00052700      -0.00004600      -0.00069700
Cu       7.51052000      10.03154000      15.33560000  T       0.00040200      -0.00033800      -0.00038200
Cu      10.01229000      10.02754000      15.35601000  T       0.00064300       0.00030800      -0.00054200
O        6.20134000       3.38667000      16.49415000  T      -0.00313400       0.00306100      -0.00095400
O        6.20327000       6.62473000      16.48884000  T      -0.00306200      -0.00266100      -0.00051000
O        9.00766000       6.44911000      16.56822000  T      -0.00174400       0.00064200       0.00027600
O        9.00614000       3.56208000      16.56780000  T      -0.00186000      -0.00048200       0.00023000
C        5.23103000       5.02355000      18.69429000  T       0.01533200      -0.00163300       0.01241700
O        5.00648000       5.04835000      20.04101000  T       0.02332600      -0.00171600       0.01280000
O        4.20080000       5.01754000      17.97850000  T       0.01454200       0.00047300       0.02065200
H        4.02279000       5.05875000      20.16847000  T       0.02794800      -0.00262100       0.02155800
108
Lattice="12.515153631 0.0 0.0 0.0 12.515153631 0.0 0.0 0.0 25.30973" Properties=species:S:1:pos:R:3:move_mask:L:1:forces:R:3 stress="0.007770697586252034 -3.738663966404072e-06 -0.00012670263525543015 -3.738663966404072e-06 0.00805346291569105 2.271909321821506e-06 -0.00012670263525543015 2.271909321821506e-06 0.0017705975503396886" free_energy=-444.1543777 energy=-444.15111658 pbc="T T T"
Cu       1.25152000       1.25152000      10.00000000  F      -0.00272500      -0.01694000      -0.06787200
Cu       3.75455000       1.25152000      10.00000000  F       0.00644100       0.00459300      -0.07118200
Cu       6.25758000       1.25152000      10.00000000  F      -0.01227800       0.01960700      -0.05925200
Cu       8.76061000       1.25152000      10.00000000  F       0.01670500       0.00919700      -0.05089200
Cu      11.26364000       1.25152000      10.00000000  F      -0.01066900      -0.00144400      -0.07667400
Cu       1.25152000       3.75455000      10.00000000  F      -0.00262800       0.00856700      -0.07109100
Cu       3.75455000       3.75455000      10.00000000  F       0.01328600      -0.01728100      -0.05178400
Cu       6.25758000       3.75455000      10.00000000  F      -0.01400000      -0.01921300      -0.08129200
Cu       8.76061000       3.75455000      10.00000000  F       0.01837900      -0.01454500      -0.08486900
Cu      11.26364000       3.75455000      10.00000000  F      -0.01228400       0.00099600      -0.06203100
Cu       1.25152000       6.25758000      10.00000000  F      -0.00316900      -0.00712100      -0.07272400
Cu       3.75455000       6.25758000      10.00000000  F       0.01467100       0.01802100      -0.05235800
Cu       6.25758000       6.25758000      10.00000000  F      -0.01398100       0.02129000      -0.08449000
Cu       8.76061000       6.25758000      10.00000000  F       0.01703700       0.01531900      -0.08547600
Cu      11.26364000       6.25758000      10.00000000  F      -0.01183200       0.00048900      -0.06372700
Cu       1.25152000       8.76061000      10.00000000  F      -0.00246600       0.01371000      -0.06673900
Cu       3.75455000       8.76061000      10.00000000  F       0.00570500      -0.00687900      -0.07015200
Cu       6.25758000       8.76061000      10.00000000  F      -0.01223100      -0.02370500      -0.05725000
Cu       8.76061000       8.76061000      10.00000000  F       0.01742000      -0.01150400      -0.05005000
Cu      11.26364000       8.76061000      10.00000000  F      -0.01099600      -0.00186800      -0.07546200
Cu       1.25152000      11.26364000      10.00000000  F       0.00087400       0.00187100      -0.01813000
Cu       3.75455000      11.26364000      10.00000000  F      -0.00825100       0.00161800      -0.07540500
Cu       6.25758000      11.26364000      10.00000000  F      -0.00855100       0.00208000      -0.06252100
Cu       8.76061000      11.26364000      10.00000000  F       0.00466000       0.00158400      -0.07340000
Cu      11.26364000      11.26364000      10.00000000  F       0.00871300       0.00190500      -0.06969900
Cu       0.00000000       0.00000000      11.76991000  F      -0.02556500       0.04423200       0.07430400
Cu       2.50303000       0.00000000      11.76991000  F       0.02941100       0.03254600       0.03870700
Cu       5.00606000       0.00000000      11.76991000  F       0.05111700       0.09152300       0.04746300
Cu       7.50909000       0.00000000      11.76991000  F       0.03404900       0.07575500       0.05003000
Cu      10.01212000       0.00000000      11.76991000  F      -0.01241100       0.07557300       0.06873600
Cu       0.00000000       2.50303000      11.76991000  F      -0.08831700       0.03456400       0.06472400
Cu       2.50303000       2.50303000      11.76991000  F       0.05673600       0.03022400       0.04676900
Cu       5.00606000       2.50303000      11.76991000  F       0.00530000       0.00192100       0.08359400
Cu       7.50909000       2.50303000      11.76991000  F      -0.05297200       0.02828800       0.11257900
Cu      10.01212000       2.50303000      11.76991000  F       0.06361700      -0.05732500       0.01114400
Cu       0.00000000       5.00606000      11.76991000  F      -0.12463700       0.00125500       0.04605500
Cu       2.50303000       5.00606000      11.76991000  F       0.05314300       0.00074000       0.04412400
Cu       5.00606000       5.00606000      11.76991000  F      -0.03675600       0.00172300       0.14099000
Cu       7.50909000       5.00606000      11.76991000  F      -0.09633800       0.00106400       0.13244000
Cu      10.01212000       5.00606000      11.76991000  F       0.04005500      -0.00038300       0.02855200
Cu       0.00000000       7.50909000      11.76991000  F      -0.08785800      -0.03789100       0.06613900
Cu       2.50303000       7.50909000      11.76991000  F       0.05601600      -0.03272200       0.04634600
Cu       5.00606000       7.50909000      11.76991000  F       0.00678600      -0.00599800       0.08446800
Cu       7.50909000       7.50909000      11.76991000  F      -0.05230000      -0.03250000       0.11320100
Cu      10.01212000       7.50909000      11.76991000  F       0.06579100       0.05537200       0.01091000
Cu       0.00000000      10.01212000      11.76991000  F      -0.02513800      -0.04223600       0.07254500
Cu       2.50303000      10.01212000      11.76991000  F       0.03012900      -0.03068700       0.03900200
Cu       5.00606000      10.01212000      11.76991000  F       0.05099600      -0.08709700       0.04635800
Cu       7.50909000      10.01212000      11.76991000  F       0.03472400      -0.07162500       0.04820400
Cu      10.01212000      10.01212000      11.76991000  F      -0.01220800      -0.07346000       0.06823300
Cu       1.26300000       1.24418000      13.57640000  T       0.00004800      -0.00039700      -0.00067800
Cu       3.77871000       1.25806000      13.58928000  T      -0.00011200      -0.00032300      -0.00062600
Cu       6.29181000       1.28149000      13.60224000  T      -0.00025400      -0.00010100       0.00010900
Cu       8.77744000       1.27842000      13.60534000  T      -0.00033600      -0.00008300      -0.00014200
Cu      11.26652000       1.26674000      13.60187000  T      -0.00007300      -0.00021500      -0.00057400
Cu       1.23122000       3.75339000      13.56519000  T      -0.00075300      -0.00017500      -0.00063300
Cu       3.75171000       3.75867000      13.59807000  T      -0.00013100       0.00021300       0.00069800
Cu       6.25043000       3.78261000      13.59940000  T      -0.00042400      -0.00021500       0.00004000
Cu       8.74022000       3.76739000      13.55370000  T      -0.00064100      -0.00009700      -0.00025700
Cu      11.21522000       3.76099000      13.60759000  T      -0.00075600      -0.00015900      -0.00071500
Cu       1.23141000       6.25860000      13.56502000  T      -0.00080000       0.00012800      -0.00059300
Cu       3.75197000       6.25301000      13.59779000  T      -0.00006300      -0.00018500       0.00070000
Cu       6.25105000       6.22926000      13.59906000  T      -0.00038100       0.00034100       0.00012500
Cu       8.74115000       6.24374000      13.55314000  T      -0.00063000       0.00016500      -0.00018500
Cu      11.21563000       6.25084000      13.60723000  T      -0.00078900       0.00022600      -0.00064600
Cu       1.26321000       8.76741000      13.57669000  T       0.00010000       0.00037500      -0.00059300
Cu       3.77862000       8.75436000      13.58858000  T       0.00001000       0.00036100      -0.00049500
Cu       6.29230000       8.73149000      13.60132000  T      -0.00015600       0.00015600       0.00016200
Cu       8.77810000       8.73389000      13.60472000  T      -0.00033800       0.00005500      -0.00005600
Cu      11.26709000       8.74557000      13.60204000  T      -0.00011400       0.00025900      -0.00049900
Cu       1.24742000      11.26380000      13.59457000  T       0.00082300       0.00002000      -0.00085100
Cu       3.74100000      11.26427000      13.56905000  T       0.00060200       0.00003600      -0.00067200
Cu       6.25722000      11.26462000      13.55819000  T       0.00020600       0.00003700      -0.00024000
Cu       8.76521000      11.26394000      13.56801000  T       0.00023600      -0.00000500      -0.00002600
Cu      11.27216000      11.26399000      13.57739000  T       0.00062500       0.00003900      -0.00038000
Cu      12.51198000       0.00770000      15.36976000  T       0.00059400      -0.00018400      -0.00032600
Cu       2.50917000       0.00831000      15.36419000  T       0.00075000      -0.00015900      -0.00065900
Cu       5.00871000      12.47988000      15.34326000  T       0.00053700      -0.00004200      -0.00057400
Cu       7.51036000      12.49512000      15.33619000  T       0.00012800      -0.00008300      -0.00023100
Cu      10.01233000      12.49874000      15.35620000  T       0.00022200      -0.00018400      -0.00021400
Cu       0.06280000       2.50729000      15.35842000  T      -0.00111900      -0.00018000      -0.00020900
Cu       2.52420000       2.51108000      15.35189000  T      -0.00061200       0.00025600       0.00032300
Cu       4.98423000       2.40777000      15.42111000  T      -0.00096500       0.00027600       0.00042000
Cu       7.60555000       2.50273000      15.44682000  T      -0.00180500       0.00059800       0.00017200
Cu      10.11544000       2.46228000      15.46807000  T      -0.00124000      -0.00009700      -0.00043800
Cu      12.43056000       5.00600000      15.34201000  T      -0.00179300       0.00004400       0.00020100
Cu       2.33447000       5.00620000      15.37285000  T      -0.00078000      -0.00004100       0.00069000
Pd       4.81409000       5.00570000      15.61267000  T      -0.00987300       0.00062800       0.01320000
Y        7.39439000       5.00670000      17.29883000  T       0.00171500      -0.00006800      -0.00024500
Cu       9.91799000       5.00581000      15.47307000  T      -0.00197000       0.00007200      -0.00015300
Cu       0.06325000       7.50393000      15.35839000  T      -0.00113400       0.00024500      -0.00012900
Cu       2.52473000       7.50047000      15.35162000  T      -0.00049800      -0.00041700       0.00039300
Cu       4.98477000       7.60467000      15.41856000  T      -0.00083600       0.00007200       0.00056700
Cu       7.60778000       7.50859000      15.44495000  T      -0.00184200      -0.00073800       0.00025400
Cu      10.11626000       7.54932000      15.46769000  T      -0.00122300       0.00026700      -0.00044300
Cu      12.51247000      10.00586000      15.36939000  T       0.00060300       0.00022200      -0.00040100
Cu       2.50995000      10.00453000      15.36374000  T       0.00081400       0.00007900      -0.00058000
Cu       5.00929000      10.04746000      15.34196000  T       0.00063000       0.00024400      -0.00054100
Cu       7.51062000      10.03145000      15.33553000  T       0.00017900      -0.00005900      -0.00032400
Cu      10.01242000      10.02758000      15.35590000  T       0.00027200       0.00021700      -0.00021000
O        6.20047000       3.38752000      16.49397000  T      -0.00207200       0.00159700      -0.00077400
O        6.20243000       6.62401000      16.48878000  T      -0.00198500      -0.00135100      -0.00046000
O        9.00725000       6.44950000      16.56810000  T      -0.00059800       0.00091800      -0.00101700
O        9.00574000       3.56176000      16.56769000  T      -0.00064300      -0.00082000      -0.00101200
C        5.23549000       5.02329000      18.69867000  T       0.01547700      -0.00162900       0.01252700
O        5.01434000       5.04757000      20.04602000  T       0.01776700      -0.00101300       0.01508100
O        4.20325000       5.01756000      17.98593000  T       0.01192800       0.00035600       0.01010100
H        4.03075000       5.05798000      20.17364000  T       0.02227500      -0.00267800       0.03093900
108
Lattice="12.515153631 0.0 0.0 0.0 12.515153631 0.0 0.0 0.0 25.30973" Properties=species:S:1:pos:R:3:move_mask:L:1:forces:R:3 stress="0.007778867721697815 -3.794837548537021e-06 -0.00012879354081260104 -3.794837548537021e-06 0.008063592885002357 2.271909321821506e-06 -0.00012879354081260104 2.271909321821506e-06 0.0017876368702533499" free_energy=-444.15609626 energy=-444.15283498 pbc="T T T"
Cu       1.25152000       1.25152000      10.00000000  F      -0.00299000      -0.01669100      -0.06824200
Cu       3.75455000       1.25152000      10.00000000  F       0.00661300       0.00490400      -0.07160500
Cu       6.25758000       1.25152000      10.00000000  F      -0.01192100       0.01986200      -0.05941800
Cu       8.76061000       1.25152000      10.00000000  F       0.01679700       0.00937600      -0.05087500
Cu      11.26364000       1.25152000      10.00000000  F      -0.01098000      -0.00125100      -0.07678000
Cu       1.25152000       3.75455000      10.00000000  F      -0.00281400       0.00873600      -0.07112300
Cu       3.75455000       3.75455000      10.00000000  F       0.01347800      -0.01705900      -0.05187800
Cu       6.25758000       3.75455000      10.00000000  F      -0.01373300      -0.01901300      -0.08127900
Cu       8.76061000       3.75455000      10.00000000  F       0.01840700      -0.01442800      -0.08469000
Cu      11.26364000       3.75455000      10.00000000  F      -0.01254200       0.00108600      -0.06196500
Cu       1.25152000       6.25758000      10.00000000  F      -0.00334600      -0.00728600      -0.07277400
Cu       3.75455000       6.25758000      10.00000000  F       0.01486500       0.01780800      -0.05243600
Cu       6.25758000       6.25758000      10.00000000  F      -0.01371900       0.02110700      -0.08446300
Cu       8.76061000       6.25758000      10.00000000  F       0.01705800       0.01520200      -0.08528800
Cu      11.26364000       6.25758000      10.00000000  F      -0.01208600       0.00039300      -0.06367900
Cu       1.25152000       8.76061000      10.00000000  F      -0.00271800       0.01343700      -0.06709600
Cu       3.75455000       8.76061000      10.00000000  F       0.00588500      -0.00721600      -0.07051600
Cu       6.25758000       8.76061000      10.00000000  F      -0.01187900      -0.02398600      -0.05737600
Cu       8.76061000       8.76061000      10.00000000  F       0.01749900      -0.01170300      -0.05001700
Cu      11.26364000       8.76061000      10.00000000  F      -0.01130700      -0.00208000      -0.07557000
Cu       1.25152000      11.26364000      10.00000000  F       0.00057500       0.00185100      -0.01862900
Cu       3.75455000      11.26364000      10.00000000  F      -0.00807400       0.00159400      -0.07600300
Cu       6.25758000      11.26364000      10.00000000  F      -0.00811900       0.00205000      -0.06283800
Cu       8.76061000      11.26364000      10.00000000  F       0.00475700       0.00156500      -0.07348900
Cu      11.26364000      11.26364000      10.00000000  F       0.00838900       0.00189000      -0.06989300
Cu       0.00000000       0.00000000      11.76991000  F      -0.02600400       0.04438300       0.07418500
Cu       2.50303000       0.00000000      11.76991000  F       0.02932800       0.03285400       0.03878000
Cu       5.00606000       0.00000000      11.76991000  F       0.05161200       0.09188700       0.04754100
Cu       7.50909000       0.00000000      11.76991000  F       0.03444500       0.07609200       0.04996200
Cu      10.01212000       0.00000000      11.76991000  F      -0.01260600       0.07563400       0.06856500
Cu       0.00000000       2.50303000      11.76991000  F      -0.08874500       0.03476500       0.06458800
Cu       2.50303000       2.50303000      11.76991000  F       0.05679800       0.03086900       0.04709900
Cu       5.00606000       2.50303000      11.76991000  F       0.00547500       0.00263300       0.08390400
Cu       7.50909000       2.50303000      11.76991000  F      -0.05291500       0.02858800       0.11256700
Cu      10.01212000       2.50303000      11.76991000  F       0.06319300      -0.05716300       0.01093000
Cu       0.00000000       5.00606000      11.76991000  F      -0.12507600       0.00126500       0.04590600
Cu       2.50303000       5.00606000      11.76991000  F       0.05325000       0.00073300       0.04450200
Cu       5.00606000       5.00606000      11.76991000  F      -0.03661800       0.00171700       0.14133400
Cu       7.50909000       5.00606000      11.76991000  F      -0.09667000       0.00106100       0.13255400
Cu      10.01212000       5.00606000      11.76991000  F       0.03961400      -0.00038200       0.02832600
Cu       0.00000000       7.50909000      11.76991000  F      -0.08826200      -0.03810900       0.06602100
Cu       2.50303000       7.50909000      11.76991000  F       0.05606800      -0.03335300       0.04666400
Cu       5.00606000       7.50909000      11.76991000  F       0.00696100      -0.00669000       0.08474400
Cu       7.50909000       7.50909000      11.76991000  F      -0.05224000      -0.03281200       0.11317800
Cu      10.01212000       7.50909000      11.76991000  F       0.06538700       0.05519700       0.01068600
Cu       0.00000000      10.01212000      11.76991000  F      -0.02555900      -0.04241400       0.07243700
Cu       2.50303000      10.01212000      11.76991000  F       0.03004600      -0.03102700       0.03908500
Cu       5.00606000      10.01212000      11.76991000  F       0.05149000      -0.08746700       0.04643000
Cu       7.50909000      10.01212000      11.76991000  F       0.03512800      -0.07196500       0.04813300
Cu      10.01212000      10.01212000      11.76991000  F      -0.01239700      -0.07353300       0.06805500
Cu       1.26297000       1.24419000      13.57639000  T       0.00024600       0.00012900       0.00017200
Cu       3.77867000       1.25812000      13.58928000  T       0.00010000       0.00047700       0.00008500
Cu       6.29177000       1.28153000      13.60228000  T      -0.00051100       0.00031900       0.00023300
Cu       8.77739000       1.27843000      13.60536000  T      -0.00067900      -0.00001000       0.00028200
Cu      11.26649000       1.26672000      13.60183000  T      -0.00032800      -0.00019400      -0.00012400
Cu       1.23111000       3.75339000      13.56516000  T       0.00008400      -0.00004100      -0.00006200
Cu       3.75167000       3.75878000      13.59824000  T       0.00019900       0.00077300       0.00108300
Cu       6.25028000       3.78267000      13.59950000  T      -0.00133700       0.00062700       0.00121400
Cu       8.74012000       3.76738000      13.55368000  T      -0.00107400      -0.00014400       0.00028600
Cu      11.21511000       3.76098000      13.60754000  T      -0.00070400      -0.00013100       0.00007100
Cu       1.23131000       6.25860000      13.56500000  T       0.00017100       0.00005700      -0.00000700
Cu       3.75193000       6.25291000      13.59794000  T       0.00017300      -0.00067600       0.00096300
Cu       6.25090000       6.22922000      13.59916000  T      -0.00139900      -0.00060100       0.00116800
Cu       8.74105000       6.24374000      13.55311000  T      -0.00107000       0.00004600       0.00016700
Cu      11.21552000       6.25086000      13.60718000  T      -0.00062000       0.00017700       0.00004500
Cu       1.26319000       8.76739000      13.57669000  T       0.00031200      -0.00019800       0.00017200
Cu       3.77859000       8.75431000      13.58859000  T       0.00012600      -0.00044900       0.00011300
Cu       6.29226000       8.73145000      13.60135000  T      -0.00055200      -0.00026500       0.00015800
Cu       8.77806000       8.73387000      13.60473000  T      -0.00060500       0.00001500       0.00018200
Cu      11.26706000       8.74560000      13.60199000  T      -0.00022200       0.00023900      -0.00021500
Cu       1.24748000      11.26379000      13.59454000  T       0.00061700      -0.00005100      -0.00004400
Cu       3.74106000      11.26428000      13.56904000  T       0.00069300      -0.00000200       0.00003700
Cu       6.25730000      11.26463000      13.55819000  T       0.00038900       0.00001500       0.00006900
Cu       8.76527000      11.26394000      13.56800000  T      -0.00023700      -0.00000800       0.00000700
Cu      11.27224000      11.26399000      13.57736000  T       0.00020900       0.00001200      -0.00010300
Cu      12.51206000       0.00770000      15.36967000  T       0.00046000       0.00012000      -0.00035600
Cu       2.50923000       0.00833000      15.36410000  T       0.00057300       0.00028500      -0.00045600
Cu       5.00878000      12.47992000      15.34320000  T       0.00061100       0.00043600      -0.00048500
Cu       7.51043000      12.49514000      15.33615000  T       0.00037400       0.00027600      -0.00037200
Cu      10.01241000      12.49872000      15.35613000  T       0.00032000       0.00002500      -0.00037400
Cu       0.06260000       2.50731000      15.35832000  T      -0.00086500       0.00020600      -0.00040100
Cu       2.52403000       2.51116000      15.35189000  T      -0.00042700       0.00063900      -0.00009900
Cu       4.98399000       2.40785000      15.42116000  T      -0.00075500       0.00099200       0.00035600
Cu       7.60523000       2.50286000      15.44679000  T      -0.00169100       0.00097800      -0.00024800
Cu      10.11524000       2.46226000      15.46792000  T      -0.00172000       0.00020300      -0.00065700
Cu      12.43021000       5.00601000      15.34195000  T      -0.00222400       0.00000300      -0.00017500
Cu       2.33396000       5.00619000      15.37290000  T      -0.00318600      -0.00001900       0.00037200
Pd       4.81327000       5.00575000      15.61361000  T      -0.01006800       0.00088700       0.01240700
Y        7.39458000       5.00669000      17.29878000  T       0.00097600      -0.00005800       0.00002600
Cu       9.91770000       5.00584000      15.47294000  T      -0.00158200       0.00017900      -0.00083100
Cu       0.06306000       7.50393000      15.35830000  T      -0.00074100      -0.00010900      -0.00039700
Cu       2.52458000       7.50036000      15.35163000  T      -0.00021200      -0.00077800       0.00004400
Cu       4.98457000       7.60465000      15.41863000  T      -0.00053400      -0.00074800       0.00058800
Cu       7.60747000       7.50845000      15.44490000  T      -0.00155700      -0.00101500      -0.00044700
Cu      10.11606000       7.54936000      15.46754000  T      -0.00167600      -0.00010100      -0.00064900
Cu      12.51255000      10.00586000      15.36931000  T       0.00049700      -0.00006200      -0.00027200
Cu       2.51002000      10.00449000      15.36366000  T       0.00061200      -0.00037300      -0.00046100
Cu       5.00937000      10.04747000      15.34190000  T       0.00061600      -0.00010400      -0.00044600
Cu       7.51071000      10.03141000      15.33549000  T       0.00040500      -0.00030500      -0.00028500
Cu      10.01251000      10.02761000      15.35583000  T       0.00037100       0.00012300      -0.00037000
O        6.20023000       3.38778000      16.49387000  T      -0.00174000       0.00098100      -0.00141500
O        6.20221000       6.62381000      16.48874000  T      -0.00152600      -0.00070900      -0.00094600
O        9.00714000       6.44958000      16.56800000  T      -0.00084900      -0.00004600      -0.00067500
O        9.00560000       3.56169000      16.56758000  T      -0.00114600       0.00005500      -0.00087700
C        5.23735000       5.02313000      18.70032000  T       0.01672000      -0.00100500       0.01400600
O        5.01723000       5.04733000      20.04787000  T       0.01782700      -0.00151100       0.01282400
O        4.20485000       5.01759000      17.98812000  T       0.01397300       0.00004500       0.00882000
H        4.03378000       5.05766000      20.17678000  T       0.02438800      -0.00252000       0.02804200
108
Lattice="12.515153631 0.0 0.0 0.0 12.515153631 0.0 0.0 0.0 25.30973" Properties=species:S:1:pos:R:3:move_mask:L:1:forces:R:3 stress="0.007791875026716156 -3.782354530285255e-06 -0.00012957997096246232 -3.782354530285255e-06 0.008078391503139826 2.3218413948285723e-06 -0.00012957997096246232 2.3218413948285723e-06 0.001802398039336064" free_energy=-444.15766979 energy=-444.15441818 pbc="T T T"
Cu       1.25152000       1.25152000      10.00000000  F      -0.00332300      -0.01690600      -0.06781300
Cu       3.75455000       1.25152000      10.00000000  F       0.00605100       0.00470400      -0.07146000
Cu       6.25758000       1.25152000      10.00000000  F      -0.01217000       0.01971000      -0.05946000
Cu       8.76061000       1.25152000      10.00000000  F       0.01699100       0.00921200      -0.05074000
Cu      11.26364000       1.25152000      10.00000000  F      -0.01085500      -0.00143300      -0.07630600
Cu       1.25152000       3.75455000      10.00000000  F      -0.00316200       0.00858800      -0.07101200
Cu       3.75455000       3.75455000      10.00000000  F       0.01295700      -0.01715400      -0.05191000
Cu       6.25758000       3.75455000      10.00000000  F      -0.01399000      -0.01911500      -0.08151600
Cu       8.76061000       3.75455000      10.00000000  F       0.01858500      -0.01456900      -0.08468100
Cu      11.26364000       3.75455000      10.00000000  F      -0.01243900       0.00090600      -0.06183000
Cu       1.25152000       6.25758000      10.00000000  F      -0.00366600      -0.00717500      -0.07266600
Cu       3.75455000       6.25758000      10.00000000  F       0.01435100       0.01789800      -0.05248400
Cu       6.25758000       6.25758000      10.00000000  F      -0.01399100       0.02118700      -0.08471600
Cu       8.76061000       6.25758000      10.00000000  F       0.01721700       0.01529400      -0.08532500
Cu      11.26364000       6.25758000      10.00000000  F      -0.01198100       0.00053200      -0.06358200
Cu       1.25152000       8.76061000      10.00000000  F      -0.00303900       0.01369700      -0.06670900
Cu       3.75455000       8.76061000      10.00000000  F       0.00532800      -0.00698300      -0.07037800
Cu       6.25758000       8.76061000      10.00000000  F      -0.01214800      -0.02379100      -0.05744100
Cu       8.76061000       8.76061000      10.00000000  F       0.01768400      -0.01148900      -0.04996100
Cu      11.26364000       8.76061000      10.00000000  F      -0.01117000      -0.00184000      -0.07525500
Cu       1.25152000      11.26364000      10.00000000  F       0.00023800       0.00190500      -0.01816000
Cu       3.75455000      11.26364000      10.00000000  F      -0.00868300       0.00162900      -0.07577500
Cu       6.25758000      11.26364000      10.00000000  F      -0.00835600       0.00209000      -0.06281300
Cu       8.76061000      11.26364000      10.00000000  F       0.00497400       0.00162500      -0.07331700
Cu      11.26364000      11.26364000      10.00000000  F       0.00854100       0.00194000      -0.06940800
Cu       0.00000000       0.00000000      11.76991000  F      -0.02601900       0.04427300       0.07415600
Cu       2.50303000       0.00000000      11.76991000  F       0.02882100       0.03275700       0.03880300
Cu       5.00606000       0.00000000      11.76991000  F       0.05115800       0.09181500       0.04754900
Cu       7.50909000       0.00000000      11.76991000  F       0.03443500       0.07609500       0.04994200
Cu      10.01212000       0.00000000      11.76991000  F      -0.01235100       0.07543800       0.06855400
Cu       0.00000000       2.50303000      11.76991000  F      -0.08892600       0.03444300       0.06454200
Cu       2.50303000       2.50303000      11.76991000  F       0.05630700       0.03080400       0.04724900
Cu       5.00606000       2.50303000      11.76991000  F       0.00479700       0.00263200       0.08398500
Cu       7.50909000       2.50303000      11.76991000  F      -0.05310000       0.02835100       0.11258200
Cu      10.01212000       2.50303000      11.76991000  F       0.06326700      -0.05741000       0.01092300
Cu       0.00000000       5.00606000      11.76991000  F      -0.12535300       0.00129800       0.04588400
Cu       2.50303000       5.00606000      11.76991000  F       0.05268000       0.00073500       0.04455500
Cu       5.00606000       5.00606000      11.76991000  F      -0.03725000       0.00172300       0.14132000
Cu       7.50909000       5.00606000      11.76991000  F      -0.09710400       0.00106700       0.13269600
Cu      10.01212000       5.00606000      11.76991000  F       0.03968200      -0.00036000       0.02831600
Cu       0.00000000       7.50909000      11.76991000  F      -0.08842100      -0.03777500       0.06598200
Cu       2.50303000       7.50909000      11.76991000  F       0.05555900      -0.03323900       0.04678600
Cu       5.00606000       7.50909000      11.76991000  F       0.00629600      -0.00662900       0.08478600
Cu       7.50909000       7.50909000      11.76991000  F      -0.05241800      -0.03254400       0.11318100
Cu      10.01212000       7.50909000      11.76991000  F       0.06547600       0.05547100       0.01066600
Cu       0.00000000      10.01212000      11.76991000  F      -0.02556000      -0.04228100       0.07241100
Cu       2.50303000      10.01212000      11.76991000  F       0.02953500      -0.03090800       0.03910900
Cu       5.00606000      10.01212000      11.76991000  F       0.05103800      -0.08735100       0.04642700
Cu       7.50909000      10.01212000      11.76991000  F       0.03513400      -0.07192600       0.04810300
Cu      10.01212000      10.01212000      11.76991000  F      -0.01213700      -0.07331200       0.06803300
Cu       1.26295000       1.24421000      13.57640000  T      -0.00049900      -0.00039100      -0.00019800
Cu       3.77864000       1.25818000      13.58928000  T      -0.00059600      -0.00048100      -0.00022000
Cu       6.29171000       1.28158000      13.60231000  T       0.00002900      -0.00035300      -0.00006300
Cu       8.77732000       1.27845000      13.60537000  T       0.00057000      -0.00024300       0.00017200
Cu      11.26645000       1.26671000      13.60179000  T       0.00023900      -0.00027700      -0.00001500
Cu       1.23103000       3.75339000      13.56513000  T      -0.00061800      -0.00028500      -0.00016400
Cu       3.75165000       3.75890000      13.59841000  T      -0.00063200      -0.00041700      -0.00052100
Cu       6.25011000       3.78274000      13.59962000  T       0.00034200      -0.00040800      -0.00005500
Cu       8.73999000       3.76737000      13.55366000  T       0.00059400      -0.00010700       0.00060700
Cu      11.21499000       3.76098000      13.60750000  T       0.00016400      -0.00025700       0.00024000
Cu       1.23123000       6.25860000      13.56497000  T      -0.00060300       0.00028200      -0.00015700
Cu       3.75191000       6.25281000      13.59809000  T      -0.00062700       0.00040600      -0.00050500
Cu       6.25073000       6.22916000      13.59927000  T       0.00034100       0.00039000      -0.00004700
Cu       8.74092000       6.24375000      13.55308000  T       0.00058400       0.00010600       0.00061200
Cu      11.21541000       6.25088000      13.60714000  T       0.00017600       0.00024500       0.00024000
Cu       1.26318000       8.76737000      13.57670000  T      -0.00049600       0.00040900      -0.00019800
Cu       3.77857000       8.75426000      13.58860000  T      -0.00059500       0.00048600      -0.00021000
Cu       6.29221000       8.73142000      13.60138000  T       0.00002200       0.00035100      -0.00003500
Cu       8.77800000       8.73386000      13.60474000  T       0.00056500       0.00026400       0.00017400
Cu      11.26703000       8.74562000      13.60194000  T       0.00024900       0.00029100       0.00000500
Cu       1.24755000      11.26379000      13.59452000  T      -0.00045700       0.00001400      -0.00029300
Cu       3.74113000      11.26428000      13.56904000  T      -0.00071300       0.00000800      -0.00025300
Cu       6.25737000      11.26463000      13.55818000  T      -0.00003700       0.00001000      -0.00001400
Cu       8.76531000      11.26394000      13.56799000  T       0.00045700       0.00001700      -0.00001400
Cu      11.27230000      11.26400000      13.57734000  T       0.00016300       0.00000800      -0.00011500
Cu      12.51213000       0.00771000      15.36961000  T      -0.00031900      -0.00003900      -0.00042100
Cu       2.50929000       0.00837000      15.36403000  T      -0.00063400      -0.00017000      -0.00013400
Cu       5.00885000      12.47997000      15.34313000  T      -0.00028600      -0.00014200       0.00017700
Cu       7.51051000      12.49517000      15.33611000  T       0.00030000       0.00000500       0.00014700
Cu      10.01248000      12.49871000      15.35606000  T       0.00024400       0.00013400      -0.00014800
Cu       0.06242000       2.50733000      15.35823000  T      -0.00028400      -0.00007200      -0.00013700
Cu       2.52388000       2.51125000      15.35188000  T      -0.00052700      -0.00033400       0.00004300
Cu       4.98377000       2.40795000      15.42120000  T       0.00002000      -0.00039100      -0.00000200
Cu       7.60493000       2.50299000      15.44674000  T       0.00054200       0.00008100       0.00032400
Cu      10.11503000       2.46224000      15.46777000  T      -0.00033900       0.00061600       0.00045900
Cu      12.42986000       5.00601000      15.34190000  T      -0.00028500      -0.00000300      -0.00005200
Cu       2.33344000       5.00619000      15.37295000  T      -0.00043300       0.00001800       0.00013800
Pd       4.81252000       5.00580000      15.61447000  T      -0.00980100       0.00071500       0.01020000
Y        7.39474000       5.00668000      17.29874000  T       0.00229400       0.00000400       0.00004900
Cu       9.91743000       5.00586000      15.47279000  T      -0.00009100      -0.00000200       0.00068400
Cu       0.06290000       7.50393000      15.35822000  T      -0.00027500       0.00006600      -0.00013300
Cu       2.52446000       7.50025000      15.35164000  T      -0.00052400       0.00036600       0.00004400
Cu       4.98438000       7.60461000      15.41871000  T       0.00004100       0.00030900       0.00003600
Cu       7.60719000       7.50831000      15.44483000  T       0.00052500      -0.00010600       0.00034500
Cu      10.11586000       7.54941000      15.46739000  T      -0.00033100      -0.00061500       0.00046300
Cu      12.51263000      10.00586000      15.36924000  T      -0.00032300       0.00004600      -0.00040300
Cu       2.51009000      10.00444000      15.36359000  T      -0.00063800       0.00018300      -0.00013800
Cu       5.00946000      10.04747000      15.34184000  T      -0.00030200       0.00011400       0.00017900
Cu       7.51079000      10.03137000      15.33545000  T       0.00028600       0.00003400       0.00014800
Cu      10.01259000      10.02764000      15.35577000  T       0.00023600      -0.00012700      -0.00014100
O        6.19998000       3.38803000      16.49373000  T       0.00030600      -0.00132100      -0.00020200
O        6.20198000       6.62361000      16.48867000  T       0.00044200       0.00135900      -0.00006800
O        9.00701000       6.44964000      16.56791000  T       0.00118300       0.00058700      -0.00122600
O        9.00544000       3.56164000      16.56748000  T       0.00105200      -0.00063100      -0.00129500
C        5.23924000       5.02298000      18.70201000  T       0.01678900      -0.00043000       0.01273500
O        5.02021000       5.04708000      20.04972000  T       0.01001800      -0.00143000       0.01451000
O        4.20657000       5.01761000      17.99021000  T       0.00696700      -0.00009200       0.00757300
H        4.03689000       5.05735000      20.17998000  T       0.02602900      -0.00242900       0.02544900
108
Lattice="12.515153631 0.0 0.0 0.0 12.515153631 0.0 0.0 0.0 25.30973" Properties=species:S:1:pos:R:3:move_mask:L:1:forces:R:3 stress="0.007779566770719915 -3.819803585040554e-06 -0.00012872488421221634 -3.819803585040554e-06 0.008067275375386629 2.2094942305626736e-06 -0.00012872488421221634 2.2094942305626736e-06 0.0017977543565464067" free_energy=-444.1554973 energy=-444.15225056 pbc="T T T"
Cu       1.25152000       1.25152000      10.00000000  F      -0.00289600      -0.01666600      -0.06796300
Cu       3.75455000       1.25152000      10.00000000  F       0.00644300       0.00486800      -0.07138400
Cu       6.25758000       1.25152000      10.00000000  F      -0.01218700       0.01982400      -0.05935500
Cu       8.76061000       1.25152000      10.00000000  F       0.01670800       0.00939200      -0.05088400
Cu      11.26364000       1.25152000      10.00000000  F      -0.01085600      -0.00119000      -0.07668600
Cu       1.25152000       3.75455000      10.00000000  F      -0.00278600       0.00875100      -0.07097000
Cu       3.75455000       3.75455000      10.00000000  F       0.01329700      -0.01703000      -0.05175200
Cu       6.25758000       3.75455000      10.00000000  F      -0.01401400      -0.01901000      -0.08137400
Cu       8.76061000       3.75455000      10.00000000  F       0.01838500      -0.01443500      -0.08469400
Cu      11.26364000       3.75455000      10.00000000  F      -0.01241500       0.00107500      -0.06192700
Cu       1.25152000       6.25758000      10.00000000  F      -0.00331200      -0.00729100      -0.07259100
Cu       3.75455000       6.25758000      10.00000000  F       0.01467800       0.01778700      -0.05231000
Cu       6.25758000       6.25758000      10.00000000  F      -0.01400500       0.02109900      -0.08456900
Cu       8.76061000       6.25758000      10.00000000  F       0.01703900       0.01520100      -0.08530100
Cu      11.26364000       6.25758000      10.00000000  F      -0.01195600       0.00040900      -0.06363500
Cu       1.25152000       8.76061000      10.00000000  F      -0.00262700       0.01342700      -0.06680900
Cu       3.75455000       8.76061000      10.00000000  F       0.00570500      -0.00716400      -0.07030000
Cu       6.25758000       8.76061000      10.00000000  F      -0.01215200      -0.02392400      -0.05735700
Cu       8.76061000       8.76061000      10.00000000  F       0.01741500      -0.01169800      -0.05006500
Cu      11.26364000       8.76061000      10.00000000  F      -0.01117000      -0.00212300      -0.07550600
Cu       1.25152000      11.26364000      10.00000000  F       0.00067900       0.00186400      -0.01838800
Cu       3.75455000      11.26364000      10.00000000  F      -0.00824300       0.00161000      -0.07572800
Cu       6.25758000      11.26364000      10.00000000  F      -0.00836700       0.00206600      -0.06279300
Cu       8.76061000      11.26364000      10.00000000  F       0.00463100       0.00158800      -0.07356300
Cu      11.26364000      11.26364000      10.00000000  F       0.00851800       0.00190400      -0.06976800
Cu       0.00000000       0.00000000      11.76991000  F      -0.02568700       0.04443200       0.07424300
Cu       2.50303000       0.00000000      11.76991000  F       0.02930500       0.03289300       0.03899200
Cu       5.00606000       0.00000000      11.76991000  F       0.05123600       0.09192000       0.04777600
Cu       7.50909000       0.00000000      11.76991000  F       0.03414200       0.07622800       0.05008100
Cu      10.01212000       0.00000000      11.76991000  F      -0.01251000       0.07558100       0.06864200
Cu       0.00000000       2.50303000      11.76991000  F      -0.08864800       0.03466700       0.06451100
Cu       2.50303000       2.50303000      11.76991000  F       0.05671400       0.03106400       0.04744500
Cu       5.00606000       2.50303000      11.76991000  F       0.00478400       0.00286300       0.08424000
Cu       7.50909000       2.50303000      11.76991000  F      -0.05341300       0.02848700       0.11270000
Cu      10.01212000       2.50303000      11.76991000  F       0.06309400      -0.05720900       0.01088000
Cu       0.00000000       5.00606000      11.76991000  F      -0.12513000       0.00129000       0.04578300
Cu       2.50303000       5.00606000      11.76991000  F       0.05306100       0.00073000       0.04472500
Cu       5.00606000       5.00606000      11.76991000  F      -0.03729500       0.00172300       0.14139100
Cu       7.50909000       5.00606000      11.76991000  F      -0.09750100       0.00106500       0.13281500
Cu      10.01212000       5.00606000      11.76991000  F       0.03957700      -0.00037400       0.02821100
Cu       0.00000000       7.50909000      11.76991000  F      -0.08812900      -0.03801200       0.06595500
Cu       2.50303000       7.50909000      11.76991000  F       0.05597600      -0.03349500       0.04697800
Cu       5.00606000       7.50909000      11.76991000  F       0.00628300      -0.00685700       0.08503100
Cu       7.50909000       7.50909000      11.76991000  F      -0.05274000      -0.03268500       0.11330100
Cu      10.01212000       7.50909000      11.76991000  F       0.06530700       0.05525900       0.01061400
Cu       0.00000000      10.01212000      11.76991000  F      -0.02521900      -0.04243400       0.07249500
Cu       2.50303000      10.01212000      11.76991000  F       0.03003600      -0.03105400       0.03930700
Cu       5.00606000      10.01212000      11.76991000  F       0.05111400      -0.08746400       0.04665700
Cu       7.50909000      10.01212000      11.76991000  F       0.03483200      -0.07206000       0.04824400
Cu      10.01212000      10.01212000      11.76991000  F      -0.01229800      -0.07344200       0.06811400
Cu       1.26292000       1.24421000      13.57641000  T       0.00075900      -0.00012900      -0.00019100
Cu       3.77860000       1.25820000      13.58929000  T       0.00000200       0.00014300      -0.00022100
Cu       6.29170000       1.28159000      13.60233000  T      -0.00084600       0.00005300      -0.00025300
Cu       8.77730000       1.27845000      13.60539000  T      -0.00063700      -0.00019600      -0.00012200
Cu      11.26642000       1.26670000      13.60178000  T       0.00032100      -0.00023900      -0.00029200
Cu       1.23097000       3.75339000      13.56512000  T       0.00057500      -0.00021300      -0.00055300
Cu       3.75161000       3.75894000      13.59847000  T      -0.00028200       0.00030700       0.00014000
Cu       6.25006000       3.78276000      13.59966000  T      -0.00109900       0.00013600       0.00047800
Cu       8.73996000       3.76736000      13.55366000  T      -0.00099100      -0.00008400      -0.00000800
Cu      11.21494000       3.76097000      13.60749000  T       0.00003200      -0.00020500      -0.00029900
Cu       1.23117000       6.25860000      13.56497000  T       0.00068000       0.00019100      -0.00049600
Cu       3.75187000       6.25278000      13.59815000  T      -0.00026100      -0.00025200       0.00011700
Cu       6.25067000       6.22915000      13.59932000  T      -0.00111200      -0.00013600       0.00046400
Cu       8.74088000       6.24376000      13.55308000  T      -0.00096800      -0.00002300      -0.00009700
Cu      11.21536000       6.25088000      13.60713000  T       0.00014300       0.00021800      -0.00031500
Cu       1.26315000       8.76736000      13.57672000  T       0.00082500       0.00008100      -0.00019500
Cu       3.77854000       8.75424000      13.58861000  T       0.00000900      -0.00012700      -0.00019000
Cu       6.29219000       8.73141000      13.60139000  T      -0.00086800      -0.00001900      -0.00025400
Cu       8.77798000       8.73386000      13.60476000  T      -0.00058000       0.00020700      -0.00018300
Cu      11.26701000       8.74564000      13.60194000  T       0.00041900       0.00026400      -0.00032400
Cu       1.24754000      11.26379000      13.59453000  T       0.00099100      -0.00004300      -0.00025100
Cu       3.74113000      11.26428000      13.56905000  T       0.00035600       0.00000100      -0.00028700
Cu       6.25740000      11.26463000      13.55819000  T      -0.00031400       0.00001000      -0.00027800
Cu       8.76533000      11.26394000      13.56800000  T      -0.00027100       0.00000000      -0.00034400
Cu      11.27230000      11.26400000      13.57734000  T       0.00068800       0.00000700      -0.00030300
Cu      12.51213000       0.00772000      15.36958000  T       0.00083200      -0.00004400      -0.00032100
Cu       2.50929000       0.00837000      15.36400000  T       0.00061000       0.00005700      -0.00049500
Cu       5.00887000      12.47998000      15.34312000  T       0.00014800       0.00019600      -0.00054900
Cu       7.51054000      12.49517000      15.33610000  T       0.00000000       0.00004400      -0.00014900
Cu      10.01251000      12.49871000      15.35604000  T       0.00041900      -0.00006700      -0.00001000
Cu       0.06233000       2.50733000      15.35820000  T       0.00008600       0.00006600      -0.00011800
Cu       2.52379000       2.51127000      15.35189000  T      -0.00005200       0.00029500      -0.00025700
Cu       4.98367000       2.40797000      15.42122000  T      -0.00085600       0.00027400      -0.00001700
Cu       7.60481000       2.50303000      15.44672000  T      -0.00081400      -0.00021300      -0.00068100
Cu      10.11493000       2.46224000      15.46772000  T      -0.00064900      -0.00011400      -0.00027800
Cu      12.42970000       5.00601000      15.34188000  T      -0.00102100      -0.00000100       0.00005400
Cu       2.33322000       5.00618000      15.37297000  T      -0.00105400       0.00002900       0.00055000
Pd       4.81247000       5.00580000      15.61452000  T      -0.01709000       0.00122600       0.01772000
Y        7.39487000       5.00668000      17.29870000  T      -0.00012300      -0.00000900       0.00000300
Cu       9.91732000       5.00587000      15.47273000  T      -0.00022600       0.00003200      -0.00072800
Cu       0.06281000       7.50393000      15.35819000  T       0.00023200      -0.00001300      -0.00015000
Cu       2.52438000       7.50022000      15.35165000  T       0.00016900      -0.00036000      -0.00016500
Cu       4.98429000       7.60461000      15.41874000  T      -0.00066800      -0.00025600       0.00017700
Cu       7.60708000       7.50827000      15.44481000  T      -0.00078000       0.00000500      -0.00069100
Cu      10.11577000       7.54942000      15.46734000  T      -0.00059400       0.00022000      -0.00029600
Cu      12.51263000      10.00586000      15.36922000  T       0.00085000       0.00005200      -0.00014100
Cu       2.51009000      10.00443000      15.36357000  T       0.00061700      -0.00015100      -0.00053300
Cu       5.00948000      10.04747000      15.34183000  T       0.00011900       0.00003300      -0.00051200
Cu       7.51082000      10.03137000      15.33545000  T      -0.00000800      -0.00003100      -0.00007700
Cu      10.01262000      10.02766000      15.35574000  T       0.00045800       0.00016700      -0.00002300
O        6.19984000       3.38817000      16.49365000  T       0.00015400      -0.00052400      -0.00038900
O        6.20185000       6.62350000      16.48863000  T       0.00031700       0.00054000      -0.00013400
O        9.00692000       6.44969000      16.56785000  T       0.00078600       0.00002600      -0.00005800
O        9.00534000       3.56160000      16.56742000  T       0.00057100      -0.00014800      -0.00020600
C        5.24069000       5.02284000      18.70324000  T       0.01043200      -0.00017500       0.00189000
O        5.02269000       5.04685000      20.05087000  T       0.02766700      -0.00209600       0.01972800
O        4.20772000       5.01762000      17.99172000  T       0.01404400      -0.00036500       0.01431900
H        4.03990000       5.05707000      20.18288000  T       0.01445000      -0.00209500       0.02333800
108
Lattice="12.515153631 0.0 0.0 0.0 12.515153631 0.0 0.0 0.0 25.30973" Properties=species:S:1:pos:R:3:move_mask:L:1:forces:R:3 stress="0.007780914936691106 -3.8260450941664375e-06 -0.00013064102751386247 -3.8260450941664375e-06 0.008071282424245447 2.3592904495838717e-06 -0.00013064102751386247 2.3592904495838717e-06 0.0017997141904119338" free_energy=-444.15881324 energy=-444.15556039 pbc="T T T"
Cu       1.25152000       1.25152000      10.00000000  F      -0.00285700      -0.01658500      -0.06796700
Cu       3.75455000       1.25152000      10.00000000  F       0.00656500       0.00493400      -0.07133400
Cu       6.25758000       1.25152000      10.00000000  F      -0.01201900       0.01990000      -0.05922300
Cu       8.76061000       1.25152000      10.00000000  F       0.01680400       0.00947000      -0.05080400
Cu      11.26364000       1.25152000      10.00000000  F      -0.01086500      -0.00107500      -0.07656100
Cu       1.25152000       3.75455000      10.00000000  F      -0.00278600       0.00875000      -0.07086900
Cu       3.75455000       3.75455000      10.00000000  F       0.01340700      -0.01701200      -0.05159500
Cu       6.25758000       3.75455000      10.00000000  F      -0.01383200      -0.01899500      -0.08119100
Cu       8.76061000       3.75455000      10.00000000  F       0.01848300      -0.01445100      -0.08453100
Cu      11.26364000       3.75455000      10.00000000  F      -0.01240500       0.00107200      -0.06183500
Cu       1.25152000       6.25758000      10.00000000  F      -0.00327400      -0.00738800      -0.07252300
Cu       3.75455000       6.25758000      10.00000000  F       0.01481200       0.01771000      -0.05215600
Cu       6.25758000       6.25758000      10.00000000  F      -0.01383600       0.02104300      -0.08439000
Cu       8.76061000       6.25758000      10.00000000  F       0.01709600       0.01512200      -0.08515100
Cu      11.26364000       6.25758000      10.00000000  F      -0.01195200       0.00031600      -0.06358100
Cu       1.25152000       8.76061000      10.00000000  F      -0.00257300       0.01336100      -0.06693700
Cu       3.75455000       8.76061000      10.00000000  F       0.00585100      -0.00722900      -0.07025400
Cu       6.25758000       8.76061000      10.00000000  F      -0.01199900      -0.02400000      -0.05723300
Cu       8.76061000       8.76061000      10.00000000  F       0.01748800      -0.01176100      -0.05003200
Cu      11.26364000       8.76061000      10.00000000  F      -0.01117800      -0.00220600      -0.07560500
Cu       1.25152000      11.26364000      10.00000000  F       0.00072500       0.00191600      -0.01852200
Cu       3.75455000      11.26364000      10.00000000  F      -0.00811700       0.00163900      -0.07578800
Cu       6.25758000      11.26364000      10.00000000  F      -0.00820200       0.00208200      -0.06273700
Cu       8.76061000      11.26364000      10.00000000  F       0.00472700       0.00164000      -0.07358500
Cu      11.26364000      11.26364000      10.00000000  F       0.00849400       0.00194700      -0.06985300
Cu       0.00000000       0.00000000      11.76991000  F      -0.02562800       0.04457100       0.07454500
Cu       2.50303000       0.00000000      11.76991000  F       0.02961400       0.03300500       0.03930700
Cu       5.00606000       0.00000000      11.76991000  F       0.05150300       0.09204500       0.04810100
Cu       7.50909000       0.00000000      11.76991000  F       0.03409200       0.07637100       0.05040800
Cu      10.01212000       0.00000000      11.76991000  F      -0.01266500       0.07569200       0.06891500
Cu       0.00000000       2.50303000      11.76991000  F      -0.08862700       0.03490500       0.06481400
Cu       2.50303000       2.50303000      11.76991000  F       0.05696800       0.03130000       0.04777500
Cu       5.00606000       2.50303000      11.76991000  F       0.00496400       0.00310000       0.08464800
Cu       7.50909000       2.50303000      11.76991000  F      -0.05345700       0.02866100       0.11303900
Cu      10.01212000       2.50303000      11.76991000  F       0.06291900      -0.05697400       0.01123000
Cu       0.00000000       5.00606000      11.76991000  F      -0.12513800       0.00131000       0.04611300
Cu       2.50303000       5.00606000      11.76991000  F       0.05325800       0.00072800       0.04507200
Cu       5.00606000       5.00606000      11.76991000  F      -0.03709400       0.00171600       0.14185800
Cu       7.50909000       5.00606000      11.76991000  F      -0.09761000       0.00105400       0.13322700
Cu      10.01212000       5.00606000      11.76991000  F       0.03945800      -0.00036600       0.02857300
Cu       0.00000000       7.50909000      11.76991000  F      -0.08809700      -0.03826200       0.06626700
Cu       2.50303000       7.50909000      11.76991000  F       0.05621800      -0.03373000       0.04729700
Cu       5.00606000       7.50909000      11.76991000  F       0.00645700      -0.00708900       0.08542800
Cu       7.50909000       7.50909000      11.76991000  F      -0.05277100      -0.03286400       0.11363700
Cu      10.01212000       7.50909000      11.76991000  F       0.06514700       0.05501500       0.01096400
Cu       0.00000000      10.01212000      11.76991000  F      -0.02515400      -0.04260800       0.07280800
Cu       2.50303000      10.01212000      11.76991000  F       0.03033100      -0.03118800       0.03961700
Cu       5.00606000      10.01212000      11.76991000  F       0.05137400      -0.08759800       0.04697600
Cu       7.50909000      10.01212000      11.76991000  F       0.03480300      -0.07221200       0.04856500
Cu      10.01212000      10.01212000      11.76991000  F      -0.01244600      -0.07357800       0.06839000
Cu       1.26292000       1.24421000      13.57641000  T       0.00054500       0.00029800       0.00018000
Cu       3.77860000       1.25821000      13.58929000  T      -0.00011800       0.00042200       0.00013600
Cu       6.29167000       1.28160000      13.60233000  T      -0.00073800       0.00031400       0.00025800
Cu       8.77728000       1.27844000      13.60539000  T      -0.00051500       0.00017600       0.00020800
Cu      11.26641000       1.26669000      13.60177000  T       0.00021800       0.00019400      -0.00004400
Cu       1.23096000       3.75339000      13.56511000  T       0.00004500       0.00009600      -0.00006900
Cu       3.75159000       3.75897000      13.59851000  T      -0.00035100       0.00064300       0.00086400
Cu       6.25001000       3.78278000      13.59969000  T      -0.00116900       0.00026400       0.00072500
Cu       8.73991000       3.76736000      13.55366000  T      -0.00076900       0.00006600       0.00022000
Cu      11.21491000       3.76097000      13.60748000  T      -0.00012900       0.00004500       0.00003700
Cu       1.23117000       6.25861000      13.56496000  T       0.00013700      -0.00012300      -0.00000800
Cu       3.75185000       6.25276000      13.59818000  T      -0.00033100      -0.00054500       0.00079200
Cu       6.25062000       6.22913000      13.59935000  T      -0.00118700      -0.00021000       0.00073000
Cu       8.74084000       6.24376000      13.55307000  T      -0.00074500      -0.00014800       0.00016800
Cu      11.21534000       6.25089000      13.60712000  T      -0.00004200      -0.00002300       0.00006100
Cu       1.26316000       8.76736000      13.57671000  T       0.00062300      -0.00035200       0.00022100
Cu       3.77853000       8.75423000      13.58861000  T      -0.00006200      -0.00040200       0.00019600
Cu       6.29216000       8.73140000      13.60139000  T      -0.00074800      -0.00027400       0.00026000
Cu       8.77796000       8.73387000      13.60475000  T      -0.00046600      -0.00017500       0.00018500
Cu      11.26700000       8.74565000      13.60192000  T       0.00030200      -0.00015100      -0.00003400
Cu       1.24757000      11.26378000      13.59452000  T       0.00100700      -0.00003000       0.00006300
Cu       3.74115000      11.26428000      13.56904000  T       0.00050300       0.00000300       0.00017100
Cu       6.25740000      11.26463000      13.55819000  T      -0.00010900       0.00001300       0.00019100
Cu       8.76533000      11.26394000      13.56799000  T      -0.00011200       0.00000400       0.00007600
Cu      11.27232000      11.26400000      13.57733000  T       0.00071100       0.00002000      -0.00001600
Cu      12.51215000       0.00772000      15.36957000  T       0.00088100       0.00017600      -0.00033500
Cu       2.50931000       0.00838000      15.36399000  T       0.00068300       0.00021700      -0.00074200
Cu       5.00889000      12.47999000      15.34311000  T       0.00030600       0.00028100      -0.00068600
Cu       7.51055000      12.49518000      15.33610000  T       0.00014200       0.00020000      -0.00016700
Cu      10.01253000      12.49871000      15.35603000  T       0.00055400       0.00010800      -0.00003700
Cu       0.06229000       2.50734000      15.35819000  T      -0.00049500       0.00033300      -0.00059700
Cu       2.52376000       2.51129000      15.35189000  T      -0.00054600       0.00058800      -0.00047200
Cu       4.98361000       2.40798000      15.42123000  T      -0.00102900       0.00055000      -0.00001700
Cu       7.60474000       2.50304000      15.44670000  T      -0.00142500       0.00051700      -0.00048900
Cu      10.11488000       2.46223000      15.46769000  T      -0.00103700       0.00020900      -0.00065600
Cu      12.42961000       5.00601000      15.34188000  T      -0.00167100       0.00000900      -0.00049600
Cu       2.33310000       5.00618000      15.37300000  T      -0.00247100       0.00000900      -0.00002000
Pd       4.81207000       5.00583000      15.61495000  T      -0.00790200       0.00045300       0.00747200
Y        7.39496000       5.00668000      17.29866000  T       0.00196500       0.00000900      -0.00080400
Cu       9.91727000       5.00588000      15.47269000  T      -0.00108500       0.00008400      -0.00083100
Cu       0.06278000       7.50393000      15.35818000  T      -0.00037700      -0.00026200      -0.00057500
Cu       2.52435000       7.50019000      15.35166000  T      -0.00032900      -0.00070300      -0.00035400
Cu       4.98424000       7.60460000      15.41877000  T      -0.00079000      -0.00033400       0.00021900
Cu       7.60701000       7.50825000      15.44478000  T      -0.00136100      -0.00068100      -0.00051100
Cu      10.11572000       7.54944000      15.46731000  T      -0.00098900      -0.00008500      -0.00063900
Cu      12.51265000      10.00586000      15.36921000  T       0.00091300      -0.00013600      -0.00024400
Cu       2.51012000      10.00442000      15.36355000  T       0.00071600      -0.00031700      -0.00072500
Cu       5.00950000      10.04748000      15.34182000  T       0.00032700      -0.00001900      -0.00063500
Cu       7.51084000      10.03136000      15.33545000  T       0.00015800      -0.00025500      -0.00012100
Cu      10.01264000      10.02767000      15.35574000  T       0.00060200       0.00000800      -0.00003200
O        6.19977000       3.38822000      16.49360000  T      -0.00061500      -0.00008100      -0.00181100
O        6.20179000       6.62347000      16.48861000  T      -0.00047700       0.00019400      -0.00147900
O        9.00690000       6.44971000      16.56784000  T       0.00053400       0.00033200      -0.00130200
O        9.00530000       3.56158000      16.56740000  T       0.00034300      -0.00038500      -0.00141200
C        5.24169000       5.02277000      18.70386000  T       0.01320700       0.00018300       0.01032700
O        5.02464000       5.04668000      20.05192000  T       0.01752400      -0.00196100       0.01484600
O        4.20856000       5.01762000      17.99281000  T       0.00953100      -0.00028900       0.01350000
H        4.04182000       5.05687000      20.18491000  T       0.02074100      -0.00227800       0.02093400
