108
Lattice="12.515153631 0.0 0.0 0.0 12.515153631 0.0 0.0 0.0 25.30973" Properties=species:S:1:pos:R:3:move_mask:L:1:forces:R:3 stress="0.008499730818191702 5.0050661680457845e-05 0.00029517344958127106 5.0050661680457845e-05 0.008292581371812763 2.3305795076048084e-05 0.00029517344958127106 2.3305795076048084e-05 0.003176790831873809" free_energy=-445.26017872 energy=-445.26053276 pbc="T T T"
Cu       1.25152000       1.25152000      10.00000000  F       0.00655300      -0.00293200      -0.06280700
Cu       3.75455000       1.25152000      10.00000000  F       0.00347200       0.00763000      -0.06606200
Cu       6.25758000       1.25152000      10.00000000  F      -0.00093400       0.01521300      -0.05684800
Cu       8.76061000       1.25152000      10.00000000  F       0.01039000       0.01048700      -0.05786200
Cu      11.26364000       1.25152000      10.00000000  F      -0.02100600       0.00202700      -0.05770400
Cu       1.25152000       3.75455000      10.00000000  F       0.00557600       0.01556000      -0.06572600
Cu       3.75455000       3.75455000      10.00000000  F       0.00283200      -0.01025200      -0.05312100
Cu       6.25758000       3.75455000      10.00000000  F      -0.00839600      -0.02998900      -0.07397100
Cu       8.76061000       3.75455000      10.00000000  F       0.01164700      -0.02665600      -0.07873100
Cu      11.26364000       3.75455000      10.00000000  F      -0.01093300      -0.00451800      -0.05875300
Cu       1.25152000       6.25758000      10.00000000  F      -0.00072600      -0.01328700      -0.05435900
Cu       3.75455000       6.25758000      10.00000000  F       0.00912700       0.01194800      -0.04213000
Cu       6.25758000       6.25758000      10.00000000  F      -0.01942800       0.02446500      -0.07042400
Cu       8.76061000       6.25758000      10.00000000  F       0.01372700       0.02002800      -0.08405600
Cu      11.26364000       6.25758000      10.00000000  F      -0.00196900      -0.00481700      -0.05069400
Cu       1.25152000       8.76061000      10.00000000  F       0.00136500       0.02348500      -0.05955600
Cu       3.75455000       8.76061000      10.00000000  F      -0.00101200       0.00223300      -0.05942400
Cu       6.25758000       8.76061000      10.00000000  F      -0.00842600      -0.01733500      -0.05662500
Cu       8.76061000       8.76061000      10.00000000  F       0.00428500      -0.01734000      -0.03674900
Cu      11.26364000       8.76061000      10.00000000  F       0.00436000       0.00533000      -0.06638000
Cu       1.25152000      11.26364000      10.00000000  F       0.00502200      -0.02193300      -0.02680700
Cu       3.75455000      11.26364000      10.00000000  F      -0.01153500      -0.01122000      -0.07677100
Cu       6.25758000      11.26364000      10.00000000  F      -0.00169400       0.00716400      -0.06929700
Cu       8.76061000      11.26364000      10.00000000  F       0.00412900       0.01171600      -0.05739000
Cu      11.26364000      11.26364000      10.00000000  F       0.00255100       0.00237400      -0.06096300
Cu       0.00000000       0.00000000      11.76991000  F      -0.03125700       0.03576700       0.14073700
Cu       2.50303000       0.00000000      11.76991000  F       0.03226400       0.01148800       0.12098300
Cu       5.00606000       0.00000000      11.76991000  F       0.05962700       0.08027900       0.10547500
Cu       7.50909000       0.00000000      11.76991000  F       0.01464700       0.07522300       0.11639100
Cu      10.01212000       0.00000000      11.76991000  F      -0.03636600       0.09720600       0.13802100
Cu       0.00000000       2.50303000      11.76991000  F      -0.03020000       0.04970900       0.16359500
Cu       2.50303000       2.50303000      11.76991000  F       0.07357300       0.02468900       0.10400700
Cu       5.00606000       2.50303000      11.76991000  F      -0.02465600      -0.04261700       0.10173300
Cu       7.50909000       2.50303000      11.76991000  F       0.00328100      -0.03960900       0.11351300
Cu      10.01212000       2.50303000      11.76991000  F       0.03887800      -0.06890700       0.08205300
Cu       0.00000000       5.00606000      11.76991000  F      -0.02556900       0.01682100       0.11734400
Cu       2.50303000       5.00606000      11.76991000  F       0.09376400       0.02389700       0.12586600
Cu       5.00606000       5.00606000      11.76991000  F      -0.06556800       0.01021300       0.17106600
Cu       7.50909000       5.00606000      11.76991000  F      -0.01075800       0.00098500       0.12146400
Cu      10.01212000       5.00606000      11.76991000  F       0.03842100       0.00474000       0.09713800
Cu       0.00000000       7.50909000      11.76991000  F      -0.04212800      -0.05716200       0.15105200
Cu       2.50303000       7.50909000      11.76991000  F       0.08064000      -0.05838100       0.15069900
Cu       5.00606000       7.50909000      11.76991000  F      -0.04024700       0.04390100       0.10817400
Cu       7.50909000       7.50909000      11.76991000  F      -0.00779300       0.03421200       0.11186100
Cu      10.01212000       7.50909000      11.76991000  F       0.06022900       0.05810900       0.09098900
Cu       0.00000000      10.01212000      11.76991000  F       0.00364200      -0.05985400       0.12983500
Cu       2.50303000      10.01212000      11.76991000  F       0.02640400      -0.01895000       0.08252900
Cu       5.00606000      10.01212000      11.76991000  F       0.02657800      -0.10710600       0.11765900
Cu       7.50909000      10.01212000      11.76991000  F       0.02921400      -0.07379500       0.12905000
Cu      10.01212000      10.01212000      11.76991000  F      -0.05455600      -0.09250400       0.14557700
Cu       1.25862000       1.24082000      13.58042000  T      -0.00437500      -0.01295200      -0.00287100
Cu       3.78728000       1.25648000      13.60731000  T      -0.01196200      -0.00424300      -0.01660400
Cu       6.28295000       1.27292000      13.62548000  T      -0.00284200      -0.00538500      -0.00071000
Cu       8.75759000       1.28233000      13.62630000  T       0.00388900      -0.01037600      -0.00960800
Cu      11.25604000       1.26122000      13.61593000  T       0.01676700      -0.01290200      -0.02476800
Cu       1.26926000       3.76708000      13.59382000  T       0.00906900       0.00068300      -0.00265000
Cu       3.76706000       3.75385000      13.61823000  T      -0.02576500      -0.00548000      -0.01199500
Cu       6.28212000       3.75113000      13.57013000  T       0.00416400      -0.00003400      -0.05030400
Cu       8.75184000       3.76485000      13.57118000  T      -0.00176000      -0.00081000      -0.04485100
Cu      11.23695000       3.75708000      13.60716000  T      -0.00591000      -0.00008900       0.00538600
Cu       1.27498000       6.25823000      13.60493000  T       0.00449400       0.00516700      -0.00677400
Cu       3.75755000       6.26450000      13.63387000  T      -0.01775900       0.00270200      -0.02057600
Cu       6.27823000       6.25637000      13.57012000  T       0.00563500       0.00175500      -0.05073600
Cu       8.75300000       6.24691000      13.56788000  T      -0.00848200      -0.00266000      -0.03692500
Cu      11.24143000       6.24908000      13.61212000  T      -0.00299600      -0.00175300       0.00883000
Cu       1.27704000       8.75648000      13.59544000  T      -0.00834300       0.00890200       0.00351600
Cu       3.76646000       8.74138000      13.62073000  T       0.00266300       0.00435800      -0.01154500
Cu       6.27703000       8.73668000      13.62169000  T      -0.00051600       0.00617600       0.00026700
Cu       8.75753000       8.73060000      13.62649000  T      -0.01183700       0.01651100      -0.00511200
Cu      11.25928000       8.75117000      13.61068000  T       0.01367600       0.00998900      -0.01269300
Cu       1.24699000      11.25741000      13.60561000  T      -0.01416400       0.00581000      -0.01449500
Cu       3.74516000      11.25855000      13.57955000  T      -0.01304900       0.00135100       0.00426600
Cu       6.25557000      11.26516000      13.57599000  T      -0.00190400      -0.00532100      -0.00528700
Cu       8.76100000      11.26477000      13.58443000  T       0.00226700      -0.00062900      -0.01181600
Cu      11.26665000      11.26408000      13.58766000  T       0.03095000       0.00917300      -0.00601400
Cu      12.51188000      12.51443000      15.40058000  T      -0.00464400       0.01189600      -0.09545300
Cu       2.50415000       0.00627000      15.39699000  T       0.00690200       0.01165500      -0.09033500
Cu       4.99802000      12.47723000      15.37883000  T       0.00869400       0.00253400      -0.04893400
Cu       7.50443000      12.49378000      15.37267000  T      -0.00320100       0.00044600      -0.05492800
Cu      10.01268000      12.49606000      15.38283000  T      -0.00828700       0.00555800      -0.05897800
Cu       0.05599000       2.49811000      15.36858000  T       0.00840300       0.00922500      -0.04749700
Cu       2.52054000       2.45913000      15.36756000  T       0.00016500       0.00786600      -0.05012900
Cu       5.00168000       2.41478000      15.49015000  T      -0.06002200      -0.07178000      -0.09164700
Cu       7.54980000       2.50802000      15.49735000  T       0.03170700      -0.06323800      -0.12989500
Cu      10.09847000       2.45861000      15.46405000  T       0.05053100      -0.05132600      -0.08492900
Cu      12.48583000       4.99541000      15.34023000  T      -0.01323700      -0.00144200      -0.07647800
Cu       2.44448000       4.92837000      15.47372000  T      -0.04616500      -0.03178900      -0.06757100
Pd       5.05860000       4.99312000      15.46739000  T       0.00036400       0.00038500      -0.06851200
Y        7.49413000       4.99435000      17.25583000  T      -0.01884800       0.02077600       0.07774300
Cu       9.98421000       5.00476000      15.46775000  T       0.09981500      -0.00052500      -0.14977900
Cu       0.02785000       7.50944000      15.36178000  T       0.00480100      -0.00915300      -0.04632000
Cu       2.50582000       7.58961000      15.49105000  T      -0.01305700       0.01468300      -0.06988000
Cu       5.02016000       7.58470000      15.47473000  T      -0.05117800       0.07129600      -0.09610500
Cu       7.54894000       7.49616000      15.49991000  T       0.03221200       0.07727000      -0.12560600
Cu      10.08343000       7.55949000      15.46309000  T       0.04340200       0.05935200      -0.08502700
Cu      12.51391000      10.00433000      15.39583000  T      -0.00536700      -0.00985000      -0.09013100
Cu       2.50576000      10.05782000      15.39955000  T       0.01381500       0.00496400      -0.07345700
Cu       5.00412000      10.03775000      15.37117000  T       0.00570200      -0.01404400      -0.04969300
Cu       7.50575000      10.02954000      15.37172000  T       0.00220500      -0.02063700      -0.06086000
Cu      10.01506000      10.03505000      15.37916000  T      -0.01523300      -0.01439500      -0.05569100
O        6.15601000       3.39485000      16.68162000  T      -0.10856600       0.02076400       0.12451900
O        6.15556000       6.58343000      16.67378000  T      -0.09277000      -0.04258300       0.13481400
O        8.98914000       6.41345000      16.53974000  T       0.02530200       0.08448900       0.11668700
O        8.98856000       3.58415000      16.54419000  T       0.05243500      -0.11076300       0.09990600
C        2.71378000       6.84634000      17.26054000  T       0.03639800       0.14435000       0.60894300
O        2.82803000       7.61276000      18.38868000  T      -0.09296500      -0.20907300      -0.78362900
O        2.76220000       5.59106000      17.41544000  T      -0.08232600       0.30985600       0.03395000
H        2.93922000       6.98836000      19.13811000  T       0.02006100      -0.16443900       0.24537000
108
Lattice="12.515153631 0.0 0.0 0.0 12.515153631 0.0 0.0 0.0 25.30973" Properties=species:S:1:pos:R:3:move_mask:L:1:forces:R:3 stress="0.008509798372411751 4.098799042967536e-05 0.00029070452904713864 4.098799042967536e-05 0.008241706830927687 -6.512390621946592e-05 0.00029070452904713864 -6.512390621946592e-05 0.0031247366457639427" free_energy=-445.27268725 energy=-445.27304935 pbc="T T T"
Cu       1.25152000       1.25152000      10.00000000  F       0.00621500      -0.00262600      -0.06146800
Cu       3.75455000       1.25152000      10.00000000  F       0.00381100       0.00830800      -0.06619400
Cu       6.25758000       1.25152000      10.00000000  F      -0.00093800       0.01575000      -0.05687800
Cu       8.76061000       1.25152000      10.00000000  F       0.01067700       0.01083400      -0.05802800
Cu      11.26364000       1.25152000      10.00000000  F      -0.02123000       0.00239500      -0.05909700
Cu       1.25152000       3.75455000      10.00000000  F       0.00566600       0.01606600      -0.06563600
Cu       3.75455000       3.75455000      10.00000000  F       0.00296100      -0.00977300      -0.05311300
Cu       6.25758000       3.75455000      10.00000000  F      -0.00841700      -0.02968200      -0.07378600
Cu       8.76061000       3.75455000      10.00000000  F       0.01152600      -0.02645600      -0.07860500
Cu      11.26364000       3.75455000      10.00000000  F      -0.01094300      -0.00463000      -0.05857200
Cu       1.25152000       6.25758000      10.00000000  F      -0.00058600      -0.01293700      -0.05426000
Cu       3.75455000       6.25758000      10.00000000  F       0.00912100       0.01172500      -0.04198700
Cu       6.25758000       6.25758000      10.00000000  F      -0.01948600       0.02423800      -0.07026100
Cu       8.76061000       6.25758000      10.00000000  F       0.01371500       0.01993700      -0.08396200
Cu      11.26364000       6.25758000      10.00000000  F      -0.00197000      -0.00426600      -0.05052700
Cu       1.25152000       8.76061000      10.00000000  F       0.00085500       0.02307700      -0.06149600
Cu       3.75455000       8.76061000      10.00000000  F      -0.00134800       0.00149200      -0.05971900
Cu       6.25758000       8.76061000      10.00000000  F      -0.00847900      -0.01783300      -0.05673300
Cu       8.76061000       8.76061000      10.00000000  F       0.00482200      -0.01770200      -0.03687300
Cu      11.26364000       8.76061000      10.00000000  F       0.00477500       0.00493200      -0.06809100
Cu       1.25152000      11.26364000      10.00000000  F       0.00461300      -0.02272600      -0.02739600
Cu       3.75455000      11.26364000      10.00000000  F      -0.01163100      -0.01140600      -0.07515700
Cu       6.25758000      11.26364000      10.00000000  F      -0.00144500       0.00705400      -0.06899300
Cu       8.76061000      11.26364000      10.00000000  F       0.00430000       0.01165600      -0.05766900
Cu      11.26364000      11.26364000      10.00000000  F       0.00256900       0.00196600      -0.06124900
Cu       0.00000000       0.00000000      11.76991000  F      -0.03121800       0.03616400       0.13918600
Cu       2.50303000       0.00000000      11.76991000  F       0.03237600       0.01167100       0.12044700
Cu       5.00606000       0.00000000      11.76991000  F       0.05964900       0.08045900       0.10542500
Cu       7.50909000       0.00000000      11.76991000  F       0.01464400       0.07554600       0.11591100
Cu      10.01212000       0.00000000      11.76991000  F      -0.03638900       0.09748800       0.13716500
Cu       0.00000000       2.50303000      11.76991000  F      -0.03020700       0.05031100       0.16314300
Cu       2.50303000       2.50303000      11.76991000  F       0.07333800       0.02514600       0.10343700
Cu       5.00606000       2.50303000      11.76991000  F      -0.02479600      -0.04241300       0.10091900
Cu       7.50909000       2.50303000      11.76991000  F       0.00319000      -0.03986400       0.11205000
Cu      10.01212000       2.50303000      11.76991000  F       0.03929600      -0.06878100       0.08109000
Cu       0.00000000       5.00606000      11.76991000  F      -0.02545700       0.01697900       0.11745700
Cu       2.50303000       5.00606000      11.76991000  F       0.09363900       0.02391500       0.12477600
Cu       5.00606000       5.00606000      11.76991000  F      -0.06628800       0.01022300       0.16983700
Cu       7.50909000       5.00606000      11.76991000  F      -0.01069700       0.00097800       0.11907500
Cu      10.01212000       5.00606000      11.76991000  F       0.03887900       0.00487400       0.09608500
Cu       0.00000000       7.50909000      11.76991000  F      -0.04218200      -0.05730800       0.15026200
Cu       2.50303000       7.50909000      11.76991000  F       0.08023900      -0.05832000       0.14999300
Cu       5.00606000       7.50909000      11.76991000  F      -0.04046100       0.04368600       0.10730900
Cu       7.50909000       7.50909000      11.76991000  F      -0.00771700       0.03438200       0.11041400
Cu      10.01212000       7.50909000      11.76991000  F       0.06069000       0.05816700       0.09031800
Cu       0.00000000      10.01212000      11.76991000  F       0.00350100      -0.06070100       0.12797700
Cu       2.50303000      10.01212000      11.76991000  F       0.02620300      -0.01961200       0.08232700
Cu       5.00606000      10.01212000      11.76991000  F       0.02661700      -0.10731200       0.11739300
Cu       7.50909000      10.01212000      11.76991000  F       0.02907500      -0.07403200       0.12845600
Cu      10.01212000      10.01212000      11.76991000  F      -0.05404700      -0.09303200       0.14493600
Cu       1.25857000       1.24070000      13.58039000  T      -0.00388600      -0.01065300      -0.00574300
Cu       3.78716000       1.25644000      13.60715000  T      -0.01141900      -0.00407000      -0.01948800
Cu       6.28293000       1.27287000      13.62547000  T      -0.00293300      -0.00483200      -0.00368200
Cu       8.75763000       1.28223000      13.62620000  T       0.00420900      -0.00993400      -0.01301700
Cu      11.25620000       1.26109000      13.61569000  T       0.01610300      -0.01136000      -0.02706700
Cu       1.26935000       3.76709000      13.59379000  T       0.00765300       0.00018800      -0.00579400
Cu       3.76681000       3.75380000      13.61811000  T      -0.02323100      -0.00459200      -0.01360200
Cu       6.28216000       3.75113000      13.56965000  T       0.00315500      -0.00011700      -0.04705700
Cu       8.75183000       3.76484000      13.57075000  T      -0.00159500      -0.00061400      -0.04203100
Cu      11.23690000       3.75708000      13.60721000  T      -0.00519400      -0.00122400       0.00087700
Cu       1.27502000       6.25828000      13.60486000  T       0.00478700       0.00552200      -0.00784300
Cu       3.75737000       6.26452000      13.63367000  T      -0.01698700       0.00252900      -0.01951900
Cu       6.27828000       6.25639000      13.56963000  T       0.00444300       0.00193300      -0.04725500
Cu       8.75292000       6.24689000      13.56752000  T      -0.00774600      -0.00239800      -0.03444100
Cu      11.24140000       6.24906000      13.61221000  T      -0.00284700      -0.00050100       0.00422000
Cu       1.27696000       8.75657000      13.59547000  T      -0.00768900       0.00785900      -0.00086300
Cu       3.76649000       8.74142000      13.62061000  T       0.00210100       0.00422400      -0.01532500
Cu       6.27702000       8.73674000      13.62169000  T      -0.00076400       0.00523500      -0.00308000
Cu       8.75742000       8.73076000      13.62644000  T      -0.01019900       0.01519700      -0.00924300
Cu      11.25941000       8.75127000      13.61056000  T       0.01277900       0.00907800      -0.01618600
Cu       1.24685000      11.25746000      13.60547000  T      -0.01230800       0.00493700      -0.01645200
Cu       3.74503000      11.25856000      13.57959000  T      -0.01164900       0.00110800       0.00150600
Cu       6.25555000      11.26511000      13.57594000  T      -0.00199900      -0.00504000      -0.00720500
Cu       8.76103000      11.26476000      13.58432000  T       0.00249900      -0.00053800      -0.01329200
Cu      11.26695000      11.26417000      13.58761000  T       0.02750300       0.00830200      -0.00844000
Cu      12.51183000      12.51455000      15.39966000  T      -0.00433100       0.01172500      -0.09071400
Cu       2.50422000       0.00639000      15.39612000  T       0.00680500       0.01115100      -0.08641400
Cu       4.99811000      12.47725000      15.37836000  T       0.00825300       0.00020000      -0.04686500
Cu       7.50440000      12.49379000      15.37214000  T      -0.00314600      -0.00132100      -0.05248700
Cu      10.01260000      12.49611000      15.38226000  T      -0.00799400       0.00352100      -0.05681200
Cu       0.05607000       2.49820000      15.36813000  T       0.00929400       0.00936000      -0.04569500
Cu       2.52055000       2.45920000      15.36708000  T      -0.00140700       0.00736500      -0.04820700
Cu       5.00110000       2.41408000      15.48926000  T      -0.04798200      -0.05865600      -0.07966100
Cu       7.55011000       2.50741000      15.49609000  T       0.02496500      -0.04943200      -0.11372900
Cu      10.09896000       2.45812000      15.46323000  T       0.04226900      -0.04216800      -0.07564200
Cu      12.48570000       4.99539000      15.33949000  T      -0.00979800      -0.00070100      -0.07270700
Cu       2.44403000       4.92806000      15.47306000  T      -0.04162900      -0.02156800      -0.05579600
Pd       5.05861000       4.99313000      15.46673000  T       0.00360000       0.00057100      -0.05897600
Y        7.49395000       4.99455000      17.25658000  T      -0.01024200       0.01377400       0.06556000
Cu       9.98517000       5.00475000      15.46631000  T       0.08200800       0.00021300      -0.13134200
Cu       0.02790000       7.50935000      15.36133000  T       0.00603900      -0.00960200      -0.04450800
Cu       2.50569000       7.58975000      15.49038000  T      -0.00984300      -0.00127900      -0.03705800
Cu       5.01967000       7.58539000      15.47380000  T      -0.03850700       0.05692900      -0.08535900
Cu       7.54925000       7.49690000      15.49870000  T       0.02681700       0.06294800      -0.10988900
Cu      10.08385000       7.56006000      15.46227000  T       0.03380700       0.04750600      -0.07437500
Cu      12.51386000      10.00424000      15.39496000  T      -0.00512300      -0.00955800      -0.08571200
Cu       2.50590000      10.05787000      15.39884000  T       0.01313700       0.00327700      -0.06999700
Cu       5.00417000      10.03761000      15.37069000  T       0.00582100      -0.01129300      -0.04750100
Cu       7.50577000      10.02934000      15.37113000  T       0.00161300      -0.01802800      -0.05776900
Cu      10.01491000      10.03491000      15.37862000  T      -0.01441200      -0.01176000      -0.05373300
O        6.15496000       3.39505000      16.68282000  T      -0.10653500       0.01554100       0.10788200
O        6.15466000       6.58302000      16.67508000  T      -0.09465400      -0.03289900       0.11889800
O        8.98939000       6.41427000      16.54087000  T       0.02895900       0.08227600       0.10142800
O        8.98906000       3.58309000      16.54515000  T       0.05153400      -0.10422300       0.08722400
C        2.71413000       6.84774000      17.26641000  T      -0.01035600       0.13305700       0.20294500
O        2.82714000       7.61074000      18.38112000  T      -0.02631200      -0.20544900      -0.23165400
O        2.76141000       5.59405000      17.41577000  T      -0.07535100       0.13086300       0.06521600
H        2.93942000       6.98677000      19.14048000  T      -0.01311700       0.02941500       0.02383400
108
Lattice="12.515153631 0.0 0.0 0.0 12.515153631 0.0 0.0 0.0 25.30973" Properties=species:S:1:pos:R:3:move_mask:L:1:forces:R:3 stress="0.00854451988767904 3.728677551802658e-05 0.0002763303335302295 3.728677551802658e-05 0.008201511512157 -0.00011607958672317684 0.0002763303335302295 -0.00011607958672317684 0.0030572222415492633" free_energy=-445.28162696 energy=-445.2820207 pbc="T T T"
Cu       1.25152000       1.25152000      10.00000000  F       0.00607700      -0.00285700      -0.06171300
Cu       3.75455000       1.25152000      10.00000000  F       0.00385100       0.00795100      -0.06672700
Cu       6.25758000       1.25152000      10.00000000  F      -0.00095100       0.01538800      -0.05736100
Cu       8.76061000       1.25152000      10.00000000  F       0.01097200       0.01060100      -0.05843900
Cu      11.26364000       1.25152000      10.00000000  F      -0.02099300       0.00221500      -0.05925900
Cu       1.25152000       3.75455000      10.00000000  F       0.00545200       0.01569700      -0.06622300
Cu       3.75455000       3.75455000      10.00000000  F       0.00287600      -0.01005100      -0.05403800
Cu       6.25758000       3.75455000      10.00000000  F      -0.00830700      -0.02998500      -0.07472100
Cu       8.76061000       3.75455000      10.00000000  F       0.01193800      -0.02672800      -0.07924900
Cu      11.26364000       3.75455000      10.00000000  F      -0.01070000      -0.00484700      -0.05876200
Cu       1.25152000       6.25758000      10.00000000  F      -0.00081200      -0.01274800      -0.05496800
Cu       3.75455000       6.25758000      10.00000000  F       0.00905700       0.01186300      -0.04295300
Cu       6.25758000       6.25758000      10.00000000  F      -0.01928600       0.02449900      -0.07126500
Cu       8.76061000       6.25758000      10.00000000  F       0.01408100       0.02013100      -0.08465800
Cu      11.26364000       6.25758000      10.00000000  F      -0.00179400      -0.00419700      -0.05079800
Cu       1.25152000       8.76061000      10.00000000  F       0.00076100       0.02342400      -0.06172000
Cu       3.75455000       8.76061000      10.00000000  F      -0.00133100       0.00195100      -0.06032000
Cu       6.25758000       8.76061000      10.00000000  F      -0.00826000      -0.01739600      -0.05735900
Cu       8.76061000       8.76061000      10.00000000  F       0.00486300      -0.01738800      -0.03733200
Cu      11.26364000       8.76061000      10.00000000  F       0.00497800       0.00517500      -0.06827800
Cu       1.25152000      11.26364000      10.00000000  F       0.00451900      -0.02261800      -0.02764000
Cu       3.75455000      11.26364000      10.00000000  F      -0.01161100      -0.01132600      -0.07530900
Cu       6.25758000      11.26364000      10.00000000  F      -0.00143600       0.00706300      -0.06954900
Cu       8.76061000      11.26364000      10.00000000  F       0.00451500       0.01171000      -0.05793500
Cu      11.26364000      11.26364000      10.00000000  F       0.00278600       0.00208400      -0.06129300
Cu       0.00000000       0.00000000      11.76991000  F      -0.03055000       0.03612500       0.13425400
Cu       2.50303000       0.00000000      11.76991000  F       0.03205900       0.01101800       0.11740100
Cu       5.00606000       0.00000000      11.76991000  F       0.05950600       0.07958900       0.10372700
Cu       7.50909000       0.00000000      11.76991000  F       0.01471500       0.07503400       0.11387900
Cu      10.01212000       0.00000000      11.76991000  F      -0.03598900       0.09672100       0.13465200
Cu       0.00000000       2.50303000      11.76991000  F      -0.02995800       0.05073800       0.16114900
Cu       2.50303000       2.50303000      11.76991000  F       0.07192900       0.02420200       0.10051500
Cu       5.00606000       2.50303000      11.76991000  F      -0.02557900      -0.04394300       0.09803400
Cu       7.50909000       2.50303000      11.76991000  F       0.00361900      -0.04262100       0.10763000
Cu      10.01212000       2.50303000      11.76991000  F       0.04091900      -0.06977000       0.07807600
Cu       0.00000000       5.00606000      11.76991000  F      -0.02581900       0.01684700       0.11674800
Cu       2.50303000       5.00606000      11.76991000  F       0.09243300       0.02375500       0.12179500
Cu       5.00606000       5.00606000      11.76991000  F      -0.06832600       0.00998800       0.16650400
Cu       7.50909000       5.00606000      11.76991000  F      -0.00984800       0.00090800       0.11209900
Cu      10.01212000       5.00606000      11.76991000  F       0.04121900       0.00505900       0.09244200
Cu       0.00000000       7.50909000      11.76991000  F      -0.04238800      -0.05740100       0.14878300
Cu       2.50303000       7.50909000      11.76991000  F       0.07904300      -0.05685000       0.14781900
Cu       5.00606000       7.50909000      11.76991000  F      -0.04095800       0.04523100       0.10409800
Cu       7.50909000       7.50909000      11.76991000  F      -0.00695400       0.03693000       0.10566400
Cu      10.01212000       7.50909000      11.76991000  F       0.06175400       0.05922600       0.08867800
Cu       0.00000000      10.01212000      11.76991000  F       0.00372000      -0.06049200       0.12416200
Cu       2.50303000      10.01212000      11.76991000  F       0.02581300      -0.01911800       0.08061800
Cu       5.00606000      10.01212000      11.76991000  F       0.02648400      -0.10634900       0.11541800
Cu       7.50909000      10.01212000      11.76991000  F       0.02904100      -0.07329700       0.12569800
Cu      10.01212000      10.01212000      11.76991000  F      -0.05321500      -0.09229400       0.14346500
Cu       1.25846000       1.24038000      13.58014000  T      -0.00296800      -0.00603700      -0.01281700
Cu       3.78680000       1.25629000      13.60646000  T      -0.00964400      -0.00447000      -0.02542500
Cu       6.28283000       1.27271000      13.62529000  T      -0.00271400      -0.00456500      -0.01076900
Cu       8.75777000       1.28190000      13.62571000  T       0.00554300      -0.00953300      -0.02016000
Cu      11.25671000       1.26074000      13.61477000  T       0.01326900      -0.00841600      -0.03093200
Cu       1.26957000       3.76707000      13.59353000  T       0.00375100      -0.00143800      -0.01368900
Cu       3.76611000       3.75366000      13.61764000  T      -0.01625200      -0.00279600      -0.01578500
Cu       6.28223000       3.75111000      13.56819000  T       0.00057800      -0.00094900      -0.03618700
Cu       8.75178000       3.76482000      13.56944000  T      -0.00081400      -0.00127200      -0.03336100
Cu      11.23675000       3.75701000      13.60715000  T      -0.00298500      -0.00466000      -0.01010600
Cu       1.27518000       6.25847000      13.60457000  T       0.00391600       0.00602200      -0.01195000
Cu       3.75684000       6.26460000      13.63305000  T      -0.01370700       0.00185600      -0.01795900
Cu       6.27840000       6.25646000      13.56817000  T       0.00181700       0.00234100      -0.03635100
Cu       8.75268000       6.24682000      13.56645000  T      -0.00527000      -0.00104300      -0.02737600
Cu      11.24131000       6.24908000      13.61225000  T      -0.00203100       0.00316500      -0.00731200
Cu       1.27674000       8.75681000      13.59538000  T      -0.00444500       0.00549200      -0.00807900
Cu       3.76654000       8.74157000      13.62005000  T      -0.00115800       0.00428600      -0.02134600
Cu       6.27699000       8.73691000      13.62152000  T      -0.00096200       0.00413900      -0.01176600
Cu       8.75712000       8.73124000      13.62606000  T      -0.00472700       0.01255400      -0.01889400
Cu      11.25981000       8.75156000      13.60997000  T       0.00965500       0.00768300      -0.02243800
Cu       1.24649000      11.25761000      13.60489000  T      -0.00775500       0.00311500      -0.02116700
Cu       3.74468000      11.25860000      13.57957000  T      -0.00791200       0.00086100      -0.00657900
Cu       6.25548000      11.26496000      13.57566000  T      -0.00182300      -0.00383500      -0.01239900
Cu       8.76111000      11.26475000      13.58385000  T       0.00368800       0.00004400      -0.01680200
Cu      11.26777000      11.26442000      13.58729000  T       0.01802300       0.00588300      -0.01351300
Cu      12.51170000      12.51492000      15.39679000  T      -0.00376800       0.01013500      -0.07756000
Cu       2.50443000       0.00674000      15.39337000  T       0.00542900       0.00931100      -0.07533300
Cu       4.99837000      12.47721000      15.37686000  T       0.00709000      -0.00455400      -0.04177500
Cu       7.50430000      12.49370000      15.37047000  T      -0.00220200      -0.00554600      -0.04625800
Cu      10.01235000      12.49618000      15.38044000  T      -0.00610200      -0.00168000      -0.05157000
Cu       0.05639000       2.49849000      15.36667000  T       0.01000800       0.00792000      -0.04095800
Cu       2.52047000       2.45942000      15.36554000  T      -0.00442400       0.00554700      -0.04224000
Cu       4.99978000       2.41243000      15.48690000  T      -0.01971100      -0.02826600      -0.05135300
Cu       7.55079000       2.50607000      15.49271000  T       0.00934700      -0.01678600      -0.07278900
Cu      10.10018000       2.45691000      15.46095000  T       0.02353700      -0.02254000      -0.05330300
Cu      12.48546000       4.99538000      15.33721000  T      -0.00258100       0.00003900      -0.06161100
Cu       2.44278000       4.92752000      15.47154000  T      -0.02982000      -0.00639600      -0.02697900
Pd       5.05876000       4.99315000      15.46499000  T       0.00907500       0.00002300      -0.03504100
Y        7.49375000       4.99492000      17.25841000  T       0.00335600       0.00493300       0.02846400
Cu       9.98748000       5.00478000      15.46241000  T       0.03754100       0.00160800      -0.08376000
Cu       0.02811000       7.50904000      15.35992000  T       0.00644300      -0.00839900      -0.03884300
Cu       2.50539000       7.58960000      15.48946000  T      -0.00849600      -0.00643500      -0.01804000
Cu       5.01865000       7.58697000      15.47126000  T      -0.01100000       0.02348500      -0.05509800
Cu       7.54999000       7.49868000      15.49543000  T       0.01105600       0.02857300      -0.06982700
Cu      10.08479000       7.56141000      15.46004000  T       0.01434800       0.02325900      -0.05069400
Cu      12.51370000      10.00395000      15.39224000  T      -0.00455100      -0.00721400      -0.07388600
Cu       2.50631000      10.05796000      15.39662000  T       0.00997100       0.00171800      -0.06080100
Cu       5.00436000      10.03731000      15.36917000  T       0.00576200      -0.00438100      -0.04158600
Cu       7.50582000      10.02882000      15.36930000  T       0.00106100      -0.00996100      -0.04967800
Cu      10.01446000      10.03459000      15.37690000  T      -0.01107000      -0.00432500      -0.04894800
O        6.15158000       3.39545000      16.68595000  T      -0.09269600       0.00562500       0.06355900
O        6.15161000       6.58211000      16.67858000  T      -0.08714500      -0.01736900       0.07447300
O        8.99033000       6.41684000      16.54388000  T       0.02990300       0.06735300       0.06539600
O        8.99065000       3.57985000      16.54774000  T       0.04154800      -0.08394600       0.05578300
C        2.71343000       6.85049000      17.26955000  T      -0.03431200       0.01896500      -0.02206500
O        2.82665000       7.60667000      18.37724000  T      -0.00406400       0.02746600       0.00310200
O        2.75893000       5.59717000      17.41755000  T      -0.07903900       0.02458700       0.02147900
H        2.93894000       6.98781000      19.14089000  T      -0.01348600       0.00997500       0.01546000
108
Lattice="12.515153631 0.0 0.0 0.0 12.515153631 0.0 0.0 0.0 25.30973" Properties=species:S:1:pos:R:3:move_mask:L:1:forces:R:3 stress="0.008523517209470444 3.769871512033488e-05 0.0002618313078308027 3.769871512033488e-05 0.008162414698992468 -0.00012174687700947884 0.0002618313078308027 -0.00012174687700947884 0.0029479396582641733" free_energy=-445.28888907 energy=-445.28931455 pbc="T T T"
Cu       1.25152000       1.25152000      10.00000000  F       0.00674500      -0.00258300      -0.06235500
Cu       3.75455000       1.25152000      10.00000000  F       0.00407800       0.00799600      -0.06720700
Cu       6.25758000       1.25152000      10.00000000  F      -0.00140200       0.01546800      -0.05786400
Cu       8.76061000       1.25152000      10.00000000  F       0.01088900       0.01087900      -0.05933200
Cu      11.26364000       1.25152000      10.00000000  F      -0.02047700       0.00249300      -0.06027000
Cu       1.25152000       3.75455000      10.00000000  F       0.00603100       0.01563500      -0.06678400
Cu       3.75455000       3.75455000      10.00000000  F       0.00298200      -0.00993100      -0.05456500
Cu       6.25758000       3.75455000      10.00000000  F      -0.00862100      -0.02992500      -0.07527000
Cu       8.76061000       3.75455000      10.00000000  F       0.01193000      -0.02674900      -0.07995300
Cu      11.26364000       3.75455000      10.00000000  F      -0.01013700      -0.00473300      -0.05934400
Cu       1.25152000       6.25758000      10.00000000  F      -0.00028900      -0.01277900      -0.05548700
Cu       3.75455000       6.25758000      10.00000000  F       0.00919100       0.01164400      -0.04340800
Cu       6.25758000       6.25758000      10.00000000  F      -0.01961200       0.02431600      -0.07175100
Cu       8.76061000       6.25758000      10.00000000  F       0.01404000       0.01992300      -0.08532300
Cu      11.26364000       6.25758000      10.00000000  F      -0.00117100      -0.00446100      -0.05120800
Cu       1.25152000       8.76061000      10.00000000  F       0.00144900       0.02291900      -0.06214300
Cu       3.75455000       8.76061000      10.00000000  F      -0.00118000       0.00173200      -0.06060100
Cu       6.25758000       8.76061000      10.00000000  F      -0.00856300      -0.01755900      -0.05793800
Cu       8.76061000       8.76061000      10.00000000  F       0.00457800      -0.01766400      -0.03820300
Cu      11.26364000       8.76061000      10.00000000  F       0.00558200       0.00473800      -0.06914400
Cu       1.25152000      11.26364000      10.00000000  F       0.00513800      -0.02260000      -0.02830500
Cu       3.75455000      11.26364000      10.00000000  F      -0.01126800      -0.01135700      -0.07547400
Cu       6.25758000      11.26364000      10.00000000  F      -0.00199600       0.00697100      -0.07024400
Cu       8.76061000      11.26364000      10.00000000  F       0.00442200       0.01163100      -0.05876500
Cu      11.26364000      11.26364000      10.00000000  F       0.00322000       0.00207800      -0.06205600
Cu       0.00000000       0.00000000      11.76991000  F      -0.02862300       0.03632600       0.12307700
Cu       2.50303000       0.00000000      11.76991000  F       0.03262100       0.01025200       0.10926900
Cu       5.00606000       0.00000000      11.76991000  F       0.05942600       0.07870600       0.09787100
Cu       7.50909000       0.00000000      11.76991000  F       0.01357600       0.07470400       0.10785000
Cu      10.01212000       0.00000000      11.76991000  F      -0.03570500       0.09567700       0.12723000
Cu       0.00000000       2.50303000      11.76991000  F      -0.02833700       0.05260500       0.15462500
Cu       2.50303000       2.50303000      11.76991000  F       0.07096800       0.02413300       0.09291400
Cu       5.00606000       2.50303000      11.76991000  F      -0.02676100      -0.04481700       0.09114900
Cu       7.50909000       2.50303000      11.76991000  F       0.00317500      -0.04569600       0.09837600
Cu      10.01212000       2.50303000      11.76991000  F       0.04227000      -0.07013800       0.07012300
Cu       0.00000000       5.00606000      11.76991000  F      -0.02539400       0.01706300       0.11325700
Cu       2.50303000       5.00606000      11.76991000  F       0.09196500       0.02409000       0.11520000
Cu       5.00606000       5.00606000      11.76991000  F      -0.07164900       0.00981100       0.15942100
Cu       7.50909000       5.00606000      11.76991000  F      -0.00994800       0.00095200       0.09959600
Cu      10.01212000       5.00606000      11.76991000  F       0.04402000       0.00560800       0.08467900
Cu       0.00000000       7.50909000      11.76991000  F      -0.04132000      -0.05861500       0.14350500
Cu       2.50303000       7.50909000      11.76991000  F       0.07828400      -0.05602000       0.14154900
Cu       5.00606000       7.50909000      11.76991000  F      -0.04225000       0.04608500       0.09707000
Cu       7.50909000       7.50909000      11.76991000  F      -0.00693000       0.03931900       0.09602100
Cu      10.01212000       7.50909000      11.76991000  F       0.06274800       0.05953400       0.08313700
Cu       0.00000000      10.01212000      11.76991000  F       0.00515700      -0.06128200       0.11506500
Cu       2.50303000      10.01212000      11.76991000  F       0.02622900      -0.01943500       0.07442000
Cu       5.00606000      10.01212000      11.76991000  F       0.02584000      -0.10594600       0.10947100
Cu       7.50909000      10.01212000      11.76991000  F       0.02800100      -0.07288900       0.11859900
Cu      10.01212000      10.01212000      11.76991000  F      -0.05223700      -0.09177300       0.13752200
Cu       1.25828000       1.23997000      13.57926000  T      -0.00003200       0.00154400      -0.02336300
Cu       3.78614000       1.25600000      13.60472000  T      -0.00430900      -0.00192900      -0.03023300
Cu       6.28262000       1.27240000      13.62456000  T      -0.00257900      -0.00216000      -0.01943100
Cu       8.75813000       1.28126000      13.62434000  T       0.00475300      -0.00559200      -0.02728000
Cu      11.25762000       1.26017000      13.61265000  T       0.00720100      -0.00165500      -0.03338600
Cu       1.26986000       3.76698000      13.59260000  T       0.00085000      -0.00097900      -0.02367400
Cu       3.76499000       3.75347000      13.61657000  T      -0.00512000       0.00137100      -0.01642700
Cu       6.28226000       3.75105000      13.56570000  T      -0.00357000      -0.00112900      -0.02063600
Cu       8.75170000       3.76473000      13.56716000  T      -0.00067300      -0.00152900      -0.02023600
Cu      11.23654000       3.75670000      13.60647000  T      -0.00069100      -0.00656800      -0.02346800
Cu       1.27547000       6.25888000      13.60376000  T       0.00368100       0.00450900      -0.01869500
Cu       3.75591000       6.26473000      13.63182000  T      -0.00640900      -0.00010000      -0.01480100
Cu       6.27851000       6.25662000      13.56568000  T      -0.00260800       0.00173900      -0.02031100
Cu       8.75230000       6.24675000      13.56459000  T      -0.00261700       0.00043800      -0.01680400
Cu      11.24116000       6.24929000      13.61176000  T      -0.00139900       0.00619400      -0.02173700
Cu       1.27646000       8.75718000      13.59483000  T       0.00212100       0.00005300      -0.01756100
Cu       3.76646000       8.74184000      13.61861000  T      -0.00386400       0.00053300      -0.02496700
Cu       6.27691000       8.73718000      13.62073000  T      -0.00225600       0.00031700      -0.02215900
Cu       8.75677000       8.73209000      13.62477000  T       0.00132100       0.00539800      -0.02941500
Cu      11.26047000       8.75208000      13.60844000  T       0.00389900       0.00257500      -0.02857900
Cu       1.24598000      11.25782000      13.60343000  T       0.00012300       0.00028200      -0.02750200
Cu       3.74415000      11.25865000      13.57912000  T      -0.00109700       0.00001900      -0.01874500
Cu       6.25534000      11.26469000      13.57481000  T      -0.00194300      -0.00233100      -0.02026400
Cu       8.76134000      11.26474000      13.58269000  T       0.00299800       0.00026600      -0.02237300
Cu      11.26901000      11.26482000      13.58635000  T       0.00444000       0.00173400      -0.02170200
Cu      12.51145000      12.51562000      15.39145000  T      -0.00157200       0.00738500      -0.05338800
Cu       2.50481000       0.00738000      15.38817000  T       0.00331600       0.00626300      -0.05508000
Cu       4.99885000      12.47691000      15.37397000  T       0.00420900      -0.00708000      -0.03256100
Cu       7.50413000      12.49334000      15.36728000  T      -0.00096400      -0.00765900      -0.03504300
Cu      10.01192000      12.49607000      15.37689000  T      -0.00269000      -0.00622500      -0.04066600
Cu       0.05709000       2.49904000      15.36386000  T       0.00895500       0.00593900      -0.03201500
Cu       2.52018000       2.45982000      15.36263000  T      -0.00475400       0.00419300      -0.03259200
Cu       4.99838000       2.41044000      15.48333000  T       0.01066500       0.00677900      -0.01697400
Cu       7.55142000       2.50492000      15.48770000  T      -0.00896400       0.02255600      -0.01956400
Cu      10.10183000       2.45532000      15.45726000  T       0.00119500       0.00063500      -0.02492000
Cu      12.48528000       4.99538000      15.33296000  T       0.00379500       0.00031300      -0.04443200
Cu       2.44072000       4.92705000      15.46963000  T      -0.01376300       0.00436300      -0.00475400
Pd       5.05935000       4.99317000      15.46240000  T       0.01227800      -0.00054400      -0.00691000
Y        7.49402000       4.99525000      17.26026000  T       0.01543000      -0.00400300      -0.02200300
Cu       9.99006000       5.00490000      15.45665000  T      -0.01730600       0.00226100      -0.02139400
Cu       0.02855000       7.50846000      15.35725000  T       0.00484200      -0.00612900      -0.02900600
Cu       2.50482000       7.58919000      15.48814000  T      -0.00546000      -0.00283500      -0.01558000
Cu       5.01787000       7.58862000      15.46744000  T       0.01774600      -0.01443000      -0.01709000
Cu       7.55074000       7.50063000      15.49063000  T      -0.00885900      -0.01614300      -0.01602100
Cu      10.08580000       7.56305000      15.45652000  T      -0.00722300      -0.00449300      -0.02133900
Cu      12.51340000      10.00344000      15.38716000  T      -0.00237000      -0.00361900      -0.05214700
Cu       2.50701000      10.05807000      15.39242000  T       0.00548600      -0.00076600      -0.04432800
Cu       5.00475000      10.03698000      15.36630000  T       0.00447900       0.00059700      -0.03118000
Cu       7.50587000      10.02811000      15.36588000  T      -0.00030800      -0.00146600      -0.03558900
Cu      10.01369000      10.03427000      15.37353000  T      -0.00544800       0.00288300      -0.03887200
O        6.14545000       3.39586000      16.69024000  T      -0.06426300       0.00088400       0.01338900
O        6.14585000       6.58093000      16.68358000  T      -0.06451700      -0.00609900       0.02130900
O        8.99223000       6.42130000      16.54830000  T       0.02162400       0.04182300       0.02297700
O        8.99332000       3.57432000      16.55153000  T       0.02201100      -0.05040700       0.01965300
C        2.71117000       6.85226000      17.26909000  T      -0.03391500      -0.00077800       0.00473000
O        2.82635000       7.60726000      18.37688000  T      -0.00160100       0.06322800       0.02035300
O        2.75357000       5.59930000      17.41909000  T      -0.08870800      -0.00003400      -0.01532300
H        2.93794000       6.98892000      19.14158000  T      -0.01625200       0.01326900      -0.00789300
108
Lattice="12.515153631 0.0 0.0 0.0 12.515153631 0.0 0.0 0.0 25.30973" Properties=species:S:1:pos:R:3:move_mask:L:1:forces:R:3 stress="0.00852306782081338 3.766126606557958e-05 0.00025994013056566007 3.766126606557958e-05 0.008161584578278725 -0.00011854498282790071 0.00025994013056566007 -0.00011854498282790071 0.002931355968516702" free_energy=-445.28989455 energy=-445.29034551 pbc="T T T"
Cu       1.25152000       1.25152000      10.00000000  F       0.00640200      -0.00273000      -0.06163500
Cu       3.75455000       1.25152000      10.00000000  F       0.00424200       0.00795400      -0.06665100
Cu       6.25758000       1.25152000      10.00000000  F      -0.00125900       0.01545000      -0.05717600
Cu       8.76061000       1.25152000      10.00000000  F       0.01063700       0.01082200      -0.05848600
Cu      11.26364000       1.25152000      10.00000000  F      -0.02103800       0.00230900      -0.05941300
Cu       1.25152000       3.75455000      10.00000000  F       0.00580100       0.01566700      -0.06661200
Cu       3.75455000       3.75455000      10.00000000  F       0.00314400      -0.00983800      -0.05437900
Cu       6.25758000       3.75455000      10.00000000  F      -0.00851800      -0.02989100      -0.07485400
Cu       8.76061000       3.75455000      10.00000000  F       0.01164000      -0.02680200      -0.07940600
Cu      11.26364000       3.75455000      10.00000000  F      -0.01070900      -0.00474600      -0.05895000
Cu       1.25152000       6.25758000      10.00000000  F      -0.00054600      -0.01265200      -0.05533300
Cu       3.75455000       6.25758000      10.00000000  F       0.00932400       0.01166400      -0.04323100
Cu       6.25758000       6.25758000      10.00000000  F      -0.01953000       0.02434100      -0.07134400
Cu       8.76061000       6.25758000      10.00000000  F       0.01377400       0.02001200      -0.08478700
Cu      11.26364000       6.25758000      10.00000000  F      -0.00170400      -0.00431800      -0.05076700
Cu       1.25152000       8.76061000      10.00000000  F       0.00107700       0.02291200      -0.06142300
Cu       3.75455000       8.76061000      10.00000000  F      -0.00107000       0.00165600      -0.06013700
Cu       6.25758000       8.76061000      10.00000000  F      -0.00838900      -0.01759700      -0.05732700
Cu       8.76061000       8.76061000      10.00000000  F       0.00432500      -0.01762800      -0.03738500
Cu      11.26364000       8.76061000      10.00000000  F       0.00505400       0.00481900      -0.06828600
Cu       1.25152000      11.26364000      10.00000000  F       0.00468500      -0.02270000      -0.02749300
Cu       3.75455000      11.26364000      10.00000000  F      -0.01115800      -0.01143200      -0.07465600
Cu       6.25758000      11.26364000      10.00000000  F      -0.00180500       0.00687700      -0.06940900
Cu       8.76061000      11.26364000      10.00000000  F       0.00424600       0.01150600      -0.05763200
Cu      11.26364000      11.26364000      10.00000000  F       0.00270100       0.00194900      -0.06081900
Cu       0.00000000       0.00000000      11.76991000  F      -0.02887100       0.03599500       0.12058900
Cu       2.50303000       0.00000000      11.76991000  F       0.03250500       0.00981600       0.10769400
Cu       5.00606000       0.00000000      11.76991000  F       0.05977300       0.07829000       0.09709300
Cu       7.50909000       0.00000000      11.76991000  F       0.01342500       0.07447600       0.10709600
Cu      10.01212000       0.00000000      11.76991000  F      -0.03615000       0.09507400       0.12565700
Cu       0.00000000       2.50303000      11.76991000  F      -0.02858600       0.05266200       0.15325800
Cu       2.50303000       2.50303000      11.76991000  F       0.07077000       0.02400000       0.09164700
Cu       5.00606000       2.50303000      11.76991000  F      -0.02671300      -0.04506300       0.09031400
Cu       7.50909000       2.50303000      11.76991000  F       0.00309100      -0.04663000       0.09707700
Cu      10.01212000       2.50303000      11.76991000  F       0.04185900      -0.07054700       0.06857900
Cu       0.00000000       5.00606000      11.76991000  F      -0.02597200       0.01728600       0.11309000
Cu       2.50303000       5.00606000      11.76991000  F       0.09194400       0.02431700       0.11433800
Cu       5.00606000       5.00606000      11.76991000  F      -0.07217000       0.00991400       0.15878600
Cu       7.50909000       5.00606000      11.76991000  F      -0.01005900       0.00103300       0.09775900
Cu      10.01212000       5.00606000      11.76991000  F       0.04395900       0.00582300       0.08368400
Cu       0.00000000       7.50909000      11.76991000  F      -0.04162200      -0.05842200       0.14265200
Cu       2.50303000       7.50909000      11.76991000  F       0.07808100      -0.05564200       0.14058500
Cu       5.00606000       7.50909000      11.76991000  F      -0.04233500       0.04635100       0.09633300
Cu       7.50909000       7.50909000      11.76991000  F      -0.00688900       0.04008100       0.09464600
Cu      10.01212000       7.50909000      11.76991000  F       0.06229500       0.05991600       0.08221000
Cu       0.00000000      10.01212000      11.76991000  F       0.00479700      -0.06136500       0.11314200
Cu       2.50303000      10.01212000      11.76991000  F       0.02612500      -0.01946200       0.07337300
Cu       5.00606000      10.01212000      11.76991000  F       0.02595700      -0.10587700       0.10880500
Cu       7.50909000      10.01212000      11.76991000  F       0.02784400      -0.07276400       0.11757400
Cu      10.01212000      10.01212000      11.76991000  F      -0.05245500      -0.09139300       0.13629400
Cu       1.25824000       1.23992000      13.57877000  T       0.00005800       0.00260100      -0.02377600
Cu       3.78597000       1.25592000      13.60398000  T      -0.00264300      -0.00113900      -0.02854600
Cu       6.28255000       1.27231000      13.62415000  T      -0.00213800      -0.00158400      -0.01880800
Cu       8.75826000       1.28106000      13.62370000  T       0.00361200      -0.00449000      -0.02594600
Cu      11.25789000       1.26004000      13.61180000  T       0.00500000      -0.00048300      -0.03166900
Cu       1.26992000       3.76695000      13.59210000  T       0.00036800      -0.00042500      -0.02338300
Cu       3.76472000       3.75346000      13.61614000  T      -0.00278400       0.00242000      -0.01410800
Cu       6.28221000       3.75102000      13.56496000  T      -0.00388900      -0.00131300      -0.01631400
Cu       8.75168000       3.76470000      13.56646000  T      -0.00122900      -0.00163100      -0.01586700
Cu      11.23649000       3.75655000      13.60602000  T      -0.00149300      -0.00618200      -0.02325200
Cu       1.27557000       6.25901000      13.60335000  T       0.00332300       0.00410000      -0.01823500
Cu       3.75565000       6.26475000      13.63140000  T      -0.00451200      -0.00046700      -0.01196700
Cu       6.27849000       6.25668000      13.56494000  T      -0.00303000       0.00186800      -0.01579900
Cu       8.75219000       6.24675000      13.56402000  T      -0.00276500       0.00098300      -0.01285700
Cu      11.24112000       6.24941000      13.61137000  T      -0.00240400       0.00627500      -0.02181700
Cu       1.27644000       8.75725000      13.59448000  T       0.00266700      -0.00069500      -0.01781000
Cu       3.76640000       8.74190000      13.61800000  T      -0.00323400      -0.00056700      -0.02309900
Cu       6.27686000       8.73723000      13.62027000  T      -0.00212200      -0.00057400      -0.02166000
Cu       8.75673000       8.73232000      13.62413000  T       0.00135200       0.00364100      -0.02848800
Cu      11.26064000       8.75221000      13.60776000  T       0.00170800       0.00149200      -0.02740600
Cu       1.24589000      11.25786000      13.60278000  T       0.00103600      -0.00018500      -0.02737500
Cu       3.74404000      11.25866000      13.57878000  T       0.00050800      -0.00025900      -0.01951500
Cu       6.25528000      11.26460000      13.57437000  T      -0.00150400      -0.00217400      -0.02024800
Cu       8.76142000      11.26475000      13.58217000  T       0.00205200       0.00008900      -0.02215900
Cu      11.26930000      11.26492000      13.58588000  T       0.00144700       0.00090100      -0.02209600
Cu      12.51138000      12.51585000      15.38973000  T      -0.00172100       0.00706300      -0.05027600
Cu       2.50493000       0.00759000      15.38645000  T       0.00288100       0.00578000      -0.05266500
Cu       4.99899000      12.47676000      15.37299000  T       0.00398800      -0.00656700      -0.03165000
Cu       7.50409000      12.49316000      15.36621000  T      -0.00077700      -0.00689000      -0.03389300
Cu      10.01180000      12.49596000      15.37568000  T      -0.00282700      -0.00630400      -0.03970200
Cu       0.05734000       2.49923000      15.36290000  T       0.00774000       0.00592600      -0.03065200
Cu       2.52006000       2.45995000      15.36164000  T      -0.00394600       0.00415700      -0.03112000
Cu       4.99828000       2.41018000      15.48245000  T       0.01174200       0.00851600      -0.01518600
Cu       7.55140000       2.50503000      15.48652000  T      -0.01214100       0.02782100      -0.01214700
Cu      10.10215000       2.45505000      15.45624000  T      -0.00072300       0.00189800      -0.02301400
Cu      12.48530000       4.99538000      15.33156000  T       0.00260100       0.00046700      -0.04178800
Cu       2.44015000       4.92703000      15.46922000  T      -0.01119100       0.00512500      -0.00324200
Pd       5.05963000       4.99317000      15.46183000  T       0.01306500      -0.00065900      -0.01758600
Y        7.49428000       4.99525000      17.26028000  T       0.01649300      -0.00599000      -0.03426100
Cu       9.99028000       5.00495000      15.45530000  T      -0.02573900       0.00210300      -0.01223100
Cu       0.02870000       7.50826000      15.35636000  T       0.00312900      -0.00578500      -0.02739400
Cu       2.50464000       7.58907000      15.48769000  T      -0.00383600      -0.00213700      -0.01351700
Cu       5.01798000       7.58871000      15.46651000  T       0.01880000      -0.01663700      -0.01405200
Cu       7.55074000       7.50076000      15.48954000  T      -0.01239600      -0.02252200      -0.00827700
Cu      10.08589000       7.56329000      15.45559000  T      -0.00870800      -0.00582100      -0.01960800
Cu      12.51331000      10.00330000      15.38551000  T      -0.00251100      -0.00303200      -0.04962100
Cu       2.50721000      10.05808000      15.39104000  T       0.00491100      -0.00111100      -0.04232200
Cu       5.00489000      10.03693000      15.36534000  T       0.00455300      -0.00006300      -0.02972600
Cu       7.50588000      10.02797000      15.36476000  T      -0.00052100      -0.00148200      -0.03390900
Cu      10.01347000      10.03425000      15.37238000  T      -0.00530700       0.00289700      -0.03782800
O        6.14344000       3.39595000      16.69120000  T      -0.04233400       0.00298800       0.00042300
O        6.14391000       6.58063000      16.68478000  T      -0.04421900      -0.00569200       0.00662600
O        8.99288000       6.42268000      16.54941000  T       0.01172200       0.02613500       0.01075200
O        8.99411000       3.57262000      16.55249000  T       0.00878800      -0.03161700       0.00921600
C        2.71029000       6.85258000      17.26911000  T      -0.03341400       0.01347200       0.01116100
O        2.82627000       7.60821000      18.37709000  T      -0.00201200       0.04074900       0.01029900
O        2.75135000       5.59969000      17.41915000  T      -0.08026500       0.00009800      -0.01454600
H        2.93753000       6.98932000      19.14158000  T      -0.01713800       0.01943600      -0.01074300
108
Lattice="12.515153631 0.0 0.0 0.0 12.515153631 0.0 0.0 0.0 25.30973" Properties=species:S:1:pos:R:3:move_mask:L:1:forces:R:3 stress="0.008459604156021398 3.902815656414802e-05 0.0002468017538556758 3.902815656414802e-05 0.008101235426540558 -0.00011298379819673874 0.0002468017538556758 -0.00011298379819673874 0.002784568156894179" free_energy=-445.29367644 energy=-445.29417406 pbc="T T T"
Cu       1.25152000       1.25152000      10.00000000  F       0.00669500      -0.00256500      -0.06210900
Cu       3.75455000       1.25152000      10.00000000  F       0.00436100       0.00798900      -0.06685800
Cu       6.25758000       1.25152000      10.00000000  F      -0.00118800       0.01547300      -0.05756300
Cu       8.76061000       1.25152000      10.00000000  F       0.01076700       0.01094200      -0.05922500
Cu      11.26364000       1.25152000      10.00000000  F      -0.02086200       0.00236300      -0.06016800
Cu       1.25152000       3.75455000      10.00000000  F       0.00606800       0.01557300      -0.06701400
Cu       3.75455000       3.75455000      10.00000000  F       0.00322200      -0.00982800      -0.05470600
Cu       6.25758000       3.75455000      10.00000000  F      -0.00846400      -0.02989300      -0.07512500
Cu       8.76061000       3.75455000      10.00000000  F       0.01177800      -0.02694600      -0.07992800
Cu      11.26364000       3.75455000      10.00000000  F      -0.01046000      -0.00471500      -0.05962000
Cu       1.25152000       6.25758000      10.00000000  F      -0.00032100      -0.01263400      -0.05576500
Cu       3.75455000       6.25758000      10.00000000  F       0.00944500       0.01156300      -0.04358200
Cu       6.25758000       6.25758000      10.00000000  F      -0.01949700       0.02425200      -0.07161900
Cu       8.76061000       6.25758000      10.00000000  F       0.01390600       0.01997500      -0.08540200
Cu      11.26364000       6.25758000      10.00000000  F      -0.00142900      -0.00444300      -0.05135800
Cu       1.25152000       8.76061000      10.00000000  F       0.00131200       0.02259400      -0.06178700
Cu       3.75455000       8.76061000      10.00000000  F      -0.00095400       0.00148500      -0.06039400
Cu       6.25758000       8.76061000      10.00000000  F      -0.00822700      -0.01766900      -0.05787900
Cu       8.76061000       8.76061000      10.00000000  F       0.00434300      -0.01770700      -0.03820600
Cu      11.26364000       8.76061000      10.00000000  F       0.00528900       0.00470100      -0.06901300
Cu       1.25152000      11.26364000      10.00000000  F       0.00474400      -0.02270800      -0.02785500
Cu       3.75455000      11.26364000      10.00000000  F      -0.01086600      -0.01142900      -0.07475500
Cu       6.25758000      11.26364000      10.00000000  F      -0.00176600       0.00678000      -0.06993100
Cu       8.76061000      11.26364000      10.00000000  F       0.00439400       0.01142200      -0.05822600
Cu      11.26364000      11.26364000      10.00000000  F       0.00282500       0.00186900      -0.06126900
Cu       0.00000000       0.00000000      11.76991000  F      -0.02778800       0.03583100       0.10922700
Cu       2.50303000       0.00000000      11.76991000  F       0.03288700       0.00931800       0.09809100
Cu       5.00606000       0.00000000      11.76991000  F       0.06032400       0.07790700       0.08933000
Cu       7.50909000       0.00000000      11.76991000  F       0.01288300       0.07464300       0.09987000
Cu      10.01212000       0.00000000      11.76991000  F      -0.03599800       0.09441200       0.11634100
Cu       0.00000000       2.50303000      11.76991000  F      -0.02760300       0.05394800       0.14410400
Cu       2.50303000       2.50303000      11.76991000  F       0.07094000       0.02464800       0.08289900
Cu       5.00606000       2.50303000      11.76991000  F      -0.02697900      -0.04476700       0.08306900
Cu       7.50909000       2.50303000      11.76991000  F       0.00285200      -0.04792800       0.08891700
Cu      10.01212000       2.50303000      11.76991000  F       0.04181300      -0.07049700       0.05926100
Cu       0.00000000       5.00606000      11.76991000  F      -0.02605800       0.01783300       0.10760200
Cu       2.50303000       5.00606000      11.76991000  F       0.09266800       0.02479300       0.10743300
Cu       5.00606000       5.00606000      11.76991000  F      -0.07398400       0.01004000       0.15254200
Cu       7.50909000       5.00606000      11.76991000  F      -0.01028900       0.00106200       0.08903000
Cu      10.01212000       5.00606000      11.76991000  F       0.04470100       0.00619100       0.07636800
Cu       0.00000000       7.50909000      11.76991000  F      -0.04061300      -0.05907800       0.13543300
Cu       2.50303000       7.50909000      11.76991000  F       0.07814200      -0.05571400       0.13280700
Cu       5.00606000       7.50909000      11.76991000  F      -0.04317400       0.04592900       0.08932700
Cu       7.50909000       7.50909000      11.76991000  F      -0.00681800       0.04055500       0.08588200
Cu      10.01212000       7.50909000      11.76991000  F       0.06223200       0.05951700       0.07429900
Cu       0.00000000      10.01212000      11.76991000  F       0.00563600      -0.06202500       0.10333400
Cu       2.50303000      10.01212000      11.76991000  F       0.02656100      -0.01992100       0.06521200
Cu       5.00606000      10.01212000      11.76991000  F       0.02568500      -0.10617400       0.10132500
Cu       7.50909000      10.01212000      11.76991000  F       0.02739100      -0.07277300       0.10949700
Cu      10.01212000      10.01212000      11.76991000  F      -0.05179500      -0.09086900       0.12769500
Cu       1.25817000       1.23993000      13.57699000  T       0.00142700       0.00596300      -0.02540400
Cu       3.78557000       1.25576000      13.60163000  T       0.00272000       0.00305800      -0.02275400
Cu       6.28236000       1.27211000      13.62275000  T      -0.00083300       0.00125700      -0.01743400
Cu       8.75860000       1.28057000      13.62164000  T       0.00020600       0.00077900      -0.02097900
Cu      11.25852000       1.25981000      13.60911000  T      -0.00044400       0.00390800      -0.02497800
Cu       1.27006000       3.76690000      13.59034000  T       0.00088600       0.00165800      -0.02304300
Cu       3.76413000       3.75354000      13.61489000  T       0.00257600       0.00472000      -0.00948500
Cu       6.28200000       3.75092000      13.56304000  T      -0.00400200      -0.00121600      -0.00739400
Cu       8.75159000       3.76457000      13.56465000  T      -0.00150800      -0.00142400      -0.00648700
Cu      11.23632000       3.75608000      13.60437000  T      -0.00251100      -0.00295900      -0.02198500
Cu       1.27588000       6.25940000      13.60193000  T       0.00323300       0.00177800      -0.01811500
Cu       3.75503000       6.26477000      13.63022000  T       0.00024000      -0.00139500      -0.00597800
Cu       6.27836000       6.25685000      13.56304000  T      -0.00379000       0.00063000      -0.00650600
Cu       8.75189000       6.24678000      13.56253000  T      -0.00197200       0.00120200      -0.00555100
Cu      11.24092000       6.24985000      13.60988000  T      -0.00357200       0.00396900      -0.02152700
Cu       1.27648000       8.75734000      13.59319000  T       0.00446100      -0.00367900      -0.01990500
Cu       3.76619000       8.74195000      13.61608000  T      -0.00080200      -0.00503300      -0.01713000
Cu       6.27671000       8.73729000      13.61868000  T      -0.00179900      -0.00385100      -0.02028400
Cu       8.75668000       8.73284000      13.62195000  T       0.00138900      -0.00298100      -0.02423400
Cu      11.26099000       8.75248000      13.60554000  T      -0.00243400      -0.00282500      -0.02309800
Cu       1.24575000      11.25793000      13.60058000  T       0.00404300      -0.00105800      -0.02644100
Cu       3.74387000      11.25867000      13.57742000  T       0.00474700      -0.00095100      -0.02268500
Cu       6.25515000      11.26437000      13.57282000  T      -0.00039400      -0.00123400      -0.02135600
Cu       8.76163000      11.26475000      13.58038000  T      -0.00023300      -0.00007400      -0.02247200
Cu      11.26986000      11.26512000      13.58417000  T      -0.00421000      -0.00104500      -0.02412300
Cu      12.51119000      12.51653000      15.38473000  T      -0.00049300       0.00468300      -0.03499500
Cu       2.50523000       0.00817000      15.38135000  T       0.00110300       0.00303400      -0.03863100
Cu       4.99940000      12.47628000      15.37001000  T       0.00180300      -0.00263700      -0.02536300
Cu       7.50399000      12.49264000      15.36298000  T       0.00072000      -0.00226700      -0.02632800
Cu      10.01149000      12.49556000      15.37197000  T      -0.00012100      -0.00439200      -0.03130300
Cu       0.05805000       2.49978000      15.35999000  T       0.00341100       0.00393200      -0.02489800
Cu       2.51973000       2.46034000      15.35867000  T       0.00021400       0.00329100      -0.02526000
Cu       4.99841000       2.40989000      15.48015000  T       0.01254100       0.01158600      -0.00891400
Cu       7.55095000       2.50621000      15.48385000  T      -0.01518100       0.03240500       0.00283800
Cu      10.10274000       2.45455000      15.45344000  T      -0.00581900       0.00608700      -0.01504600
Cu      12.48535000       4.99541000      15.32745000  T      -0.00132400       0.00061600      -0.03049500
Cu       2.43872000       4.92715000      15.46827000  T      -0.00211500       0.00721900      -0.00017200
Pd       5.06056000       4.99313000      15.45999000  T       0.00546900      -0.00172400      -0.00687600
Y        7.49529000       4.99505000      17.25898000  T       0.00821300      -0.00544400      -0.04711600
Cu       9.98976000       5.00512000      15.45236000  T      -0.03719900       0.00054800       0.00699600
Cu       0.02904000       7.50771000      15.35371000  T      -0.00098200      -0.00277300      -0.02152600
Cu       2.50422000       7.58879000      15.48640000  T       0.00189600      -0.00024300      -0.00633600
Cu       5.01875000       7.58839000      15.46419000  T       0.01628700      -0.01868900      -0.00656300
Cu       7.55031000       7.50017000      15.48721000  T      -0.01620500      -0.03214300       0.00847000
Cu      10.08577000       7.56358000      15.45305000  T      -0.01074200      -0.00859200      -0.01377700
Cu      12.51305000      10.00294000      15.38063000  T      -0.00079900       0.00004700      -0.03537100
Cu       2.50775000      10.05806000      15.38694000  T       0.00190300      -0.00162400      -0.03110100
Cu       5.00530000      10.03678000      15.36248000  T       0.00315400      -0.00269300      -0.02320800
Cu       7.50588000      10.02760000      15.36144000  T      -0.00043300      -0.00164100      -0.02519900
Cu      10.01288000      10.03429000      15.36884000  T      -0.00146900       0.00220100      -0.03009800
O        6.13854000       3.39633000      16.69294000  T      -0.01637200       0.00870300      -0.01436000
O        6.13906000       6.57978000      16.68717000  T      -0.01774000      -0.00982800      -0.00915500
O        8.99429000       6.42597000      16.55179000  T      -0.00213200       0.00584900      -0.00234800
O        8.99569000       3.56857000      16.55453000  T      -0.00623200      -0.01002400      -0.00332700
C        2.70740000       6.85400000      17.26957000  T      -0.03661300       0.02012700      -0.00007500
O        2.82601000       7.61060000      18.37734000  T      -0.00360400       0.01108700      -0.01163000
O        2.74439000       5.60085000      17.41900000  T      -0.08113300       0.01866000      -0.00558200
H        2.93613000       6.99092000      19.14128000  T      -0.01616200       0.02211200      -0.00343800
108
Lattice="12.515153631 0.0 0.0 0.0 12.515153631 0.0 0.0 0.0 25.30973" Properties=species:S:1:pos:R:3:move_mask:L:1:forces:R:3 stress="0.008403617819162226 4.101295646617889e-05 0.000245079097336932 4.101295646617889e-05 0.008041366871005087 -0.00010925137573946056 0.000245079097336932 -0.00010925137573946056 0.0026785998149549337" free_energy=-445.29738205 energy=-445.29793 pbc="T T T"
Cu       1.25152000       1.25152000      10.00000000  F       0.00662700      -0.00255300      -0.06234900
Cu       3.75455000       1.25152000      10.00000000  F       0.00439400       0.00786900      -0.06714900
Cu       6.25758000       1.25152000      10.00000000  F      -0.00125200       0.01531200      -0.05784400
Cu       8.76061000       1.25152000      10.00000000  F       0.01060300       0.01091600      -0.05949000
Cu      11.26364000       1.25152000      10.00000000  F      -0.02096200       0.00231700      -0.06034200
Cu       1.25152000       3.75455000      10.00000000  F       0.00596100       0.01553100      -0.06714600
Cu       3.75455000       3.75455000      10.00000000  F       0.00314100      -0.00987300      -0.05501100
Cu       6.25758000       3.75455000      10.00000000  F      -0.00853300      -0.02996600      -0.07521000
Cu       8.76061000       3.75455000      10.00000000  F       0.01174100      -0.02706600      -0.07985700
Cu      11.26364000       3.75455000      10.00000000  F      -0.01051600      -0.00469800      -0.05965500
Cu       1.25152000       6.25758000      10.00000000  F      -0.00047300      -0.01248300      -0.05579400
Cu       3.75455000       6.25758000      10.00000000  F       0.00939300       0.01167900      -0.04372000
Cu       6.25758000       6.25758000      10.00000000  F      -0.01957400       0.02441200      -0.07157400
Cu       8.76061000       6.25758000      10.00000000  F       0.01386500       0.02012100      -0.08525800
Cu      11.26364000       6.25758000      10.00000000  F      -0.00146300      -0.00437000      -0.05118000
Cu       1.25152000       8.76061000      10.00000000  F       0.00121700       0.02253000      -0.06175800
Cu       3.75455000       8.76061000      10.00000000  F      -0.00094000       0.00157000      -0.06049700
Cu       6.25758000       8.76061000      10.00000000  F      -0.00823000      -0.01748800      -0.05805800
Cu       8.76061000       8.76061000      10.00000000  F       0.00412600      -0.01758600      -0.03830600
Cu      11.26364000       8.76061000      10.00000000  F       0.00521700       0.00476300      -0.06890000
Cu       1.25152000      11.26364000      10.00000000  F       0.00458100      -0.02277500      -0.02796500
Cu       3.75455000      11.26364000      10.00000000  F      -0.01075800      -0.01148600      -0.07480000
Cu       6.25758000      11.26364000      10.00000000  F      -0.00180400       0.00666600      -0.07016600
Cu       8.76061000      11.26364000      10.00000000  F       0.00418600       0.01129900      -0.05825600
Cu      11.26364000      11.26364000      10.00000000  F       0.00272300       0.00174500      -0.06120300
Cu       0.00000000       0.00000000      11.76991000  F      -0.02749600       0.03565900       0.09806200
Cu       2.50303000       0.00000000      11.76991000  F       0.03341900       0.00901500       0.08817300
Cu       5.00606000       0.00000000      11.76991000  F       0.06109500       0.07785700       0.08075700
Cu       7.50909000       0.00000000      11.76991000  F       0.01223800       0.07515400       0.09203600
Cu      10.01212000       0.00000000      11.76991000  F      -0.03647700       0.09423100       0.10657400
Cu       0.00000000       2.50303000      11.76991000  F      -0.02747300       0.05526100       0.13419000
Cu       2.50303000       2.50303000      11.76991000  F       0.07177800       0.02586200       0.07386700
Cu       5.00606000       2.50303000      11.76991000  F      -0.02695800      -0.04389600       0.07550700
Cu       7.50909000       2.50303000      11.76991000  F       0.00260500      -0.04814000       0.08139000
Cu      10.01212000       2.50303000      11.76991000  F       0.04068600      -0.06991800       0.04990000
Cu       0.00000000       5.00606000      11.76991000  F      -0.02680400       0.01871600       0.10139000
Cu       2.50303000       5.00606000      11.76991000  F       0.09378100       0.02561400       0.10007700
Cu       5.00606000       5.00606000      11.76991000  F      -0.07514100       0.01056100       0.14684500
Cu       7.50909000       5.00606000      11.76991000  F      -0.01044700       0.00130500       0.08244400
Cu      10.01212000       5.00606000      11.76991000  F       0.04389500       0.00669400       0.06958000
Cu       0.00000000       7.50909000      11.76991000  F      -0.04016000      -0.05956600       0.12755300
Cu       2.50303000       7.50909000      11.76991000  F       0.07874700      -0.05625400       0.12469700
Cu       5.00606000       7.50909000      11.76991000  F      -0.04394900       0.04507100       0.08222700
Cu       7.50909000       7.50909000      11.76991000  F      -0.00690000       0.04008600       0.07779100
Cu      10.01212000       7.50909000      11.76991000  F       0.06126500       0.05864000       0.06578300
Cu       0.00000000      10.01212000      11.76991000  F       0.00598100      -0.06303900       0.09352800
Cu       2.50303000      10.01212000      11.76991000  F       0.02714900      -0.02080500       0.05633100
Cu       5.00606000      10.01212000      11.76991000  F       0.02547900      -0.10715100       0.09319700
Cu       7.50909000      10.01212000      11.76991000  F       0.02680600      -0.07341600       0.10099000
Cu      10.01212000      10.01212000      11.76991000  F      -0.05181900      -0.09090300       0.11821500
Cu       1.25818000       1.24016000      13.57484000  T       0.00171500       0.00714300      -0.02338900
Cu       3.78543000       1.25579000      13.59923000  T       0.00629000       0.00603700      -0.01552400
Cu       6.28220000       1.27204000      13.62117000  T       0.00079900       0.00345500      -0.01374500
Cu       8.75881000       1.28030000      13.61951000  T      -0.00341700       0.00542500      -0.01325000
Cu      11.25891000       1.25981000      13.60639000  T      -0.00475600       0.00638700      -0.01674600
Cu       1.27019000       3.76695000      13.58830000  T       0.00131000       0.00384400      -0.01875700
Cu       3.76382000       3.75378000      13.61372000  T       0.00503500       0.00609200      -0.00574400
Cu       6.28171000       3.75080000      13.56146000  T      -0.00256900      -0.00054700      -0.00252400
Cu       8.75146000       3.76443000      13.56320000  T      -0.00226700      -0.00054200      -0.00036400
Cu      11.23608000       3.75569000      13.60247000  T      -0.00422700       0.00130300      -0.01671100
Cu       1.27621000       6.25972000      13.60031000  T       0.00231200      -0.00000200      -0.01504100
Cu       3.75462000       6.26473000      13.62923000  T       0.00284500      -0.00171100      -0.00156900
Cu       6.27813000       6.25698000      13.56152000  T      -0.00291600      -0.00069600      -0.00154400
Cu       8.75160000       6.24684000      13.56134000  T      -0.00210000       0.00072400      -0.00090200
Cu      11.24063000       6.25027000      13.60810000  T      -0.00521700       0.00052900      -0.01675300
Cu       1.27667000       8.75725000      13.59157000  T       0.00407600      -0.00542100      -0.01860800
Cu       3.76604000       8.74177000      13.61419000  T       0.00168700      -0.00808500      -0.01040700
Cu       6.27654000       8.73717000      13.61687000  T      -0.00069400      -0.00602700      -0.01572800
Cu       8.75667000       8.73304000      13.61962000  T      -0.00077100      -0.00793200      -0.01592300
Cu      11.26111000       8.75254000      13.60321000  T      -0.00500100      -0.00572100      -0.01689800
Cu       1.24581000      11.25795000      13.59810000  T       0.00457300      -0.00127300      -0.02278400
Cu       3.74394000      11.25863000      13.57565000  T       0.00706100      -0.00171300      -0.02199700
Cu       6.25505000      11.26418000      13.57097000  T       0.00091500      -0.00054100      -0.01916100
Cu       8.76175000      11.26475000      13.57833000  T      -0.00257600      -0.00057900      -0.02004600
Cu      11.27008000      11.26522000      13.58211000  T      -0.00665800      -0.00207800      -0.02277600
Cu      12.51104000      12.51717000      15.38001000  T       0.00033100       0.00245400      -0.02347700
Cu       2.50548000       0.00867000      15.37645000  T      -0.00039500       0.00035600      -0.02611300
Cu       4.99974000      12.47589000      15.36703000  T       0.00004600       0.00082900      -0.01929300
Cu       7.50396000      12.49224000      15.35980000  T       0.00192600       0.00267900      -0.01951600
Cu      10.01129000      12.49515000      15.36827000  T       0.00150700      -0.00159500      -0.02372400
Cu       0.05862000       2.50030000      15.35706000  T      -0.00101300       0.00227900      -0.01998000
Cu       2.51955000       2.46073000      15.35569000  T       0.00350300       0.00268300      -0.01945300
Cu       4.99885000       2.41002000      15.47817000  T       0.00598700       0.00655300      -0.00862300
Cu       7.55009000       2.50815000      15.48208000  T      -0.01315700       0.02515600       0.00622300
Cu      10.10294000       2.45441000      15.45094000  T      -0.00871200       0.00698100      -0.00989400
Cu      12.48527000       4.99545000      15.32352000  T      -0.00752500       0.00069800      -0.02100400
Cu       2.43767000       4.92748000      15.46757000  T       0.00273200       0.00692700       0.00034800
Pd       5.06133000       4.99304000      15.45841000  T      -0.00376100      -0.00120900      -0.00252100
Y        7.49618000       4.99474000      17.25644000  T       0.00170800      -0.00373500      -0.03794600
Cu       9.98807000       5.00523000      15.45057000  T      -0.03473400      -0.00097100       0.01258900
Cu       0.02919000       7.50725000      15.35108000  T      -0.00462300       0.00009000      -0.01703600
Cu       2.50403000       7.58861000      15.48530000  T       0.00484400       0.00429100      -0.00593000
Cu       5.01976000       7.58759000      15.46227000  T       0.00760400      -0.01224400      -0.00581700
Cu       7.54944000       7.49863000      15.48589000  T      -0.01422100      -0.02895600       0.01236400
Cu      10.08532000       7.56352000      15.45075000  T      -0.01042400      -0.00739000      -0.01114000
Cu      12.51285000      10.00272000      15.37600000  T       0.00014500       0.00236000      -0.02379400
Cu       2.50818000      10.05799000      15.38299000  T      -0.00073800      -0.00097100      -0.02145500
Cu       5.00569000      10.03654000      15.35966000  T       0.00162200      -0.00506100      -0.01760300
Cu       7.50586000      10.02725000      15.35823000  T      -0.00002100      -0.00369400      -0.01852100
Cu      10.01244000      10.03437000      15.36531000  T       0.00098800       0.00024100      -0.02299000
O        6.13480000       3.39695000      16.69363000  T       0.00821300       0.00816000      -0.02250600
O        6.13532000       6.57879000      16.68849000  T       0.00731900      -0.00877900      -0.01865000
O        8.99507000       6.42830000      16.55331000  T      -0.00997100      -0.00874900      -0.01552600
O        8.99646000       3.56555000      16.55577000  T      -0.01377700       0.00629300      -0.01568500
C        2.70404000       6.85575000      17.26970000  T      -0.03743000       0.01784500      -0.01069900
O        2.82569000       7.61242000      18.37699000  T      -0.00544700       0.00716200      -0.01585600
O        2.73667000       5.60250000      17.41886000  T      -0.07705500       0.01833700      -0.00008200
H        2.93457000       6.99284000      19.14106000  T      -0.01548800       0.01989000       0.00058500
108
Lattice="12.515153631 0.0 0.0 0.0 12.515153631 0.0 0.0 0.0 25.30973" Properties=species:S:1:pos:R:3:move_mask:L:1:forces:R:3 stress="0.008305819612668762 3.934023202044218e-05 0.00023888752028405582 3.934023202044218e-05 0.00793425009138668 -0.0001119913982457233 0.00023888752028405582 -0.0001119913982457233 0.0025190293926426015" free_energy=-445.29916049 energy=-445.29974227 pbc="T T T"
Cu       1.25152000       1.25152000      10.00000000  F       0.00667400      -0.00242100      -0.06205400
Cu       3.75455000       1.25152000      10.00000000  F       0.00475500       0.00797900      -0.06665800
Cu       6.25758000       1.25152000      10.00000000  F      -0.00105500       0.01540200      -0.05711200
Cu       8.76061000       1.25152000      10.00000000  F       0.01039600       0.01099200      -0.05869600
Cu      11.26364000       1.25152000      10.00000000  F      -0.02121900       0.00234700      -0.05976800
Cu       1.25152000       3.75455000      10.00000000  F       0.00606500       0.01550400      -0.06695600
Cu       3.75455000       3.75455000      10.00000000  F       0.00346400      -0.00989600      -0.05457900
Cu       6.25758000       3.75455000      10.00000000  F      -0.00835100      -0.02995400      -0.07427300
Cu       8.76061000       3.75455000      10.00000000  F       0.01150300      -0.02711800      -0.07893000
Cu      11.26364000       3.75455000      10.00000000  F      -0.01075300      -0.00469800      -0.05923700
Cu       1.25152000       6.25758000      10.00000000  F      -0.00037000      -0.01258500      -0.05578000
Cu       3.75455000       6.25758000      10.00000000  F       0.00974800       0.01155600      -0.04341800
Cu       6.25758000       6.25758000      10.00000000  F      -0.01940700       0.02425000      -0.07076200
Cu       8.76061000       6.25758000      10.00000000  F       0.01363500       0.02000600      -0.08446700
Cu      11.26364000       6.25758000      10.00000000  F      -0.00172600      -0.00450100      -0.05088500
Cu       1.25152000       8.76061000      10.00000000  F       0.00126400       0.02232600      -0.06165400
Cu       3.75455000       8.76061000      10.00000000  F      -0.00059400       0.00136300      -0.06031700
Cu       6.25758000       8.76061000      10.00000000  F      -0.00797500      -0.01762400      -0.05759600
Cu       8.76061000       8.76061000      10.00000000  F       0.00391300      -0.01765600      -0.03774800
Cu      11.26364000       8.76061000      10.00000000  F       0.00491400       0.00469900      -0.06862000
Cu       1.25152000      11.26364000      10.00000000  F       0.00448400      -0.02273900      -0.02769000
Cu       3.75455000      11.26364000      10.00000000  F      -0.01033100      -0.01140900      -0.07452900
Cu       6.25758000      11.26364000      10.00000000  F      -0.00154000       0.00668900      -0.06959600
Cu       8.76061000      11.26364000      10.00000000  F       0.00399500       0.01129100      -0.05750700
Cu      11.26364000      11.26364000      10.00000000  F       0.00244700       0.00174700      -0.06063800
Cu       0.00000000       0.00000000      11.76991000  F      -0.02785200       0.03601000       0.09024200
Cu       2.50303000       0.00000000      11.76991000  F       0.03442500       0.00937600       0.08100600
Cu       5.00606000       0.00000000      11.76991000  F       0.06233400       0.07866200       0.07445000
Cu       7.50909000       0.00000000      11.76991000  F       0.01202900       0.07636100       0.08639800
Cu      10.01212000       0.00000000      11.76991000  F      -0.03743500       0.09483800       0.09947300
Cu       0.00000000       2.50303000      11.76991000  F      -0.02798000       0.05629100       0.12699800
Cu       2.50303000       2.50303000      11.76991000  F       0.07352900       0.02725200       0.06769000
Cu       5.00606000       2.50303000      11.76991000  F      -0.02613100      -0.04241600       0.07084500
Cu       7.50909000       2.50303000      11.76991000  F       0.00242200      -0.04736400       0.07693900
Cu      10.01212000       2.50303000      11.76991000  F       0.03896600      -0.06914100       0.04358600
Cu       0.00000000       5.00606000      11.76991000  F      -0.02758000       0.01918600       0.09680200
Cu       2.50303000       5.00606000      11.76991000  F       0.09577300       0.02609500       0.09536400
Cu       5.00606000       5.00606000      11.76991000  F      -0.07493000       0.01079100       0.14413600
Cu       7.50909000       5.00606000      11.76991000  F      -0.01079600       0.00119900       0.07967700
Cu      10.01212000       5.00606000      11.76991000  F       0.04192100       0.00674500       0.06533000
Cu       0.00000000       7.50909000      11.76991000  F      -0.04028900      -0.06015300       0.12180400
Cu       2.50303000       7.50909000      11.76991000  F       0.08027100      -0.05738900       0.11908800
Cu       5.00606000       7.50909000      11.76991000  F      -0.04375000       0.04343600       0.07802700
Cu       7.50909000       7.50909000      11.76991000  F      -0.00710000       0.03867400       0.07301800
Cu      10.01212000       7.50909000      11.76991000  F       0.05970600       0.05743700       0.05970100
Cu       0.00000000      10.01212000      11.76991000  F       0.00585100      -0.06403000       0.08652200
Cu       2.50303000      10.01212000      11.76991000  F       0.02819400      -0.02174600       0.04968300
Cu       5.00606000      10.01212000      11.76991000  F       0.02601400      -0.10858700       0.08739700
Cu       7.50909000      10.01212000      11.76991000  F       0.02663500      -0.07452500       0.09504800
Cu      10.01212000      10.01212000      11.76991000  F      -0.05261000      -0.09136900       0.11111300
Cu       1.25824000       1.24052000      13.57292000  T       0.00181500       0.00716000      -0.01918400
Cu       3.78557000       1.25602000      13.59743000  T       0.00808900       0.00756800      -0.01011300
Cu       6.28215000       1.27212000      13.61988000  T       0.00183100       0.00511400      -0.00960500
Cu       8.75881000       1.28033000      13.61794000  T      -0.00575600       0.00799900      -0.00702700
Cu      11.25896000       1.26002000      13.60438000  T      -0.00706800       0.00705300      -0.01067300
Cu       1.27031000       3.76711000      13.58660000  T       0.00222400       0.00506700      -0.01334400
Cu       3.76382000       3.75411000      13.61290000  T       0.00581800       0.00668500      -0.00277500
Cu       6.28148000       3.75072000      13.56051000  T      -0.00134000       0.00038200      -0.00003400
Cu       8.75131000       3.76434000      13.56240000  T      -0.00364700       0.00061700       0.00231800
Cu      11.23581000       3.75553000      13.60092000  T      -0.00622800       0.00396500      -0.01104000
Cu       1.27646000       6.25989000      13.59895000  T       0.00207500      -0.00133600      -0.01101500
Cu       3.75449000       6.26465000      13.62865000  T       0.00408300      -0.00223000       0.00149200
Cu       6.27792000       6.25702000      13.56064000  T      -0.00189000      -0.00239300       0.00117300
Cu       8.75137000       6.24689000      13.56066000  T      -0.00345800      -0.00062400       0.00133200
Cu      11.24029000       6.25050000      13.60661000  T      -0.00694800      -0.00235900      -0.01114200
Cu       1.27690000       8.75702000      13.59009000  T       0.00311300      -0.00582000      -0.01548100
Cu       3.76603000       8.74140000      13.61284000  T       0.00388100      -0.00944300      -0.00567400
Cu       6.27643000       8.73690000      13.61538000  T       0.00045900      -0.00761200      -0.01051600
Cu       8.75662000       8.73289000      13.61786000  T      -0.00340400      -0.01038000      -0.00863200
Cu      11.26102000       8.75238000      13.60141000  T      -0.00617900      -0.00690200      -0.01172000
Cu       1.24598000      11.25792000      13.59602000  T       0.00395600      -0.00084000      -0.01874700
Cu       3.74422000      11.25855000      13.57397000  T       0.00823500      -0.00187400      -0.01856600
Cu       6.25503000      11.26405000      13.56934000  T       0.00212100      -0.00023200      -0.01511600
Cu       8.76172000      11.26473000      13.57657000  T      -0.00438100      -0.00088600      -0.01633700
Cu      11.26999000      11.26521000      13.58025000  T      -0.00662100      -0.00180400      -0.01982100
Cu      12.51097000      12.51759000      15.37668000  T       0.00078000       0.00161600      -0.02048000
Cu       2.50559000       0.00895000      15.37294000  T      -0.00032600      -0.00032200      -0.02150700
Cu       4.99992000      12.47572000      15.36479000  T       0.00008700       0.00297000      -0.01737700
Cu       7.50401000      12.49213000      15.35744000  T       0.00203300       0.00609500      -0.01758000
Cu      10.01122000      12.49489000      15.36549000  T       0.00162400       0.00098800      -0.02134300
Cu       0.05889000       2.50065000      15.35482000  T      -0.00322700       0.00194700      -0.01873500
Cu       2.51957000       2.46103000      15.35345000  T       0.00582700       0.00338800      -0.01731100
Cu       4.99925000       2.41027000      15.47679000  T       0.00175500       0.00268900      -0.01031900
Cu       7.54922000       2.50997000      15.48129000  T      -0.01040700       0.01692300       0.00133900
Cu      10.10276000       2.45455000      15.44925000  T      -0.00909800       0.00586100      -0.00998000
Cu      12.48496000       4.99549000      15.32070000  T      -0.01205300       0.00053400      -0.01663400
Cu       2.43719000       4.92789000      15.46719000  T       0.00377000       0.00597300      -0.00040400
Pd       5.06160000       4.99295000      15.45746000  T      -0.00529900      -0.00174200      -0.00510000
Y        7.49670000       4.99446000      17.25389000  T      -0.00454100      -0.00184200      -0.01784800
Cu       9.98607000       5.00526000      15.44996000  T      -0.02695800      -0.00182000       0.00747900
Cu       0.02912000       7.50701000      15.34910000  T      -0.00636900       0.00134500      -0.01607400
Cu       2.50409000       7.58867000      15.48449000  T       0.00648300       0.00755400      -0.00994700
Cu       5.02052000       7.58680000      15.46102000  T       0.00167300      -0.00697100      -0.00760700
Cu       7.54852000       7.49689000      15.48554000  T      -0.01080100      -0.02166800       0.00722300
Cu      10.08475000       7.56326000      15.44912000  T      -0.00989600      -0.00571400      -0.01168400
Cu      12.51274000      10.00267000      15.37271000  T       0.00071600       0.00334500      -0.02012200
Cu       2.50839000      10.05793000      15.38015000  T      -0.00107500      -0.00032100      -0.01796000
Cu       5.00595000      10.03623000      15.35756000  T       0.00149000      -0.00669600      -0.01600200
Cu       7.50586000      10.02693000      15.35589000  T       0.00010700      -0.00620600      -0.01677100
Cu      10.01223000      10.03442000      15.36264000  T       0.00114300      -0.00186200      -0.02083000
O        6.13306000       3.39755000      16.69329000  T       0.01170500       0.00694600      -0.02483500
O        6.13356000       6.57797000      16.68862000  T       0.01206800      -0.00857400      -0.02054200
O        8.99517000       6.42928000      16.55362000  T      -0.01334800      -0.01155800      -0.01765800
O        8.99643000       3.56413000      16.55593000  T      -0.01548100       0.00827200      -0.01887300
C        2.70098000       6.85727000      17.26940000  T      -0.03626800       0.01034000      -0.01047700
O        2.82534000       7.61366000      18.37629000  T      -0.00320100       0.01579500      -0.00692200
O        2.72996000       5.60399000      17.41881000  T      -0.07237600       0.01526300      -0.00139600
H        2.93322000       6.99453000      19.14097000  T      -0.01687000       0.01939100      -0.00434600
108
Lattice="12.515153631 0.0 0.0 0.0 12.515153631 0.0 0.0 0.0 25.30973" Properties=species:S:1:pos:R:3:move_mask:L:1:forces:R:3 stress="0.008208526968414493 4.457061666793235e-05 0.00023119798104096766 4.457061666793235e-05 0.00783045379462324 -0.00010665490794309313 0.00023119798104096766 -0.00010665490794309313 0.0023555205780718385" free_energy=-445.30215941 energy=-445.30281307 pbc="T T T"
Cu       1.25152000       1.25152000      10.00000000  F       0.00702100      -0.00229700      -0.06334700
Cu       3.75455000       1.25152000      10.00000000  F       0.00451100       0.00776500      -0.06770100
Cu       6.25758000       1.25152000      10.00000000  F      -0.00139900       0.01522200      -0.05861400
Cu       8.76061000       1.25152000      10.00000000  F       0.01010600       0.01117800      -0.06065600
Cu      11.26364000       1.25152000      10.00000000  F      -0.02104200       0.00259000      -0.06156500
Cu       1.25152000       3.75455000      10.00000000  F       0.00614600       0.01558100      -0.06824900
Cu       3.75455000       3.75455000      10.00000000  F       0.00308600      -0.00993900      -0.05590700
Cu       6.25758000       3.75455000      10.00000000  F      -0.00866700      -0.03000500      -0.07579500
Cu       8.76061000       3.75455000      10.00000000  F       0.01147400      -0.02722700      -0.08065300
Cu      11.26364000       3.75455000      10.00000000  F      -0.01049900      -0.00460100      -0.06095600
Cu       1.25152000       6.25758000      10.00000000  F      -0.00028100      -0.01250500      -0.05685900
Cu       3.75455000       6.25758000      10.00000000  F       0.00936500       0.01171000      -0.04451300
Cu       6.25758000       6.25758000      10.00000000  F      -0.01980500       0.02432300      -0.07219600
Cu       8.76061000       6.25758000      10.00000000  F       0.01360500       0.01996700      -0.08626700
Cu      11.26364000       6.25758000      10.00000000  F      -0.00137900      -0.00455400      -0.05243000
Cu       1.25152000       8.76061000      10.00000000  F       0.00157400       0.02217800      -0.06255100
Cu       3.75455000       8.76061000      10.00000000  F      -0.00087300       0.00154100      -0.06116400
Cu       6.25758000       8.76061000      10.00000000  F      -0.00843600      -0.01738200      -0.05909800
Cu       8.76061000       8.76061000      10.00000000  F       0.00363500      -0.01767600      -0.03977900
Cu      11.26364000       8.76061000      10.00000000  F       0.00527100       0.00457500      -0.07024400
Cu       1.25152000      11.26364000      10.00000000  F       0.00472100      -0.02287800      -0.02865300
Cu       3.75455000      11.26364000      10.00000000  F      -0.01040600      -0.01151300      -0.07514500
Cu       6.25758000      11.26364000      10.00000000  F      -0.00205000       0.00658500      -0.07104200
Cu       8.76061000      11.26364000      10.00000000  F       0.00350600       0.01126400      -0.05931900
Cu      11.26364000      11.26364000      10.00000000  F       0.00278500       0.00157600      -0.06221800
Cu       0.00000000       0.00000000      11.76991000  F      -0.02746700       0.03660500       0.07440700
Cu       2.50303000       0.00000000      11.76991000  F       0.03639100       0.00964300       0.06555000
Cu       5.00606000       0.00000000      11.76991000  F       0.06323700       0.07977200       0.05969100
Cu       7.50909000       0.00000000      11.76991000  F       0.01095200       0.07849300       0.07293500
Cu      10.01212000       0.00000000      11.76991000  F      -0.03879100       0.09644800       0.08467600
Cu       0.00000000       2.50303000      11.76991000  F      -0.02839800       0.05882800       0.11189200
Cu       2.50303000       2.50303000      11.76991000  F       0.07641400       0.02994900       0.05350500
Cu       5.00606000       2.50303000      11.76991000  F      -0.02602400      -0.03997500       0.05824600
Cu       7.50909000       2.50303000      11.76991000  F       0.00187500      -0.04585400       0.06526300
Cu      10.01212000       2.50303000      11.76991000  F       0.03649900      -0.06735800       0.02957600
Cu       0.00000000       5.00606000      11.76991000  F      -0.02829900       0.02055300       0.08607900
Cu       2.50303000       5.00606000      11.76991000  F       0.09866300       0.02771800       0.08354900
Cu       5.00606000       5.00606000      11.76991000  F      -0.07613800       0.01183300       0.13518200
Cu       7.50909000       5.00606000      11.76991000  F      -0.01135100       0.00127200       0.07144900
Cu      10.01212000       5.00606000      11.76991000  F       0.03909500       0.00714700       0.05488700
Cu       0.00000000       7.50909000      11.76991000  F      -0.03947500      -0.06147300       0.10950300
Cu       2.50303000       7.50909000      11.76991000  F       0.08261500      -0.05912300       0.10613700
Cu       5.00606000       7.50909000      11.76991000  F      -0.04526500       0.04100400       0.06676900
Cu       7.50909000       7.50909000      11.76991000  F      -0.00792400       0.03616700       0.06080700
Cu      10.01212000       7.50909000      11.76991000  F       0.05777900       0.05503600       0.04594200
Cu       0.00000000      10.01212000      11.76991000  F       0.00676600      -0.06639900       0.07190300
Cu       2.50303000      10.01212000      11.76991000  F       0.03013900      -0.02398400       0.03538900
Cu       5.00606000      10.01212000      11.76991000  F       0.02542800      -0.11154500       0.07359100
Cu       7.50909000      10.01212000      11.76991000  F       0.02543900      -0.07687800       0.08122200
Cu      10.01212000      10.01212000      11.76991000  F      -0.05337300      -0.09299100       0.09616500
Cu       1.25838000       1.24131000      13.56920000  T       0.00146200       0.00480300      -0.00785800
Cu       3.78603000       1.25662000      13.59418000  T       0.00731200       0.00681100       0.00022300
Cu       6.28213000       1.27242000      13.61748000  T       0.00269700       0.00552200      -0.00245600
Cu       8.75860000       1.28067000      13.61520000  T      -0.00771000       0.01038100       0.00421100
Cu      11.25881000       1.26059000      13.60079000  T      -0.00833000       0.00668400       0.00189700
Cu       1.27059000       3.76755000      13.58345000  T       0.00241200       0.00633900      -0.00139200
Cu       3.76395000       3.75486000      13.61145000  T       0.00331900       0.00592700      -0.00033100
Cu       6.28108000       3.75062000      13.55891000  T       0.00102700       0.00221500       0.00216700
Cu       8.75094000       3.76423000      13.56112000  T      -0.00403000       0.00295400       0.00470300
Cu      11.23513000       3.75543000      13.59809000  T      -0.00728500       0.00799600       0.00030500
Cu       1.27692000       6.26013000      13.59641000  T       0.00014700      -0.00267800      -0.00206400
Cu       3.75437000       6.26446000      13.62773000  T       0.00248100      -0.00152000       0.00337900
Cu       6.27754000       6.25699000      13.55917000  T       0.00012200      -0.00463300       0.00302700
Cu       8.75086000       6.24692000      13.55955000  T      -0.00357000      -0.00300500       0.00316300
Cu      11.23950000       6.25076000      13.60389000  T      -0.00701800      -0.00645700       0.00030300
Cu       1.27734000       8.75648000      13.58721000  T       0.00054900      -0.00461400      -0.00780400
Cu       3.76614000       8.74050000      13.61045000  T       0.00440400      -0.00778400       0.00161700
Cu       6.27628000       8.73621000      13.61268000  T       0.00137700      -0.00751100      -0.00093400
Cu       8.75639000       8.73230000      13.61479000  T      -0.00647600      -0.01197800       0.00507800
Cu      11.26068000       8.75190000      13.59811000  T      -0.00509300      -0.00696200      -0.00076800
Cu       1.24636000      11.25785000      13.59204000  T       0.00223900      -0.00023800      -0.00736200
Cu       3.74491000      11.25837000      13.57068000  T       0.00681700      -0.00236200      -0.00927300
Cu       6.25508000      11.26383000      13.56625000  T       0.00243500       0.00010800      -0.00526200
Cu       8.76152000      11.26466000      13.57319000  T      -0.00570100      -0.00141700      -0.00655200
Cu      11.26968000      11.26515000      13.57660000  T      -0.00362600      -0.00135200      -0.01054700
Cu      12.51089000      12.51834000      15.37041000  T       0.00243200      -0.00149400      -0.00800300
Cu       2.50577000       0.00940000      15.36638000  T      -0.00157500      -0.00245400      -0.00623100
Cu       5.00023000      12.47553000      15.36048000  T      -0.00173700       0.00317000      -0.00870900
Cu       7.50416000      12.49217000      15.35292000  T       0.00246700       0.00905800      -0.00703900
Cu      10.01117000      12.49452000      15.36016000  T       0.00312400       0.00423100      -0.00903000
Cu       0.05922000       2.50130000      15.35045000  T      -0.00650900      -0.00039400      -0.01129000
Cu       2.51980000       2.46165000      15.34913000  T       0.00510000       0.00195600      -0.00866500
Cu       4.99983000       2.41062000      15.47404000  T      -0.00819500      -0.00575600      -0.00966400
Cu       7.54753000       2.51329000      15.47975000  T      -0.00186200      -0.00598600      -0.00700400
Cu      10.10225000       2.45488000      15.44602000  T      -0.00517200       0.00076600      -0.00729300
Cu      12.48397000       4.99558000      15.31547000  T      -0.01602300       0.00072800      -0.00297100
Cu       2.43643000       4.92871000      15.46647000  T       0.00085100       0.00298200      -0.00300800
Pd       5.06179000       4.99274000      15.45570000  T      -0.01315800      -0.00051000       0.00602800
Y        7.49732000       4.99397000      17.24961000  T      -0.01288500       0.00034300       0.01454300
Cu       9.98217000       5.00524000      15.44891000  T      -0.00374600      -0.00290100      -0.00211600
Cu       0.02879000       7.50666000      15.34523000  T      -0.00679700       0.00469900      -0.00972700
Cu       2.50436000       7.58907000      15.48270000  T       0.00362800       0.01221900      -0.01315400
Cu       5.02167000       7.58542000      15.45856000  T      -0.01099300       0.00498400      -0.00744400
Cu       7.54676000       7.49356000      15.48493000  T      -0.00149600      -0.00091300      -0.00288500
Cu      10.08353000       7.56274000      15.44595000  T      -0.00454500      -0.00048700      -0.00901000
Cu      12.51260000      10.00272000      15.36654000  T       0.00235500       0.00486500      -0.00629500
Cu       2.50869000      10.05784000      15.37481000  T      -0.00336800       0.00250400      -0.00606500
Cu       5.00642000      10.03550000      15.35351000  T      -0.00147100      -0.00566700      -0.00852900
Cu       7.50586000      10.02614000      15.35142000  T       0.00121400      -0.00691000      -0.00717600
Cu      10.01191000      10.03439000      15.35751000  T       0.00336300      -0.00392000      -0.00927900
O        6.13044000       3.39868000      16.69207000  T       0.01798000      -0.00062700      -0.02325400
O        6.13092000       6.57637000      16.68833000  T       0.01834800      -0.00133200      -0.02086900
O        8.99497000       6.43062000      16.55367000  T      -0.01052600      -0.01325400      -0.02076200
O        8.99602000       3.56189000      16.55563000  T      -0.01055600       0.01051400      -0.02225600
C        2.69474000       6.86009000      17.26866000  T      -0.03361700       0.00770100      -0.00341200
O        2.82467000       7.61640000      18.37505000  T      -0.00770800       0.02044800      -0.01530900
O        2.71650000       5.60684000      17.41865000  T      -0.07287300       0.00785300      -0.00188800
H        2.93036000       6.99797000      19.14055000  T      -0.01676500       0.01599300      -0.00909100
108
Lattice="12.515153631 0.0 0.0 0.0 12.515153631 0.0 0.0 0.0 25.30973" Properties=species:S:1:pos:R:3:move_mask:L:1:forces:R:3 stress="0.00820981896080355 4.226125829135554e-05 0.00023202186024558427 4.226125829135554e-05 0.007833811726532965 -0.00010786576071351448 0.00023202186024558427 -0.00010786576071351448 0.0023490980651813043" free_energy=-445.30127746 energy=-445.30193333 pbc="T T T"
Cu       1.25152000       1.25152000      10.00000000  F       0.00628900      -0.00244600      -0.06287700
Cu       3.75455000       1.25152000      10.00000000  F       0.00399600       0.00774800      -0.06773000
Cu       6.25758000       1.25152000      10.00000000  F      -0.00160400       0.01513900      -0.05860500
Cu       8.76061000       1.25152000      10.00000000  F       0.01003000       0.01092100      -0.06017900
Cu      11.26364000       1.25152000      10.00000000  F      -0.02133900       0.00232500      -0.06077700
Cu       1.25152000       3.75455000      10.00000000  F       0.00554700       0.01544900      -0.06792100
Cu       3.75455000       3.75455000      10.00000000  F       0.00260700      -0.01004500      -0.05590500
Cu       6.25758000       3.75455000      10.00000000  F      -0.00892700      -0.03004600      -0.07585000
Cu       8.76061000       3.75455000      10.00000000  F       0.01130600      -0.02727200      -0.08039300
Cu      11.26364000       3.75455000      10.00000000  F      -0.01080800      -0.00473800      -0.06045600
Cu       1.25152000       6.25758000      10.00000000  F      -0.00090400      -0.01241300      -0.05670100
Cu       3.75455000       6.25758000      10.00000000  F       0.00893800       0.01180400      -0.04460700
Cu       6.25758000       6.25758000      10.00000000  F      -0.02000300       0.02445800      -0.07224100
Cu       8.76061000       6.25758000      10.00000000  F       0.01343400       0.02019400      -0.08590000
Cu      11.26364000       6.25758000      10.00000000  F      -0.00177800      -0.00433900      -0.05197000
Cu       1.25152000       8.76061000      10.00000000  F       0.00081700       0.02245600      -0.06231500
Cu       3.75455000       8.76061000      10.00000000  F      -0.00130800       0.00165400      -0.06134500
Cu       6.25758000       8.76061000      10.00000000  F      -0.00854600      -0.01724600      -0.05903800
Cu       8.76061000       8.76061000      10.00000000  F       0.00358300      -0.01737400      -0.03915700
Cu      11.26364000       8.76061000      10.00000000  F       0.00479700       0.00492200      -0.06948700
Cu       1.25152000      11.26364000      10.00000000  F       0.00394500      -0.02274200      -0.02826600
Cu       3.75455000      11.26364000      10.00000000  F      -0.01095800      -0.01137300      -0.07528500
Cu       6.25758000      11.26364000      10.00000000  F      -0.00208400       0.00667000      -0.07099000
Cu       8.76061000      11.26364000      10.00000000  F       0.00350000       0.01127300      -0.05868500
Cu      11.26364000      11.26364000      10.00000000  F       0.00240400       0.00165100      -0.06135800
Cu       0.00000000       0.00000000      11.76991000  F      -0.02836100       0.03665400       0.07655600
Cu       2.50303000       0.00000000      11.76991000  F       0.03540100       0.00981300       0.06775500
Cu       5.00606000       0.00000000      11.76991000  F       0.06285800       0.07985500       0.06175100
Cu       7.50909000       0.00000000      11.76991000  F       0.01126100       0.07831800       0.07476000
Cu      10.01212000       0.00000000      11.76991000  F      -0.03891200       0.09633700       0.08673500
Cu       0.00000000       2.50303000      11.76991000  F      -0.02909200       0.05836500       0.11394500
Cu       2.50303000       2.50303000      11.76991000  F       0.07547800       0.02965200       0.05547600
Cu       5.00606000       2.50303000      11.76991000  F      -0.02646800      -0.04017500       0.05997700
Cu       7.50909000       2.50303000      11.76991000  F       0.00195500      -0.04597100       0.06680500
Cu      10.01212000       2.50303000      11.76991000  F       0.03656400      -0.06783000       0.03145100
Cu       0.00000000       5.00606000      11.76991000  F      -0.02882800       0.02034800       0.08734600
Cu       2.50303000       5.00606000      11.76991000  F       0.09778200       0.02749300       0.08504800
Cu       5.00606000       5.00606000      11.76991000  F      -0.07635900       0.01174600       0.13645400
Cu       7.50909000       5.00606000      11.76991000  F      -0.01137000       0.00133500       0.07258600
Cu      10.01212000       5.00606000      11.76991000  F       0.03890100       0.00718100       0.05602100
Cu       0.00000000       7.50909000      11.76991000  F      -0.04043900      -0.06109100       0.11109200
Cu       2.50303000       7.50909000      11.76991000  F       0.08176900      -0.05893100       0.10789700
Cu       5.00606000       7.50909000      11.76991000  F      -0.04532400       0.04125300       0.06830900
Cu       7.50909000       7.50909000      11.76991000  F      -0.00778900       0.03654000       0.06242000
Cu      10.01212000       7.50909000      11.76991000  F       0.05761600       0.05565800       0.04764100
Cu       0.00000000      10.01212000      11.76991000  F       0.00575800      -0.06596400       0.07378400
Cu       2.50303000      10.01212000      11.76991000  F       0.02916600      -0.02359600       0.03737300
Cu       5.00606000      10.01212000      11.76991000  F       0.02536100      -0.11130300       0.07553500
Cu       7.50909000      10.01212000      11.76991000  F       0.02578900      -0.07675800       0.08308900
Cu      10.01212000      10.01212000      11.76991000  F      -0.05366400      -0.09284900       0.09812200
Cu       1.25838000       1.24132000      13.56942000  T       0.00057200       0.00369100      -0.00756400
Cu       3.78610000       1.25668000      13.59450000  T       0.00463200       0.00474500      -0.00203300
Cu       6.28217000       1.27248000      13.61767000  T       0.00135400       0.00368100      -0.00339200
Cu       8.75850000       1.28081000      13.61552000  T      -0.00537000       0.00689600       0.00094000
Cu      11.25869000       1.26065000      13.60116000  T      -0.00609200       0.00450700      -0.00112500
Cu       1.27059000       3.76761000      13.58372000  T       0.00118100       0.00440400      -0.00267400
Cu       3.76399000       3.75489000      13.61160000  T       0.00173500       0.00434200      -0.00135700
Cu       6.28113000       3.75067000      13.55911000  T       0.00005100       0.00125900       0.00086300
Cu       8.75090000       3.76429000      13.56133000  T      -0.00351300       0.00192300       0.00262300
Cu      11.23508000       3.75556000      13.59836000  T      -0.00560800       0.00487100      -0.00201700
Cu       1.27688000       6.26006000      13.59662000  T      -0.00035000      -0.00165400      -0.00280900
Cu       3.75442000       6.26445000      13.62788000  T       0.00098600      -0.00101500       0.00167000
Cu       6.27757000       6.25692000      13.55938000  T      -0.00046100      -0.00316300       0.00154300
Cu       8.75085000       6.24687000      13.55972000  T      -0.00325000      -0.00192700       0.00162900
Cu      11.23946000       6.25064000      13.60415000  T      -0.00571400      -0.00365100      -0.00196500
Cu       1.27731000       8.75645000      13.58736000  T      -0.00011900      -0.00287400      -0.00736400
Cu       3.76619000       8.74046000      13.61071000  T       0.00249800      -0.00530500      -0.00079000
Cu       6.27631000       8.73616000      13.61292000  T       0.00064500      -0.00530000      -0.00255100
Cu       8.75632000       8.73217000      13.61516000  T      -0.00455400      -0.00819000       0.00138800
Cu      11.26063000       8.75183000      13.59841000  T      -0.00420900      -0.00447900      -0.00288200
Cu       1.24636000      11.25785000      13.59229000  T       0.00130700       0.00002400      -0.00761600
Cu       3.74495000      11.25835000      13.57084000  T       0.00473600      -0.00152100      -0.00835400
Cu       6.25512000      11.26386000      13.56646000  T       0.00178900       0.00003100      -0.00516300
Cu       8.76145000      11.26464000      13.57340000  T      -0.00398900      -0.00104900      -0.00627200
Cu      11.26964000      11.26514000      13.57678000  T      -0.00328900      -0.00090700      -0.00949100
Cu      12.51093000      12.51825000      15.37085000  T       0.00130200      -0.00049900      -0.01149100
Cu       2.50573000       0.00932000      15.36688000  T      -0.00129800      -0.00121400      -0.00992500
Cu       5.00018000      12.47560000      15.36074000  T      -0.00119800       0.00166100      -0.00963300
Cu       7.50418000      12.49231000      15.35322000  T       0.00161500       0.00580000      -0.00879800
Cu      10.01122000      12.49462000      15.36050000  T       0.00189900       0.00217800      -0.01130000
Cu       0.05908000       2.50124000      15.35067000  T      -0.00447800       0.00001200      -0.01183200
Cu       2.51986000       2.46164000      15.34939000  T       0.00300400       0.00184700      -0.00956900
Cu       4.99966000       2.41052000      15.47416000  T      -0.00478400      -0.00285800      -0.00781800
Cu       7.54764000       2.51292000      15.47981000  T      -0.00319100      -0.00140100      -0.00537000
Cu      10.10220000       2.45488000      15.44622000  T      -0.00511200       0.00127100      -0.00660600
Cu      12.48380000       4.99559000      15.31590000  T      -0.01183100       0.00064800      -0.00562400
Cu       2.43652000       4.92869000      15.46651000  T      -0.00079600       0.00292400      -0.00244900
Pd       5.06159000       4.99273000      15.45579000  T      -0.00607200      -0.00062300       0.00054200
Y        7.49711000       4.99399000      17.25016000  T      -0.00624100      -0.00271200       0.00113600
Cu       9.98243000       5.00519000      15.44902000  T      -0.00670000      -0.00200500      -0.00125800
Cu       0.02871000       7.50677000      15.34543000  T      -0.00532700       0.00344700      -0.01006300
Cu       2.50440000       7.58923000      15.48267000  T       0.00200800       0.00898500      -0.00999100
Cu       5.02140000       7.58561000      15.45869000  T      -0.00655900       0.00148900      -0.00575300
Cu       7.54688000       7.49382000      15.48498000  T      -0.00297500      -0.00349300      -0.00179800
Cu      10.08356000       7.56276000      15.44612000  T      -0.00526800      -0.00149600      -0.00780900
Cu      12.51264000      10.00279000      15.36700000  T       0.00113200       0.00390600      -0.00998600
Cu       2.50861000      10.05788000      15.37521000  T      -0.00253700       0.00212600      -0.00876600
Cu       5.00636000      10.03547000      15.35375000  T      -0.00093000      -0.00384900      -0.00919300
Cu       7.50588000      10.02610000      15.35172000  T       0.00063900      -0.00481400      -0.00876500
Cu      10.01199000      10.03433000      15.35783000  T       0.00183900      -0.00226800      -0.01139800
O        6.13103000       3.39856000      16.69183000  T       0.01380200      -0.00172100      -0.01993100
O        6.13152000       6.57652000      16.68803000  T       0.01452700      -0.00018600      -0.01777900
O        8.99481000       6.43024000      16.55332000  T      -0.00870700      -0.01048800      -0.01815200
O        8.99588000       3.56233000      16.55530000  T      -0.00877200       0.00879900      -0.01905900
C        2.69483000       6.85996000      17.26865000  T      -0.03207900       0.01078600      -0.00507100
O        2.82463000       7.61640000      18.37501000  T      -0.00766100       0.01614300      -0.01224100
O        2.71686000       5.60671000      17.41865000  T      -0.05845100       0.00894700      -0.00154900
H        2.93036000       6.99791000      19.14045000  T      -0.01775200       0.01660600      -0.00782800
108
Lattice="12.515153631 0.0 0.0 0.0 12.515153631 0.0 0.0 0.0 25.30973" Properties=species:S:1:pos:R:3:move_mask:L:1:forces:R:3 stress="0.00820692290056914 4.1705763979151935e-05 0.00023250245644827725 4.1705763979151935e-05 0.007830622315369639 -0.00010784079467701092 0.00023250245644827725 -0.00010784079467701092 0.002354128721536766" free_energy=-445.30307336 energy=-445.30373165 pbc="T T T"
Cu       1.25152000       1.25152000      10.00000000  F       0.00658700      -0.00239100      -0.06241500
Cu       3.75455000       1.25152000      10.00000000  F       0.00433600       0.00777900      -0.06726100
Cu       6.25758000       1.25152000      10.00000000  F      -0.00120600       0.01517700      -0.05804500
Cu       8.76061000       1.25152000      10.00000000  F       0.01038000       0.01098200      -0.05966200
Cu      11.26364000       1.25152000      10.00000000  F      -0.02102000       0.00240900      -0.06030000
Cu       1.25152000       3.75455000      10.00000000  F       0.00580700       0.01548900      -0.06737100
Cu       3.75455000       3.75455000      10.00000000  F       0.00293400      -0.01006300      -0.05541200
Cu       6.25758000       3.75455000      10.00000000  F      -0.00851500      -0.03006000      -0.07530900
Cu       8.76061000       3.75455000      10.00000000  F       0.01168800      -0.02726400      -0.07981300
Cu      11.26364000       3.75455000      10.00000000  F      -0.01049000      -0.00469500      -0.05987400
Cu       1.25152000       6.25758000      10.00000000  F      -0.00065900      -0.01247500      -0.05615300
Cu       3.75455000       6.25758000      10.00000000  F       0.00923100       0.01174600      -0.04411000
Cu       6.25758000       6.25758000      10.00000000  F      -0.01959600       0.02438700      -0.07173000
Cu       8.76061000       6.25758000      10.00000000  F       0.01385200       0.02011500      -0.08533700
Cu      11.26364000       6.25758000      10.00000000  F      -0.00144000      -0.00440900      -0.05137800
Cu       1.25152000       8.76061000      10.00000000  F       0.00109000       0.02237500      -0.06183700
Cu       3.75455000       8.76061000      10.00000000  F      -0.00099200       0.00161200      -0.06090800
Cu       6.25758000       8.76061000      10.00000000  F      -0.00815800      -0.01729500      -0.05858500
Cu       8.76061000       8.76061000      10.00000000  F       0.00397200      -0.01745200      -0.03867100
Cu      11.26364000       8.76061000      10.00000000  F       0.00513100       0.00480700      -0.06899000
Cu       1.25152000      11.26364000      10.00000000  F       0.00425700      -0.02276400      -0.02789100
Cu       3.75455000      11.26364000      10.00000000  F      -0.01062100      -0.01135900      -0.07486500
Cu       6.25758000      11.26364000      10.00000000  F      -0.00170500       0.00668700      -0.07052500
Cu       8.76061000      11.26364000      10.00000000  F       0.00384100       0.01128900      -0.05825200
Cu      11.26364000      11.26364000      10.00000000  F       0.00273800       0.00163400      -0.06095500
Cu       0.00000000       0.00000000      11.76991000  F      -0.02816000       0.03676100       0.07668600
Cu       2.50303000       0.00000000      11.76991000  F       0.03570100       0.00985600       0.06784200
Cu       5.00606000       0.00000000      11.76991000  F       0.06328900       0.07995700       0.06179900
Cu       7.50909000       0.00000000      11.76991000  F       0.01173600       0.07850300       0.07485200
Cu      10.01212000       0.00000000      11.76991000  F      -0.03865100       0.09656600       0.08692600
Cu       0.00000000       2.50303000      11.76991000  F      -0.02900400       0.05855500       0.11421600
Cu       2.50303000       2.50303000      11.76991000  F       0.07576400       0.02978500       0.05563300
Cu       5.00606000       2.50303000      11.76991000  F      -0.02601900      -0.04004800       0.06015400
Cu       7.50909000       2.50303000      11.76991000  F       0.00247900      -0.04581200       0.06708200
Cu      10.01212000       2.50303000      11.76991000  F       0.03684900      -0.06766900       0.03179800
Cu       0.00000000       5.00606000      11.76991000  F      -0.02868100       0.02036000       0.08765000
Cu       2.50303000       5.00606000      11.76991000  F       0.09801400       0.02755400       0.08524600
Cu       5.00606000       5.00606000      11.76991000  F      -0.07594600       0.01175800       0.13677300
Cu       7.50909000       5.00606000      11.76991000  F      -0.01084400       0.00125900       0.07304100
Cu      10.01212000       5.00606000      11.76991000  F       0.03915300       0.00713600       0.05641500
Cu       0.00000000       7.50909000      11.76991000  F      -0.04025700      -0.06128100       0.11135900
Cu       2.50303000       7.50909000      11.76991000  F       0.08202400      -0.05906300       0.10810700
Cu       5.00606000       7.50909000      11.76991000  F      -0.04497700       0.04108200       0.06856000
Cu       7.50909000       7.50909000      11.76991000  F      -0.00732400       0.03631400       0.06272200
Cu      10.01212000       7.50909000      11.76991000  F       0.05797000       0.05543500       0.04794400
Cu       0.00000000      10.01212000      11.76991000  F       0.00601900      -0.06614100       0.07389400
Cu       2.50303000      10.01212000      11.76991000  F       0.02944400      -0.02374200       0.03745300
Cu       5.00606000      10.01212000      11.76991000  F       0.02574700      -0.11147100       0.07561600
Cu       7.50909000      10.01212000      11.76991000  F       0.02623300      -0.07692700       0.08319800
Cu      10.01212000      10.01212000      11.76991000  F      -0.05336400      -0.09305800       0.09827600
Cu       1.25839000       1.24136000      13.56936000  T       0.00083500       0.00482300      -0.00862200
Cu       3.78616000       1.25674000      13.59450000  T       0.00608900       0.00599300      -0.00188800
Cu       6.28219000       1.27253000      13.61765000  T       0.00224000       0.00484900      -0.00372900
Cu       8.75843000       1.28089000      13.61556000  T      -0.00629600       0.00902100       0.00189000
Cu      11.25861000       1.26070000      13.60118000  T      -0.00744300       0.00594500      -0.00064400
Cu       1.27061000       3.76766000      13.58372000  T       0.00143800       0.00573400      -0.00244400
Cu       3.76401000       3.75494000      13.61159000  T       0.00254600       0.00564800      -0.00111400
Cu       6.28113000       3.75068000      13.55913000  T       0.00066800       0.00188800       0.00159400
Cu       8.75086000       3.76431000      13.56137000  T      -0.00400200       0.00272300       0.00368200
Cu      11.23501000       3.75562000      13.59836000  T      -0.00683500       0.00632900      -0.00176100
Cu       1.27687000       6.26004000      13.59661000  T      -0.00052600      -0.00223400      -0.00277000
Cu       3.75444000       6.26444000      13.62791000  T       0.00155700      -0.00141600       0.00271500
Cu       6.27757000       6.25688000      13.55941000  T      -0.00006300      -0.00437100       0.00252400
Cu       8.75081000       6.24685000      13.55975000  T      -0.00360900      -0.00285300       0.00244200
Cu      11.23939000       6.25059000      13.60415000  T      -0.00686700      -0.00484200      -0.00166600
Cu       1.27730000       8.75642000      13.58729000  T      -0.00004800      -0.00384700      -0.00854500
Cu       3.76622000       8.74040000      13.61072000  T       0.00332500      -0.00674300      -0.00041300
Cu       6.27632000       8.73609000      13.61291000  T       0.00127200      -0.00691600      -0.00248700
Cu       8.75626000       8.73207000      13.61520000  T      -0.00526200      -0.01063000       0.00256100
Cu      11.26058000       8.75178000      13.59841000  T      -0.00488700      -0.00595000      -0.00285800
Cu       1.24637000      11.25786000      13.59223000  T       0.00187800      -0.00003500      -0.00871000
Cu       3.74501000      11.25833000      13.57077000  T       0.00623000      -0.00197300      -0.00974600
Cu       6.25514000      11.26386000      13.56642000  T       0.00275500       0.00006900      -0.00568900
Cu       8.76140000      11.26463000      13.57336000  T      -0.00458100      -0.00128400      -0.00707000
Cu      11.26960000      11.26513000      13.57669000  T      -0.00382400      -0.00114200      -0.01106800
Cu      12.51095000      12.51824000      15.37076000  T       0.00203500      -0.00073700      -0.01313800
Cu       2.50571000       0.00930000      15.36682000  T      -0.00143500      -0.00161700      -0.01101900
Cu       5.00016000      12.47562000      15.36066000  T      -0.00123500       0.00209000      -0.01096000
Cu       7.50420000      12.49239000      15.35315000  T       0.00253800       0.00752800      -0.00979700
Cu      10.01125000      12.49465000      15.36040000  T       0.00286000       0.00298400      -0.01298000
Cu       0.05902000       2.50124000      15.35056000  T      -0.00576400       0.00010800      -0.01402900
Cu       2.51989000       2.46165000      15.34931000  T       0.00402900       0.00240800      -0.01089200
Cu       4.99959000       2.41048000      15.47409000  T      -0.00604600      -0.00356100      -0.00897200
Cu       7.54761000       2.51288000      15.47976000  T      -0.00328800      -0.00273700      -0.00639400
Cu      10.10214000       2.45489000      15.44617000  T      -0.00605300       0.00166000      -0.00740400
Cu      12.48366000       4.99559000      15.31588000  T      -0.01513600       0.00083100      -0.00576500
Cu       2.43651000       4.92872000      15.46648000  T      -0.00081100       0.00368000      -0.00247300
Pd       5.06151000       4.99273000      15.45580000  T      -0.01892600      -0.00273000      -0.00466000
Y        7.49703000       4.99396000      17.25021000  T      -0.00763300      -0.00306000       0.00348200
Cu       9.98237000       5.00517000      15.44902000  T      -0.00724900      -0.00259700      -0.00107900
Cu       0.02864000       7.50681000      15.34534000  T      -0.00674100       0.00439300      -0.01181600
Cu       2.50442000       7.58934000      15.48257000  T       0.00288600       0.01096700      -0.01153100
Cu       5.02131000       7.58564000      15.45864000  T      -0.00844300       0.00179200      -0.00622100
Cu       7.54686000       7.49380000      15.48497000  T      -0.00308100      -0.00368000      -0.00187800
Cu      10.08350000       7.56275000      15.44605000  T      -0.00613700      -0.00206000      -0.00890700
Cu      12.51266000      10.00284000      15.36693000  T       0.00183800       0.00497900      -0.01129000
Cu       2.50857000      10.05791000      15.37514000  T      -0.00315300       0.00283000      -0.00972000
Cu       5.00634000      10.03543000      15.35367000  T      -0.00095200      -0.00489100      -0.01040900
Cu       7.50589000      10.02605000      15.35164000  T       0.00126300      -0.00615800      -0.00974400
Cu      10.01202000      10.03430000      15.35773000  T       0.00287500      -0.00309200      -0.01314400
O        6.13123000       3.39852000      16.69159000  T       0.01316100      -0.00132000      -0.01858200
O        6.13173000       6.57653000      16.68781000  T       0.01362500      -0.00070500      -0.01639400
O        8.99470000       6.43009000      16.55309000  T      -0.00769600      -0.01048200      -0.01690200
O        8.99577000       3.56247000      16.55506000  T      -0.00758300       0.00845300      -0.01789200
C        2.69449000       6.86007000      17.26860000  T      -0.03150100       0.00973400      -0.00611800
O        2.82454000       7.61657000      18.37487000  T      -0.00672200       0.01535200      -0.00944800
O        2.71626000       5.60680000      17.41863000  T      -0.05888500       0.01204600      -0.00007100
H        2.93016000       6.99808000      19.14036000  T      -0.01786800       0.01687200      -0.00763400
108
Lattice="12.515153631 0.0 0.0 0.0 12.515153631 0.0 0.0 0.0 25.30973" Properties=species:S:1:pos:R:3:move_mask:L:1:forces:R:3 stress="0.0082368384538095 4.194918283506138e-05 0.000231553747061143 4.194918283506138e-05 0.007864707196706087 -0.00010759737582110149 0.000231553747061143 -0.00010759737582110149 0.0023828146974793256" free_energy=-445.30144187 energy=-445.30209415 pbc="T T T"
Cu       1.25152000       1.25152000      10.00000000  F       0.00618800      -0.00247800      -0.06167400
Cu       3.75455000       1.25152000      10.00000000  F       0.00398200       0.00772300      -0.06661300
Cu       6.25758000       1.25152000      10.00000000  F      -0.00147600       0.01516000      -0.05740900
Cu       8.76061000       1.25152000      10.00000000  F       0.01009800       0.01096100      -0.05888400
Cu      11.26364000       1.25152000      10.00000000  F      -0.02135000       0.00236700      -0.05949400
Cu       1.25152000       3.75455000      10.00000000  F       0.00542600       0.01550700      -0.06669500
Cu       3.75455000       3.75455000      10.00000000  F       0.00259300      -0.01003300      -0.05473700
Cu       6.25758000       3.75455000      10.00000000  F      -0.00879200      -0.03006000      -0.07470200
Cu       8.76061000       3.75455000      10.00000000  F       0.01140400      -0.02726400      -0.07911500
Cu      11.26364000       3.75455000      10.00000000  F      -0.01083100      -0.00474000      -0.05912000
Cu       1.25152000       6.25758000      10.00000000  F      -0.00100600      -0.01244900      -0.05543500
Cu       3.75455000       6.25758000      10.00000000  F       0.00888000       0.01178700      -0.04339000
Cu       6.25758000       6.25758000      10.00000000  F      -0.01990900       0.02438400      -0.07112100
Cu       8.76061000       6.25758000      10.00000000  F       0.01354900       0.02008300      -0.08464700
Cu      11.26364000       6.25758000      10.00000000  F      -0.00175600      -0.00437900      -0.05065000
Cu       1.25152000       8.76061000      10.00000000  F       0.00074200       0.02245000      -0.06105800
Cu       3.75455000       8.76061000      10.00000000  F      -0.00138200       0.00163200      -0.06018100
Cu       6.25758000       8.76061000      10.00000000  F      -0.00851500      -0.01730800      -0.05787200
Cu       8.76061000       8.76061000      10.00000000  F       0.00371400      -0.01745700      -0.03793100
Cu      11.26364000       8.76061000      10.00000000  F       0.00485500       0.00484300      -0.06823700
Cu       1.25152000      11.26364000      10.00000000  F       0.00390500      -0.02281400      -0.02708200
Cu       3.75455000      11.26364000      10.00000000  F      -0.01104000      -0.01142100      -0.07417000
Cu       6.25758000      11.26364000      10.00000000  F      -0.00200800       0.00669800      -0.06985800
Cu       8.76061000      11.26364000      10.00000000  F       0.00356500       0.01131000      -0.05749500
Cu      11.26364000      11.26364000      10.00000000  F       0.00247800       0.00163100      -0.06021300
Cu       0.00000000       0.00000000      11.76991000  F      -0.02879300       0.03712700       0.07897100
Cu       2.50303000       0.00000000      11.76991000  F       0.03555600       0.01004300       0.06996700
Cu       5.00606000       0.00000000      11.76991000  F       0.06304000       0.08018000       0.06367200
Cu       7.50909000       0.00000000      11.76991000  F       0.01156700       0.07876900       0.07657300
Cu      10.01212000       0.00000000      11.76991000  F      -0.03937700       0.09706900       0.08914900
Cu       0.00000000       2.50303000      11.76991000  F      -0.02976900       0.05867700       0.11672200
Cu       2.50303000       2.50303000      11.76991000  F       0.07548900       0.02990600       0.05779600
Cu       5.00606000       2.50303000      11.76991000  F      -0.02620800      -0.03990400       0.06193800
Cu       7.50909000       2.50303000      11.76991000  F       0.00226400      -0.04543600       0.06881400
Cu      10.01212000       2.50303000      11.76991000  F       0.03630200      -0.06754700       0.03407400
Cu       0.00000000       5.00606000      11.76991000  F      -0.02910200       0.02025300       0.08938300
Cu       2.50303000       5.00606000      11.76991000  F       0.09756500       0.02765200       0.08699600
Cu       5.00606000       5.00606000      11.76991000  F      -0.07601800       0.01181800       0.13849300
Cu       7.50909000       5.00606000      11.76991000  F      -0.01120400       0.00113000       0.07476000
Cu      10.01212000       5.00606000      11.76991000  F       0.03844900       0.00703500       0.05799800
Cu       0.00000000       7.50909000      11.76991000  F      -0.04094900      -0.06149900       0.11333900
Cu       2.50303000       7.50909000      11.76991000  F       0.08179100      -0.05924700       0.11015900
Cu       5.00606000       7.50909000      11.76991000  F      -0.04516100       0.04090800       0.07047800
Cu       7.50909000       7.50909000      11.76991000  F      -0.00774100       0.03601800       0.06471700
Cu      10.01212000       7.50909000      11.76991000  F       0.05745300       0.05531000       0.05005800
Cu       0.00000000      10.01212000      11.76991000  F       0.00548200      -0.06629000       0.07578700
Cu       2.50303000      10.01212000      11.76991000  F       0.02922600      -0.02389000       0.03933200
Cu       5.00606000      10.01212000      11.76991000  F       0.02563400      -0.11173400       0.07749100
Cu       7.50909000      10.01212000      11.76991000  F       0.02595100      -0.07727600       0.08517400
Cu      10.01212000      10.01212000      11.76991000  F      -0.05410800      -0.09353600       0.10043200
Cu       1.25839000       1.24143000      13.56948000  T       0.00028000       0.00375900      -0.00901600
Cu       3.78629000       1.25686000      13.59478000  T       0.00327000       0.00361700      -0.00554100
Cu       6.28224000       1.27264000      13.61779000  T       0.00061200       0.00290100      -0.00532500
Cu       8.75825000       1.28113000      13.61590000  T      -0.00363100       0.00520700      -0.00294900
Cu      11.25839000       1.26082000      13.60153000  T      -0.00461700       0.00408400      -0.00532700
Cu       1.27061000       3.76779000      13.58397000  T       0.00028500       0.00392300      -0.00452200
Cu       3.76407000       3.75504000      13.61172000  T       0.00095200       0.00433100      -0.00260500
Cu       6.28118000       3.75075000      13.55936000  T      -0.00039300       0.00084200      -0.00094500
Cu       8.75077000       3.76440000      13.56164000  T      -0.00326800       0.00173300       0.00042000
Cu      11.23487000       3.75582000      13.59859000  T      -0.00511300       0.00288100      -0.00473100
Cu       1.27680000       6.25995000      13.59679000  T      -0.00055300      -0.00077000      -0.00388500
Cu       3.75449000       6.26441000      13.62810000  T      -0.00016500      -0.00098800       0.00048200
Cu       6.27759000       6.25675000      13.55965000  T      -0.00081000      -0.00253300      -0.00010100
Cu       8.75074000       6.24676000      13.55996000  T      -0.00322700      -0.00216700       0.00018500
Cu      11.23926000       6.25042000      13.60437000  T      -0.00529300      -0.00191600      -0.00436600
Cu       1.27725000       8.75636000      13.58733000  T       0.00010800      -0.00240900      -0.00841300
Cu       3.76630000       8.74028000      13.61096000  T       0.00119000      -0.00428700      -0.00389500
Cu       6.27636000       8.73595000      13.61311000  T      -0.00010300      -0.00491100      -0.00463400
Cu       8.75612000       8.73180000      13.61559000  T      -0.00329600      -0.00663800      -0.00268300
Cu      11.26044000       8.75165000      13.59866000  T      -0.00338300      -0.00384200      -0.00601800
Cu       1.24638000      11.25786000      13.59238000  T       0.00149600      -0.00003800      -0.00996700
Cu       3.74512000      11.25829000      13.57081000  T       0.00393700      -0.00134700      -0.00907100
Cu       6.25521000      11.26388000      13.56657000  T       0.00140000      -0.00033700      -0.00618600
Cu       8.76127000      11.26460000      13.57349000  T      -0.00272000      -0.00076700      -0.00749100
Cu      11.26950000      11.26509000      13.57673000  T      -0.00262600      -0.00061600      -0.01048400
Cu      12.51101000      12.51814000      15.37100000  T       0.00082200       0.00073500      -0.01602000
Cu       2.50565000       0.00921000      15.36714000  T      -0.00060300       0.00017100      -0.01513900
Cu       5.00008000      12.47570000      15.36076000  T      -0.00025300      -0.00032600      -0.01170500
Cu       7.50425000      12.49260000      15.35331000  T       0.00131400       0.00295300      -0.01094200
Cu      10.01132000      12.49477000      15.36055000  T       0.00125900       0.00054400      -0.01425500
Cu       0.05881000       2.50118000      15.35058000  T      -0.00292700       0.00110200      -0.01366100
Cu       2.51998000       2.46167000      15.34941000  T       0.00104000       0.00238400      -0.01143900
Cu       4.99936000       2.41035000      15.47412000  T      -0.00209600      -0.00025400      -0.00709600
Cu       7.54766000       2.51251000      15.47976000  T      -0.00419500       0.00244700      -0.00581400
Cu      10.10199000       2.45492000      15.44629000  T      -0.00463100       0.00164200      -0.00747800
Cu      12.48331000       4.99561000      15.31623000  T      -0.00941300       0.00077200      -0.00887200
Cu       2.43656000       4.92875000      15.46649000  T      -0.00323900       0.00363700      -0.00171200
Pd       5.06127000       4.99270000      15.45581000  T      -0.00085600      -0.00057200      -0.00445400
Y        7.49678000       4.99392000      17.25069000  T      -0.00265500      -0.00137100      -0.00400900
Cu       9.98249000       5.00509000      15.44913000  T      -0.00917800      -0.00125900      -0.00243200
Cu       0.02847000       7.50698000      15.34538000  T      -0.00422700       0.00215800      -0.01149500
Cu       2.50448000       7.58964000      15.48241000  T       0.00019500       0.00697400      -0.00799900
Cu       5.02095000       7.58581000      15.45872000  T      -0.00248000      -0.00264400      -0.00470100
Cu       7.54691000       7.49399000      15.48501000  T      -0.00445600      -0.00598800      -0.00223100
Cu      10.08341000       7.56272000      15.44612000  T      -0.00574400      -0.00270900      -0.00803800
Cu      12.51272000      10.00298000      15.36721000  T       0.00058700       0.00301500      -0.01482600
Cu       2.50844000      10.05800000      15.37539000  T      -0.00142300       0.00210200      -0.01278000
Cu       5.00626000      10.03536000      15.35377000  T      -0.00019000      -0.00273600      -0.01099400
Cu       7.50591000      10.02595000      15.35180000  T       0.00040400      -0.00346700      -0.01073100
Cu      10.01212000      10.03421000      15.35785000  T       0.00099600      -0.00133800      -0.01405700
O        6.13213000       3.39833000      16.69099000  T       0.01008000      -0.00099800      -0.01709200
O        6.13265000       6.57671000      16.68717000  T       0.00966100      -0.00082300      -0.01528500
O        8.99436000       6.42947000      16.55239000  T      -0.00798100      -0.00936700      -0.01486000
O        8.99546000       3.56314000      16.55437000  T      -0.00846500       0.00741000      -0.01569600
C        2.69404000       6.86013000      17.26847000  T      -0.03047800       0.01167400      -0.00574100
O        2.82435000       7.61679000      18.37464000  T      -0.00838300       0.01340300      -0.01032800
O        2.71577000       5.60688000      17.41862000  T      -0.06001200       0.01216200       0.00053900
H        2.92982000       6.99831000      19.14014000  T      -0.01746200       0.01719200      -0.00607600
108
Lattice="12.515153631 0.0 0.0 0.0 12.515153631 0.0 0.0 0.0 25.30973" Properties=species:S:1:pos:R:3:move_mask:L:1:forces:R:3 stress="0.00819239890883321 4.314755258723096e-05 0.00023100449425806526 4.314755258723096e-05 0.007823457062893125 -0.00010669235699784843 0.00023100449425806526 -0.00010669235699784843 0.002333500533875722" free_energy=-445.30215253 energy=-445.30280065 pbc="T T T"
Cu       1.25152000       1.25152000      10.00000000  F       0.00571900      -0.00221800      -0.06260000
Cu       3.75455000       1.25152000      10.00000000  F       0.00391800       0.00799600      -0.06752000
Cu       6.25758000       1.25152000      10.00000000  F      -0.00137300       0.01542600      -0.05802300
Cu       8.76061000       1.25152000      10.00000000  F       0.00979100       0.01120900      -0.05933200
Cu      11.26364000       1.25152000      10.00000000  F      -0.02195700       0.00264800      -0.06015700
Cu       1.25152000       3.75455000      10.00000000  F       0.00495700       0.01572600      -0.06740000
Cu       3.75455000       3.75455000      10.00000000  F       0.00255500      -0.00983800      -0.05544300
Cu       6.25758000       3.75455000      10.00000000  F      -0.00872000      -0.02983200      -0.07521700
Cu       8.76061000       3.75455000      10.00000000  F       0.01109300      -0.02704800      -0.07948100
Cu      11.26364000       3.75455000      10.00000000  F      -0.01143100      -0.00455800      -0.05959700
Cu       1.25152000       6.25758000      10.00000000  F      -0.00147400      -0.01252800      -0.05613100
Cu       3.75455000       6.25758000      10.00000000  F       0.00885200       0.01173100      -0.04408800
Cu       6.25758000       6.25758000      10.00000000  F      -0.01983700       0.02430500      -0.07163100
Cu       8.76061000       6.25758000      10.00000000  F       0.01323100       0.02001500      -0.08498500
Cu      11.26364000       6.25758000      10.00000000  F      -0.00235500      -0.00441700      -0.05111300
Cu       1.25152000       8.76061000      10.00000000  F       0.00027900       0.02233000      -0.06200500
Cu       3.75455000       8.76061000      10.00000000  F      -0.00142700       0.00147900      -0.06111100
Cu       6.25758000       8.76061000      10.00000000  F      -0.00845700      -0.01748400      -0.05846500
Cu       8.76061000       8.76061000      10.00000000  F       0.00345200      -0.01761400      -0.03836200
Cu      11.26364000       8.76061000      10.00000000  F       0.00424200       0.00469400      -0.06891100
Cu       1.25152000      11.26364000      10.00000000  F       0.00345900      -0.02278200      -0.02814300
Cu       3.75455000      11.26364000      10.00000000  F      -0.01112800      -0.01137600      -0.07524200
Cu       6.25758000      11.26364000      10.00000000  F      -0.00191700       0.00675900      -0.07059000
Cu       8.76061000      11.26364000      10.00000000  F       0.00325700       0.01137600      -0.05806500
Cu      11.26364000      11.26364000      10.00000000  F       0.00190600       0.00167000      -0.06103300
Cu       0.00000000       0.00000000      11.76991000  F      -0.02976900       0.03790500       0.07787200
Cu       2.50303000       0.00000000      11.76991000  F       0.03568900       0.01067000       0.06863200
Cu       5.00606000       0.00000000      11.76991000  F       0.06341500       0.08079500       0.06210000
Cu       7.50909000       0.00000000      11.76991000  F       0.01159500       0.07935900       0.07510300
Cu      10.01212000       0.00000000      11.76991000  F      -0.04058700       0.09796400       0.08815000
Cu       0.00000000       2.50303000      11.76991000  F      -0.03088200       0.05953500       0.11590300
Cu       2.50303000       2.50303000      11.76991000  F       0.07553600       0.03075300       0.05652400
Cu       5.00606000       2.50303000      11.76991000  F      -0.02600900      -0.03901900       0.06043200
Cu       7.50909000       2.50303000      11.76991000  F       0.00220100      -0.04444400       0.06734300
Cu      10.01212000       2.50303000      11.76991000  F       0.03521400      -0.06683100       0.03309600
Cu       0.00000000       5.00606000      11.76991000  F      -0.02990600       0.02032700       0.08801500
Cu       2.50303000       5.00606000      11.76991000  F       0.09742600       0.02793800       0.08541800
Cu       5.00606000       5.00606000      11.76991000  F      -0.07577700       0.01209300       0.13706800
Cu       7.50909000       5.00606000      11.76991000  F      -0.01144900       0.00119500       0.07352100
Cu      10.01212000       5.00606000      11.76991000  F       0.03708000       0.00716400       0.05647200
Cu       0.00000000       7.50909000      11.76991000  F      -0.04210400      -0.06221300       0.11206200
Cu       2.50303000       7.50909000      11.76991000  F       0.08186500      -0.06001900       0.10868000
Cu       5.00606000       7.50909000      11.76991000  F      -0.04485400       0.04010900       0.06916100
Cu       7.50909000       7.50909000      11.76991000  F      -0.00797200       0.03521900       0.06349300
Cu      10.01212000       7.50909000      11.76991000  F       0.05627300       0.05473700       0.04889500
Cu       0.00000000      10.01212000      11.76991000  F       0.00452900      -0.06676500       0.07426800
Cu       2.50303000      10.01212000      11.76991000  F       0.02931200      -0.02429900       0.03764500
Cu       5.00606000      10.01212000      11.76991000  F       0.02618900      -0.11248300       0.07598000
Cu       7.50909000      10.01212000      11.76991000  F       0.02590800      -0.07812200       0.08395100
Cu      10.01212000      10.01212000      11.76991000  F      -0.05543000      -0.09448000       0.09930300
Cu       1.25840000       1.24163000      13.56923000  T      -0.00047700       0.00229900      -0.00704700
Cu       3.78651000       1.25710000      13.59478000  T       0.00060000       0.00129600      -0.00672700
Cu       6.28230000       1.27285000      13.61767000  T      -0.00042200       0.00100000      -0.00555200
Cu       8.75795000       1.28152000      13.61604000  T      -0.00102400       0.00163200      -0.00574700
Cu      11.25802000       1.26108000      13.60160000  T      -0.00208100       0.00193600      -0.00737200
Cu       1.27062000       3.76804000      13.58399000  T      -0.00112600       0.00200700      -0.00477700
Cu       3.76415000       3.75528000      13.61167000  T      -0.00051500       0.00242800      -0.00374100
Cu       6.28120000       3.75084000      13.55947000  T      -0.00064900       0.00037700      -0.00318200
Cu       8.75055000       3.76455000      13.56182000  T      -0.00212800       0.00103900      -0.00291400
Cu      11.23455000       3.75610000      13.59858000  T      -0.00321200       0.00023100      -0.00574600
Cu       1.27670000       6.25984000      13.59677000  T      -0.00135200       0.00014500      -0.00392400
Cu       3.75452000       6.26436000      13.62823000  T      -0.00134900      -0.00046500      -0.00198300
Cu       6.27758000       6.25655000      13.55980000  T      -0.00074600      -0.00126000      -0.00263000
Cu       8.75055000       6.24661000      13.56008000  T      -0.00225500      -0.00138300      -0.00257500
Cu      11.23894000       6.25021000      13.60437000  T      -0.00347900       0.00033900      -0.00527300
Cu       1.27720000       8.75622000      13.58702000  T      -0.00059000      -0.00067200      -0.00686700
Cu       3.76641000       8.74003000      13.61097000  T      -0.00031600      -0.00141100      -0.00585000
Cu       6.27639000       8.73565000      13.61308000  T      -0.00060600      -0.00246700      -0.00516000
Cu       8.75586000       8.73134000      13.61580000  T      -0.00132400      -0.00250900      -0.00556800
Cu      11.26020000       8.75140000      13.59862000  T      -0.00211200      -0.00151000      -0.00685700
Cu       1.24644000      11.25787000      13.59211000  T       0.00045800       0.00029700      -0.00849500
Cu       3.74535000      11.25821000      13.57049000  T       0.00160900      -0.00041300      -0.00659500
Cu       6.25531000      11.26389000      13.56644000  T       0.00073200      -0.00053300      -0.00501100
Cu       8.76105000      11.26454000      13.57331000  T      -0.00080000      -0.00033500      -0.00599600
Cu      11.26931000      11.26505000      13.57635000  T      -0.00146300      -0.00000500      -0.00768300
Cu      12.51108000      12.51809000      15.37062000  T      -0.00039500       0.00144600      -0.01309300
Cu       2.50556000       0.00914000      15.36688000  T       0.00007600       0.00157900      -0.01256600
Cu       5.00000000      12.47576000      15.36042000  T       0.00060500      -0.00151100      -0.00876900
Cu       7.50433000      12.49290000      15.35305000  T       0.00044500      -0.00059700      -0.00834100
Cu      10.01143000      12.49490000      15.36015000  T      -0.00016400      -0.00072200      -0.01083800
Cu       0.05851000       2.50117000      15.35009000  T      -0.00137000       0.00147700      -0.00980600
Cu       2.52008000       2.46177000      15.34908000  T      -0.00134500       0.00200400      -0.00845800
Cu       4.99906000       2.41023000      15.47386000  T      -0.00001800       0.00123500      -0.00500500
Cu       7.54755000       2.51222000      15.47949000  T      -0.00289800       0.00264000      -0.00568300
Cu      10.10168000       2.45500000      15.44610000  T      -0.00270700       0.00102600      -0.00597700
Cu      12.48265000       4.99566000      15.31623000  T      -0.00435500       0.00063100      -0.00762300
Cu       2.43647000       4.92892000      15.46641000  T      -0.00468000       0.00264300      -0.00125000
Pd       5.06090000       4.99265000      15.45570000  T       0.00504000       0.00044300      -0.00012200
Y        7.49644000       4.99383000      17.25094000  T       0.00022900      -0.00046000      -0.00597100
Cu       9.98229000       5.00499000      15.44908000  T      -0.00612700      -0.00027800      -0.00429400
Cu       0.02815000       7.50721000      15.34498000  T      -0.00239600       0.00061900      -0.00823800
Cu       2.50451000       7.59016000      15.48194000  T      -0.00243900       0.00356300      -0.00588600
Cu       5.02052000       7.58587000      15.45860000  T       0.00049300      -0.00378200      -0.00341500
Cu       7.54681000       7.49397000      15.48490000  T      -0.00332300      -0.00367200      -0.00390500
Cu      10.08312000       7.56260000      15.44587000  T      -0.00405700      -0.00226600      -0.00584500
Cu      12.51279000      10.00323000      15.36691000  T      -0.00069000       0.00121100      -0.01241000
Cu       2.50827000      10.05817000      15.37513000  T      -0.00023200       0.00168600      -0.01046500
Cu       5.00617000      10.03520000      15.35344000  T       0.00040400      -0.00068700      -0.00821900
Cu       7.50593000      10.02574000      15.35154000  T       0.00002600      -0.00075100      -0.00818000
Cu      10.01224000      10.03409000      15.35744000  T      -0.00043200      -0.00017700      -0.01059500
O        6.13317000       3.39813000      16.68986000  T       0.00217300      -0.00094800      -0.01266400
O        6.13368000       6.57684000      16.68608000  T       0.00127400      -0.00118000      -0.01098600
O        8.99383000       6.42867000      16.55124000  T      -0.00452300      -0.00381300      -0.01045300
O        8.99493000       3.56391000      16.55321000  T      -0.00519300       0.00219900      -0.01092200
C        2.69234000       6.86068000      17.26808000  T      -0.02770100       0.00917800      -0.00293500
O        2.82384000       7.61755000      18.37403000  T      -0.00989300       0.01483300      -0.01491400
O        2.71282000       5.60743000      17.41866000  T      -0.05849300       0.01110700       0.00022200
H        2.92873000       6.99928000      19.13965000  T      -0.01683500       0.01450500      -0.00356200
108
Lattice="12.515153631 0.0 0.0 0.0 12.515153631 0.0 0.0 0.0 25.30973" Properties=species:S:1:pos:R:3:move_mask:L:1:forces:R:3 stress="0.008137823153036489 4.3316073333629815e-05 0.00022493150587858085 4.3316073333629815e-05 0.007767476967543078 -0.00010490104387871992 0.00022493150587858085 -0.00010490104387871992 0.00226667269566489" free_energy=-445.30340925 energy=-445.30406517 pbc="T T T"
Cu       1.25152000       1.25152000      10.00000000  F       0.00626100      -0.00236800      -0.06239500
Cu       3.75455000       1.25152000      10.00000000  F       0.00398800       0.00791600      -0.06732400
Cu       6.25758000       1.25152000      10.00000000  F      -0.00132000       0.01532200      -0.05814900
Cu       8.76061000       1.25152000      10.00000000  F       0.01008200       0.01103100      -0.05965700
Cu      11.26364000       1.25152000      10.00000000  F      -0.02131400       0.00245300      -0.06027700
Cu       1.25152000       3.75455000      10.00000000  F       0.00557400       0.01558500      -0.06727700
Cu       3.75455000       3.75455000      10.00000000  F       0.00271100      -0.00993400      -0.05520200
Cu       6.25758000       3.75455000      10.00000000  F      -0.00874800      -0.02983500      -0.07533100
Cu       8.76061000       3.75455000      10.00000000  F       0.01131000      -0.02714600      -0.07989800
Cu      11.26364000       3.75455000      10.00000000  F      -0.01080100      -0.00471700      -0.05991300
Cu       1.25152000       6.25758000      10.00000000  F      -0.00086500      -0.01256800      -0.05606600
Cu       3.75455000       6.25758000      10.00000000  F       0.00907200       0.01168000      -0.04385200
Cu       6.25758000       6.25758000      10.00000000  F      -0.01984000       0.02426700      -0.07164700
Cu       8.76061000       6.25758000      10.00000000  F       0.01341000       0.02005500      -0.08529500
Cu      11.26364000       6.25758000      10.00000000  F      -0.00176600      -0.00437800      -0.05142200
Cu       1.25152000       8.76061000      10.00000000  F       0.00077900       0.02238000      -0.06189100
Cu       3.75455000       8.76061000      10.00000000  F      -0.00122900       0.00142900      -0.06094400
Cu       6.25758000       8.76061000      10.00000000  F      -0.00838800      -0.01754300      -0.05843800
Cu       8.76061000       8.76061000      10.00000000  F       0.00374500      -0.01757400      -0.03851100
Cu      11.26364000       8.76061000      10.00000000  F       0.00478600       0.00480000      -0.06902500
Cu       1.25152000      11.26364000      10.00000000  F       0.00389000      -0.02283500      -0.02793100
Cu       3.75455000      11.26364000      10.00000000  F      -0.01101200      -0.01144800      -0.07509500
Cu       6.25758000      11.26364000      10.00000000  F      -0.00182000       0.00661900      -0.07070100
Cu       8.76061000      11.26364000      10.00000000  F       0.00357600       0.01123300      -0.05826000
Cu      11.26364000      11.26364000      10.00000000  F       0.00253700       0.00154600      -0.06100600
Cu       0.00000000       0.00000000      11.76991000  F      -0.02932100       0.03821400       0.07603300
Cu       2.50303000       0.00000000      11.76991000  F       0.03633200       0.01094100       0.06679200
Cu       5.00606000       0.00000000      11.76991000  F       0.06369500       0.08107900       0.06029500
Cu       7.50909000       0.00000000      11.76991000  F       0.01178100       0.07959100       0.07337900
Cu      10.01212000       0.00000000      11.76991000  F      -0.04068700       0.09831000       0.08645100
Cu       0.00000000       2.50303000      11.76991000  F      -0.03047700       0.05994100       0.11437500
Cu       2.50303000       2.50303000      11.76991000  F       0.07627900       0.03128400       0.05490200
Cu       5.00606000       2.50303000      11.76991000  F      -0.02604900      -0.03834900       0.05890500
Cu       7.50909000       2.50303000      11.76991000  F       0.00212500      -0.04400900       0.06561900
Cu      10.01212000       2.50303000      11.76991000  F       0.03510100      -0.06667700       0.03132300
Cu       0.00000000       5.00606000      11.76991000  F      -0.02931500       0.02035300       0.08645700
Cu       2.50303000       5.00606000      11.76991000  F       0.09819300       0.02814700       0.08392500
Cu       5.00606000       5.00606000      11.76991000  F      -0.07589500       0.01230900       0.13589000
Cu       7.50909000       5.00606000      11.76991000  F      -0.01188300       0.00121100       0.07209300
Cu      10.01212000       5.00606000      11.76991000  F       0.03670500       0.00724400       0.05462300
Cu       0.00000000       7.50909000      11.76991000  F      -0.04175500      -0.06263400       0.11049000
Cu       2.50303000       7.50909000      11.76991000  F       0.08262900      -0.06064800       0.10704800
Cu       5.00606000       7.50909000      11.76991000  F      -0.04481900       0.03926000       0.06797500
Cu       7.50909000       7.50909000      11.76991000  F      -0.00817200       0.03462600       0.06193600
Cu      10.01212000       7.50909000      11.76991000  F       0.05601100       0.05441800       0.04710700
Cu       0.00000000      10.01212000      11.76991000  F       0.00487500      -0.06710700       0.07219600
Cu       2.50303000      10.01212000      11.76991000  F       0.02997600      -0.02465700       0.03571100
Cu       5.00606000      10.01212000      11.76991000  F       0.02656200      -0.11328200       0.07430500
Cu       7.50909000      10.01212000      11.76991000  F       0.02602500      -0.07894300       0.08240600
Cu      10.01212000      10.01212000      11.76991000  F      -0.05558000      -0.09515400       0.09752100
Cu       1.25841000       1.24186000      13.56866000  T       0.00005000       0.00209900      -0.00572800
Cu       3.78668000       1.25732000      13.59439000  T       0.00051500       0.00126500      -0.00524900
Cu       6.28232000       1.27303000      13.61728000  T      -0.00084200       0.00089400      -0.00467500
Cu       8.75772000       1.28185000      13.61581000  T      -0.00107200       0.00157400      -0.00466200
Cu      11.25772000       1.26132000      13.60122000  T      -0.00185200       0.00155900      -0.00593000
Cu       1.27061000       3.76829000      13.58369000  T      -0.00077700       0.00213400      -0.00318400
Cu       3.76417000       3.75554000      13.61142000  T      -0.00087200       0.00240500      -0.00312400
Cu       6.28117000       3.75091000      13.55932000  T      -0.00127800       0.00086900      -0.00197500
Cu       8.75031000       3.76469000      13.56173000  T      -0.00264700       0.00131400      -0.00240700
Cu      11.23422000       3.75628000      13.59824000  T      -0.00292400       0.00050100      -0.00467200
Cu       1.27662000       6.25978000      13.59649000  T      -0.00146000       0.00000900      -0.00280600
Cu       3.75448000       6.26431000      13.62817000  T      -0.00157000      -0.00038200      -0.00127400
Cu       6.27753000       6.25637000      13.55970000  T      -0.00135800      -0.00203600      -0.00144500
Cu       8.75032000       6.24645000      13.55998000  T      -0.00272700      -0.00176800      -0.00218500
Cu      11.23859000       6.25009000      13.60405000  T      -0.00315400       0.00007900      -0.00406900
Cu       1.27716000       8.75610000      13.58644000  T      -0.00061800      -0.00006800      -0.00632100
Cu       3.76647000       8.73980000      13.61066000  T      -0.00016500      -0.00118000      -0.00494400
Cu       6.27637000       8.73535000      13.61275000  T      -0.00096600      -0.00277400      -0.00377300
Cu       8.75564000       8.73093000      13.61559000  T      -0.00151900      -0.00271500      -0.00406400
Cu      11.25997000       8.75118000      13.59820000  T      -0.00186300      -0.00128100      -0.00557300
Cu       1.24652000      11.25789000      13.59147000  T       0.00083500       0.00056000      -0.00738100
Cu       3.74558000      11.25814000      13.56990000  T       0.00171400      -0.00044000      -0.00550200
Cu       6.25541000      11.26387000      13.56605000  T       0.00085000      -0.00071700      -0.00362300
Cu       8.76088000      11.26449000      13.57283000  T      -0.00065100      -0.00066300      -0.00464700
Cu      11.26914000      11.26502000      13.57568000  T      -0.00059900      -0.00003600      -0.00676000
Cu      12.51114000      12.51812000      15.36965000  T       0.00061000       0.00093700      -0.01251800
Cu       2.50552000       0.00917000      15.36602000  T       0.00034000       0.00166900      -0.01143600
Cu       4.99997000      12.47573000      15.35970000  T       0.00030200      -0.00154900      -0.00828900
Cu       7.50441000      12.49308000      15.35240000  T       0.00054100      -0.00066200      -0.00714300
Cu      10.01151000      12.49496000      15.35930000  T       0.00064600      -0.00065100      -0.00970700
Cu       0.05828000       2.50123000      15.34923000  T      -0.00156600       0.00091000      -0.00959500
Cu       2.52012000       2.46193000      15.34838000  T      -0.00123200       0.00201900      -0.00808800
Cu       4.99886000       2.41019000      15.47336000  T      -0.00151900       0.00026100      -0.00551000
Cu       7.54733000       2.51218000      15.47900000  T      -0.00233400      -0.00032400      -0.00655200
Cu      10.10139000       2.45508000      15.44562000  T      -0.00184800      -0.00025200      -0.00598400
Cu      12.48202000       4.99572000      15.31576000  T      -0.00466800       0.00072100      -0.00535800
Cu       2.43621000       4.92914000      15.46624000  T      -0.00562000       0.00271100      -0.00161100
Pd       5.06047000       4.99260000      15.45557000  T       0.00054500       0.00002000      -0.00024900
Y        7.49621000       4.99373000      17.25074000  T      -0.00040000      -0.00120400      -0.00399200
Cu       9.98187000       5.00490000      15.44880000  T      -0.00338500      -0.00056500      -0.00558700
Cu       0.02785000       7.50738000      15.34426000  T      -0.00246000       0.00185600      -0.00779500
Cu       2.50446000       7.59065000      15.48132000  T      -0.00273300       0.00472500      -0.00704100
Cu       5.02026000       7.58575000      15.45826000  T      -0.00146500      -0.00287400      -0.00360800
Cu       7.54657000       7.49377000      15.48461000  T      -0.00305100      -0.00131500      -0.00536000
Cu      10.08276000       7.56245000      15.44535000  T      -0.00311600      -0.00133900      -0.00590000
Cu      12.51282000      10.00345000      15.36604000  T       0.00020600       0.00190500      -0.01137300
Cu       2.50816000      10.05835000      15.37438000  T      -0.00029000       0.00264500      -0.00965900
Cu       5.00613000      10.03505000      15.35276000  T      -0.00006300      -0.00094500      -0.00772900
Cu       7.50596000      10.02555000      15.35091000  T       0.00008000      -0.00068000      -0.00708000
Cu      10.01231000      10.03400000      15.35659000  T       0.00032800      -0.00054300      -0.00963100
O        6.13352000       3.39806000      16.68887000  T       0.00091900      -0.00058000      -0.01165700
O        6.13399000       6.57676000      16.68522000  T      -0.00028600      -0.00194800      -0.01025600
O        8.99347000       6.42829000      16.55039000  T      -0.00569800      -0.00404500      -0.00807000
O        8.99454000       3.56417000      16.55230000  T      -0.00609900       0.00229600      -0.00826600
C        2.69006000       6.86148000      17.26763000  T      -0.02755300       0.01046000      -0.00283200
O        2.82319000       7.61862000      18.37321000  T      -0.01068500       0.01631500      -0.01402600
O        2.70836000       5.60830000      17.41872000  T      -0.06331300       0.01194800       0.00086500
H        2.92732000       7.00057000      19.13917000  T      -0.01713900       0.01543900      -0.00523900
108
Lattice="12.515153631 0.0 0.0 0.0 12.515153631 0.0 0.0 0.0 25.30973" Properties=species:S:1:pos:R:3:move_mask:L:1:forces:R:3 stress="0.008214119360591285 4.2205084709222594e-05 0.00023544220724656828 4.2205084709222594e-05 0.007845926495746306 -0.0001075536852572203 0.00023544220724656828 -0.0001075536852572203 0.002371835882926897" free_energy=-445.30176224 energy=-445.30239495 pbc="T T T"
Cu       1.25152000       1.25152000      10.00000000  F       0.00661300      -0.00200200      -0.06190500
Cu       3.75455000       1.25152000      10.00000000  F       0.00452200       0.00816400      -0.06663400
Cu       6.25758000       1.25152000      10.00000000  F      -0.00122100       0.01559200      -0.05722500
Cu       8.76061000       1.25152000      10.00000000  F       0.01011500       0.01137000      -0.05871500
Cu      11.26364000       1.25152000      10.00000000  F      -0.02123200       0.00282600      -0.05964500
Cu       1.25152000       3.75455000      10.00000000  F       0.00582700       0.01586100      -0.06644700
Cu       3.75455000       3.75455000      10.00000000  F       0.00312300      -0.00969600      -0.05437800
Cu       6.25758000       3.75455000      10.00000000  F      -0.00851500      -0.02974000      -0.07415700
Cu       8.76061000       3.75455000      10.00000000  F       0.01142400      -0.02688700      -0.07861300
Cu      11.26364000       3.75455000      10.00000000  F      -0.01069400      -0.00435900      -0.05875800
Cu       1.25152000       6.25758000      10.00000000  F      -0.00059800      -0.01263300      -0.05512000
Cu       3.75455000       6.25758000      10.00000000  F       0.00938000       0.01161500      -0.04299200
Cu       6.25758000       6.25758000      10.00000000  F      -0.01963600       0.02418200      -0.07058700
Cu       8.76061000       6.25758000      10.00000000  F       0.01358000       0.01985000      -0.08416100
Cu      11.26364000       6.25758000      10.00000000  F      -0.00160200      -0.00461400      -0.05027500
Cu       1.25152000       8.76061000      10.00000000  F       0.00120100       0.02197400      -0.06118900
Cu       3.75455000       8.76061000      10.00000000  F      -0.00089900       0.00119600      -0.06011300
Cu       6.25758000       8.76061000      10.00000000  F      -0.00829400      -0.01774400      -0.05765900
Cu       8.76061000       8.76061000      10.00000000  F       0.00374600      -0.01790100      -0.03778100
Cu      11.26364000       8.76061000      10.00000000  F       0.00501600       0.00436000      -0.06831400
Cu       1.25152000      11.26364000      10.00000000  F       0.00439900      -0.02288800      -0.02746000
Cu       3.75455000      11.26364000      10.00000000  F      -0.01051500      -0.01148500      -0.07438200
Cu       6.25758000      11.26364000      10.00000000  F      -0.00178300       0.00668600      -0.06981300
Cu       8.76061000      11.26364000      10.00000000  F       0.00359700       0.01130700      -0.05762300
Cu      11.26364000      11.26364000      10.00000000  F       0.00257400       0.00160600      -0.06057000
Cu       0.00000000       0.00000000      11.76991000  F      -0.02859700       0.03741600       0.08016300
Cu       2.50303000       0.00000000      11.76991000  F       0.03606100       0.01035700       0.07108800
Cu       5.00606000       0.00000000      11.76991000  F       0.06337400       0.08053600       0.06454200
Cu       7.50909000       0.00000000      11.76991000  F       0.01166100       0.07896500       0.07722200
Cu      10.01212000       0.00000000      11.76991000  F      -0.03929500       0.09745200       0.09012400
Cu       0.00000000       2.50303000      11.76991000  F      -0.02950300       0.05921300       0.11770900
Cu       2.50303000       2.50303000      11.76991000  F       0.07597800       0.03034100       0.05864500
Cu       5.00606000       2.50303000      11.76991000  F      -0.02572700      -0.03945200       0.06253100
Cu       7.50909000       2.50303000      11.76991000  F       0.00243900      -0.04478400       0.06935100
Cu      10.01212000       2.50303000      11.76991000  F       0.03649100      -0.06698500       0.03497900
Cu       0.00000000       5.00606000      11.76991000  F      -0.02865800       0.02025900       0.08984500
Cu       2.50303000       5.00606000      11.76991000  F       0.09800000       0.02762100       0.08753300
Cu       5.00606000       5.00606000      11.76991000  F      -0.07541700       0.01185100       0.13879000
Cu       7.50909000       5.00606000      11.76991000  F      -0.01086200       0.00125700       0.07526200
Cu      10.01212000       5.00606000      11.76991000  F       0.03858600       0.00712300       0.05855600
Cu       0.00000000       7.50909000      11.76991000  F      -0.04072700      -0.06204600       0.11400500
Cu       2.50303000       7.50909000      11.76991000  F       0.08232400      -0.05970700       0.11075200
Cu       5.00606000       7.50909000      11.76991000  F      -0.04456500       0.04059900       0.07091000
Cu       7.50909000       7.50909000      11.76991000  F      -0.00753600       0.03560200       0.06532400
Cu      10.01212000       7.50909000      11.76991000  F       0.05763600       0.05491600       0.05088000
Cu       0.00000000      10.01212000      11.76991000  F       0.00578400      -0.06668200       0.07690400
Cu       2.50303000      10.01212000      11.76991000  F       0.02967900      -0.02426900       0.04025900
Cu       5.00606000      10.01212000      11.76991000  F       0.02605300      -0.11205700       0.07829100
Cu       7.50909000      10.01212000      11.76991000  F       0.02610300      -0.07751800       0.08588600
Cu      10.01212000      10.01212000      11.76991000  F      -0.05412400      -0.09404100       0.10138700
Cu       1.25839000       1.24138000      13.56983000  T       0.00087700       0.00503100      -0.01043800
Cu       3.78632000       1.25686000      13.59518000  T       0.00431800       0.00463100      -0.00659500
Cu       6.28229000       1.27266000      13.61809000  T       0.00086800       0.00414000      -0.00681900
Cu       8.75820000       1.28118000      13.61629000  T      -0.00439400       0.00703000      -0.00350500
Cu      11.25834000       1.26082000      13.60199000  T      -0.00557100       0.00541700      -0.00621700
Cu       1.27063000       3.76777000      13.58429000  T       0.00077300       0.00511400      -0.00493600
Cu       3.76413000       3.75499000      13.61195000  T       0.00163100       0.00547300      -0.00409900
Cu       6.28124000       3.75075000      13.55962000  T       0.00031000       0.00162400      -0.00216600
Cu       8.75082000       3.76440000      13.56191000  T      -0.00428200       0.00313500      -0.00052300
Cu      11.23491000       3.75589000      13.59894000  T      -0.00608300       0.00386600      -0.00585300
Cu       1.27680000       6.25990000      13.59706000  T      -0.00044500      -0.00160900      -0.00439000
Cu       3.75457000       6.26441000      13.62829000  T       0.00027600      -0.00149200      -0.00043200
Cu       6.27765000       6.25677000      13.55989000  T      -0.00019400      -0.00361200      -0.00104400
Cu       8.75081000       6.24679000      13.56019000  T      -0.00413100      -0.00335100      -0.00088700
Cu      11.23931000       6.25034000      13.60470000  T      -0.00640800      -0.00254000      -0.00543200
Cu       1.27724000       8.75634000      13.58765000  T       0.00033800      -0.00334800      -0.01031900
Cu       3.76634000       8.74028000      13.61131000  T       0.00186200      -0.00534800      -0.00514400
Cu       6.27641000       8.73599000      13.61342000  T       0.00026000      -0.00649400      -0.00574800
Cu       8.75610000       8.73178000      13.61600000  T      -0.00401400      -0.00874600      -0.00295700
Cu      11.26045000       8.75163000      13.59906000  T      -0.00413200      -0.00511700      -0.00720200
Cu       1.24635000      11.25784000      13.59280000  T       0.00217300      -0.00006100      -0.01148800
Cu       3.74510000      11.25829000      13.57111000  T       0.00522900      -0.00161900      -0.01071500
Cu       6.25521000      11.26392000      13.56685000  T       0.00200100      -0.00038500      -0.00697800
Cu       8.76123000      11.26461000      13.57381000  T      -0.00330700      -0.00102300      -0.00865200
Cu      11.26947000      11.26508000      13.57708000  T      -0.00318600      -0.00079600      -0.01230700
Cu      12.51100000      12.51806000      15.37168000  T       0.00152400       0.00059500      -0.01686500
Cu       2.50560000       0.00911000      15.36783000  T      -0.00045700       0.00009300      -0.01549800
Cu       5.00004000      12.47579000      15.36120000  T      -0.00028700      -0.00058500      -0.01275400
Cu       7.50424000      12.49271000      15.35374000  T       0.00176200       0.00391000      -0.01137400
Cu      10.01133000      12.49485000      15.36107000  T       0.00176400       0.00113800      -0.01526400
Cu       0.05877000       2.50111000      15.35103000  T      -0.00377300       0.00168100      -0.01528100
Cu       2.52005000       2.46160000      15.34985000  T       0.00154800       0.00318300      -0.01237900
Cu       4.99931000       2.41029000      15.47441000  T      -0.00277500       0.00016700      -0.00775500
Cu       7.54778000       2.51232000      15.48007000  T      -0.00439300       0.00004000      -0.00826300
Cu      10.10198000       2.45495000      15.44665000  T      -0.00515500       0.00188200      -0.00796300
Cu      12.48334000       4.99559000      15.31670000  T      -0.01118700       0.00118000      -0.00837200
Cu       2.43679000       4.92866000      15.46660000  T      -0.00336100       0.00423600      -0.00217500
Pd       5.06145000       4.99272000      15.45584000  T      -0.01959600      -0.00250200      -0.00679600
Y        7.49669000       4.99395000      17.25112000  T      -0.00706400      -0.00348600      -0.00160300
Cu       9.98269000       5.00508000      15.44943000  T      -0.00820100      -0.00151200      -0.00361300
Cu       0.02848000       7.50699000      15.34576000  T      -0.00514400       0.00262100      -0.01268600
Cu       2.50458000       7.58960000      15.48265000  T      -0.00020600       0.00783500      -0.00953700
Cu       5.02084000       7.58599000      15.45898000  T      -0.00320000      -0.00339200      -0.00469000
Cu       7.54706000       7.49414000      15.48527000  T      -0.00470000      -0.00488600      -0.00387300
Cu      10.08349000       7.56276000      15.44645000  T      -0.00642000      -0.00341100      -0.00854800
Cu      12.51273000      10.00298000      15.36786000  T       0.00122900       0.00391500      -0.01534400
Cu       2.50839000      10.05794000      15.37595000  T      -0.00168500       0.00294700      -0.01331700
Cu       5.00622000      10.03537000      15.35418000  T      -0.00028900      -0.00295100      -0.01201500
Cu       7.50591000      10.02594000      15.35223000  T       0.00055000      -0.00420900      -0.01132800
Cu      10.01215000      10.03420000      15.35835000  T       0.00164800      -0.00197900      -0.01524800
O        6.13282000       3.39819000      16.69094000  T       0.00505300      -0.00034300      -0.01181600
O        6.13339000       6.57694000      16.68703000  T       0.00531800      -0.00095400      -0.01082700
O        8.99426000       6.42911000      16.55214000  T      -0.00442100      -0.00611900      -0.00908200
O        8.99538000       3.56362000      16.55416000  T      -0.00471100       0.00492500      -0.00922400
C        2.69488000       6.85977000      17.26856000  T      -0.02774200       0.01029800      -0.00313500
O        2.82458000       7.61631000      18.37495000  T      -0.01015500       0.01374500      -0.01372000
O        2.71791000       5.60644000      17.41858000  T      -0.04908700       0.01595000      -0.00001200
H        2.93032000       6.99783000      19.14022000  T      -0.01644400       0.01346200      -0.00121800
108
Lattice="12.515153631 0.0 0.0 0.0 12.515153631 0.0 0.0 0.0 25.30973" Properties=species:S:1:pos:R:3:move_mask:L:1:forces:R:3 stress="0.008147210382761816 4.1930458307683735e-05 0.00022072472872773554 4.1930458307683735e-05 0.0077751352992405385 -0.00010420823636574687 0.00022072472872773554 -0.00010420823636574687 0.0022579907564707863" free_energy=-445.30380516 energy=-445.30447521 pbc="T T T"
Cu       1.25152000       1.25152000      10.00000000  F       0.00646900      -0.00250500      -0.06241100
Cu       3.75455000       1.25152000      10.00000000  F       0.00418000       0.00770700      -0.06722100
Cu       6.25758000       1.25152000      10.00000000  F      -0.00118500       0.01512700      -0.05789100
Cu       8.76061000       1.25152000      10.00000000  F       0.01004400       0.01091200      -0.05944400
Cu      11.26364000       1.25152000      10.00000000  F      -0.02120500       0.00237400      -0.06020900
Cu       1.25152000       3.75455000      10.00000000  F       0.00571100       0.01554800      -0.06718300
Cu       3.75455000       3.75455000      10.00000000  F       0.00285100      -0.01006600      -0.05516400
Cu       6.25758000       3.75455000      10.00000000  F      -0.00861200      -0.02998200      -0.07528300
Cu       8.76061000       3.75455000      10.00000000  F       0.01135500      -0.02728300      -0.07973500
Cu      11.26364000       3.75455000      10.00000000  F      -0.01065300      -0.00480000      -0.05978200
Cu       1.25152000       6.25758000      10.00000000  F      -0.00073800      -0.01253900      -0.05593200
Cu       3.75455000       6.25758000      10.00000000  F       0.00918400       0.01176000      -0.04379900
Cu       6.25758000       6.25758000      10.00000000  F      -0.01975500       0.02427900      -0.07163300
Cu       8.76061000       6.25758000      10.00000000  F       0.01349600       0.02004600      -0.08516700
Cu      11.26364000       6.25758000      10.00000000  F      -0.00156900      -0.00433500      -0.05126400
Cu       1.25152000       8.76061000      10.00000000  F       0.00097700       0.02248800      -0.06183900
Cu       3.75455000       8.76061000      10.00000000  F      -0.00108500       0.00157300      -0.06091600
Cu       6.25758000       8.76061000      10.00000000  F      -0.00834400      -0.01739300      -0.05828000
Cu       8.76061000       8.76061000      10.00000000  F       0.00379800      -0.01748500      -0.03834300
Cu      11.26364000       8.76061000      10.00000000  F       0.00496600       0.00484300      -0.06895500
Cu       1.25152000      11.26364000      10.00000000  F       0.00413500      -0.02292100      -0.02795800
Cu       3.75455000      11.26364000      10.00000000  F      -0.01085400      -0.01147700      -0.07502700
Cu       6.25758000      11.26364000      10.00000000  F      -0.00173900       0.00664700      -0.07054500
Cu       8.76061000      11.26364000      10.00000000  F       0.00351400       0.01126400      -0.05807600
Cu      11.26364000      11.26364000      10.00000000  F       0.00272100       0.00149400      -0.06106000
Cu       0.00000000       0.00000000      11.76991000  F      -0.02943600       0.03884500       0.07382200
Cu       2.50303000       0.00000000      11.76991000  F       0.03717000       0.01129500       0.06458800
Cu       5.00606000       0.00000000      11.76991000  F       0.06442500       0.08134400       0.05818600
Cu       7.50909000       0.00000000      11.76991000  F       0.01176100       0.08009500       0.07154400
Cu      10.01212000       0.00000000      11.76991000  F      -0.04168200       0.09898900       0.08450300
Cu       0.00000000       2.50303000      11.76991000  F      -0.03088400       0.06083000       0.11276900
Cu       2.50303000       2.50303000      11.76991000  F       0.07690200       0.03214000       0.05321300
Cu       5.00606000       2.50303000      11.76991000  F      -0.02580400      -0.03765600       0.05723700
Cu       7.50909000       2.50303000      11.76991000  F       0.00207200      -0.04347300       0.06384000
Cu      10.01212000       2.50303000      11.76991000  F       0.03415100      -0.06609000       0.02953900
Cu       0.00000000       5.00606000      11.76991000  F      -0.02959800       0.02054900       0.08516300
Cu       2.50303000       5.00606000      11.76991000  F       0.09849500       0.02863700       0.08248900
Cu       5.00606000       5.00606000      11.76991000  F      -0.07594500       0.01258400       0.13472500
Cu       7.50909000       5.00606000      11.76991000  F      -0.01226400       0.00102900       0.07059600
Cu      10.01212000       5.00606000      11.76991000  F       0.03572600       0.00728500       0.05276500
Cu       0.00000000       7.50909000      11.76991000  F      -0.04204300      -0.06336000       0.10888800
Cu       2.50303000       7.50909000      11.76991000  F       0.08310700      -0.06143900       0.10546900
Cu       5.00606000       7.50909000      11.76991000  F      -0.04479100       0.03840400       0.06672900
Cu       7.50909000       7.50909000      11.76991000  F      -0.00847700       0.03383400       0.06033300
Cu      10.01212000       7.50909000      11.76991000  F       0.05517100       0.05368000       0.04526300
Cu       0.00000000      10.01212000      11.76991000  F       0.00474300      -0.06768500       0.06968700
Cu       2.50303000      10.01212000      11.76991000  F       0.03076800      -0.02509100       0.03332500
Cu       5.00606000      10.01212000      11.76991000  F       0.02725200      -0.11402300       0.07239000
Cu       7.50909000      10.01212000      11.76991000  F       0.02585700      -0.07979000       0.08074100
Cu      10.01212000      10.01212000      11.76991000  F      -0.05650000      -0.09598100       0.09551100
Cu       1.25842000       1.24219000      13.56785000  T      -0.00007500       0.00127100      -0.00377000
Cu       3.78690000       1.25760000      13.59381000  T      -0.00063400       0.00010200      -0.00445900
Cu       6.28230000       1.27325000      13.61669000  T      -0.00132400      -0.00059900      -0.00360000
Cu       8.75742000       1.28226000      13.61540000  T       0.00015900      -0.00056800      -0.00485900
Cu      11.25733000       1.26165000      13.60062000  T      -0.00035300       0.00030400      -0.00567600
Cu       1.27056000       3.76864000      13.58327000  T      -0.00146800       0.00135900      -0.00226100
Cu       3.76416000       3.75591000      13.61104000  T      -0.00185300       0.00153400      -0.00203900
Cu       6.28109000       3.75102000      13.55908000  T      -0.00183900       0.00039500      -0.00194000
Cu       8.74996000       3.76488000      13.56156000  T      -0.00193400       0.00046300      -0.00303600
Cu      11.23375000       3.75651000      13.59772000  T      -0.00153300      -0.00052800      -0.00375400
Cu       1.27647000       6.25972000      13.59610000  T      -0.00202900       0.00070400      -0.00191800
Cu       3.75437000       6.26424000      13.62806000  T      -0.00247100      -0.00002900      -0.00104500
Cu       6.27742000       6.25609000      13.55954000  T      -0.00185600      -0.00156900      -0.00171200
Cu       8.74996000       6.24621000      13.55979000  T      -0.00212000      -0.00137100      -0.00264500
Cu      11.23810000       6.24996000      13.60358000  T      -0.00167700       0.00091800      -0.00311600
Cu       1.27710000       8.75598000      13.58559000  T      -0.00085100       0.00097600      -0.00465200
Cu       3.76653000       8.73951000      13.61015000  T      -0.00080300       0.00040900      -0.00461500
Cu       6.27632000       8.73492000      13.61227000  T      -0.00147100      -0.00123500      -0.00280600
Cu       8.75533000       8.73038000      13.61525000  T      -0.00060400      -0.00040400      -0.00426200
Cu      11.25965000       8.75089000      13.59756000  T      -0.00086500       0.00004900      -0.00473000
Cu       1.24663000      11.25794000      13.59052000  T       0.00077100       0.00078600      -0.00566300
Cu       3.74590000      11.25805000      13.56908000  T       0.00073200       0.00003200      -0.00341700
Cu       6.25554000      11.26382000      13.56550000  T       0.00063600      -0.00084800      -0.00223200
Cu       8.76067000      11.26441000      13.57216000  T       0.00026900      -0.00044400      -0.00296600
Cu      11.26895000      11.26499000      13.57472000  T       0.00046000       0.00018000      -0.00443000
Cu      12.51123000      12.51818000      15.36816000  T       0.00051700       0.00133500      -0.01129800
Cu       2.50548000       0.00926000      15.36468000  T       0.00120600       0.00254500      -0.01021000
Cu       4.99994000      12.47566000      15.35862000  T       0.00086400      -0.00181500      -0.00702400
Cu       7.50451000      12.49326000      15.35145000  T       0.00018700      -0.00208700      -0.00605900
Cu      10.01162000      12.49500000      15.35803000  T       0.00017700      -0.00105300      -0.00816900
Cu       0.05795000       2.50133000      15.34796000  T      -0.00106000       0.00111500      -0.00799100
Cu       2.52012000       2.46218000      15.34733000  T      -0.00200000       0.00216700      -0.00671100
Cu       4.99855000       2.41014000      15.47261000  T      -0.00176600      -0.00034800      -0.00562400
Cu       7.54702000       2.51209000      15.47821000  T      -0.00155200      -0.00103300      -0.00691600
Cu      10.10100000       2.45515000      15.44486000  T      -0.00097000      -0.00069900      -0.00547400
Cu      12.48114000       4.99580000      15.31508000  T      -0.00285700       0.00072600      -0.00477600
Cu       2.43571000       4.92949000      15.46599000  T      -0.00687200       0.00250000      -0.00140100
Pd       5.05996000       4.99253000      15.45544000  T      -0.00391700      -0.00055000      -0.00076700
Y        7.49595000       4.99358000      17.25044000  T       0.00051600      -0.00137800      -0.00478100
Cu       9.98131000       5.00478000      15.44828000  T      -0.00171000      -0.00047300      -0.00690400
Cu       0.02742000       7.50766000      15.34319000  T      -0.00171700       0.00169500      -0.00649600
Cu       2.50432000       7.59137000      15.48036000  T      -0.00337900       0.00363900      -0.00703300
Cu       5.01987000       7.58554000      15.45775000  T      -0.00211400      -0.00206000      -0.00421300
Cu       7.54622000       7.49354000      15.48407000  T      -0.00242600       0.00035800      -0.00686300
Cu      10.08227000       7.56224000      15.44456000  T      -0.00191000      -0.00095100      -0.00511400
Cu      12.51288000      10.00376000      15.36470000  T       0.00017900       0.00107500      -0.01028000
Cu       2.50802000      10.05865000      15.37322000  T       0.00058700       0.00277900      -0.00864400
Cu       5.00608000      10.03484000      15.35174000  T       0.00003500      -0.00059600      -0.00654400
Cu       7.50598000      10.02531000      15.34997000  T       0.00001300       0.00052700      -0.00591200
Cu      10.01240000      10.03387000      15.35534000  T      -0.00013500      -0.00037900      -0.00792300
O        6.13392000       3.39797000      16.68741000  T      -0.00118900      -0.00040100      -0.00874900
O        6.13430000       6.57659000      16.68396000  T      -0.00304800      -0.00320900      -0.00647000
O        8.99287000       6.42773000      16.54917000  T      -0.00518500      -0.00286600      -0.00633200
O        8.99391000       3.56452000      16.55102000  T      -0.00512200       0.00027200      -0.00742400
C        2.68656000       6.86274000      17.26698000  T      -0.02751800       0.01057400      -0.00414600
O        2.82217000       7.62035000      18.37196000  T      -0.01042900       0.01730600      -0.01293600
O        2.70121000       5.60962000      17.41885000  T      -0.06408500       0.01321100       0.00085200
H        2.92511000       7.00260000      19.13837000  T      -0.01842800       0.01595600      -0.00625900
108
Lattice="12.515153631 0.0 0.0 0.0 12.515153631 0.0 0.0 0.0 25.30973" Properties=species:S:1:pos:R:3:move_mask:L:1:forces:R:3 stress="0.008139832918975022 4.458309968618411e-05 0.00022312146823207473 4.458309968618411e-05 0.007770685103233784 -0.00010500090802473406 0.00022312146823207473 -0.00010500090802473406 0.002254813828325712" free_energy=-445.30408258 energy=-445.30474927 pbc="T T T"
Cu       1.25152000       1.25152000      10.00000000  F       0.00622200      -0.00244300      -0.06228100
Cu       3.75455000       1.25152000      10.00000000  F       0.00434600       0.00773200      -0.06717500
Cu       6.25758000       1.25152000      10.00000000  F      -0.00088400       0.01513000      -0.05775400
Cu       8.76061000       1.25152000      10.00000000  F       0.01012900       0.01094400      -0.05916700
Cu      11.26364000       1.25152000      10.00000000  F      -0.02150900       0.00242800      -0.05994500
Cu       1.25152000       3.75455000      10.00000000  F       0.00543300       0.01568700      -0.06712200
Cu       3.75455000       3.75455000      10.00000000  F       0.00293100      -0.00998000      -0.05520100
Cu       6.25758000       3.75455000      10.00000000  F      -0.00832100      -0.02998600      -0.07520500
Cu       8.76061000       3.75455000      10.00000000  F       0.01150700      -0.02726100      -0.07951300
Cu      11.26364000       3.75455000      10.00000000  F      -0.01089500      -0.00468500      -0.05954200
Cu       1.25152000       6.25758000      10.00000000  F      -0.00101600      -0.01247100      -0.05584000
Cu       3.75455000       6.25758000      10.00000000  F       0.00920000       0.01181800      -0.04384400
Cu       6.25758000       6.25758000      10.00000000  F      -0.01949100       0.02433400      -0.07160800
Cu       8.76061000       6.25758000      10.00000000  F       0.01368700       0.02008000      -0.08496700
Cu      11.26364000       6.25758000      10.00000000  F      -0.00175600      -0.00430000      -0.05098900
Cu       1.25152000       8.76061000      10.00000000  F       0.00072800       0.02241500      -0.06165500
Cu       3.75455000       8.76061000      10.00000000  F      -0.00103700       0.00157600      -0.06086000
Cu       6.25758000       8.76061000      10.00000000  F      -0.00808300      -0.01734000      -0.05820600
Cu       8.76061000       8.76061000      10.00000000  F       0.00392100      -0.01746600      -0.03811300
Cu      11.26364000       8.76061000      10.00000000  F       0.00477200       0.00479400      -0.06863300
Cu       1.25152000      11.26364000      10.00000000  F       0.00391600      -0.02298200      -0.02776200
Cu       3.75455000      11.26364000      10.00000000  F      -0.01071500      -0.01150000      -0.07489500
Cu       6.25758000      11.26364000      10.00000000  F      -0.00145300       0.00668900      -0.07031900
Cu       8.76061000      11.26364000      10.00000000  F       0.00358900       0.01130100      -0.05776300
Cu      11.26364000      11.26364000      10.00000000  F       0.00244400       0.00147900      -0.06075100
Cu       0.00000000       0.00000000      11.76991000  F      -0.02954600       0.03854300       0.07492900
Cu       2.50303000       0.00000000      11.76991000  F       0.03685000       0.01103700       0.06567100
Cu       5.00606000       0.00000000      11.76991000  F       0.06440600       0.08110500       0.05913400
Cu       7.50909000       0.00000000      11.76991000  F       0.01195700       0.07988300       0.07235600
Cu      10.01212000       0.00000000      11.76991000  F      -0.04133200       0.09872400       0.08539400
Cu       0.00000000       2.50303000      11.76991000  F      -0.03094900       0.06053700       0.11353400
Cu       2.50303000       2.50303000      11.76991000  F       0.07657400       0.03181300       0.05403300
Cu       5.00606000       2.50303000      11.76991000  F      -0.02563400      -0.03803900       0.05792100
Cu       7.50909000       2.50303000      11.76991000  F       0.00237000      -0.04377200       0.06458200
Cu      10.01212000       2.50303000      11.76991000  F       0.03449700      -0.06630700       0.03030700
Cu       0.00000000       5.00606000      11.76991000  F      -0.02972600       0.02057200       0.08579700
Cu       2.50303000       5.00606000      11.76991000  F       0.09818000       0.02856100       0.08311000
Cu       5.00606000       5.00606000      11.76991000  F      -0.07578300       0.01250200       0.13520400
Cu       7.50909000       5.00606000      11.76991000  F      -0.01180100       0.00101400       0.07117000
Cu      10.01212000       5.00606000      11.76991000  F       0.03623000       0.00724700       0.05357100
Cu       0.00000000       7.50909000      11.76991000  F      -0.04204600      -0.06303700       0.10962300
Cu       2.50303000       7.50909000      11.76991000  F       0.08277000      -0.06104300       0.10618900
Cu       5.00606000       7.50909000      11.76991000  F      -0.04471400       0.03888000       0.06720700
Cu       7.50909000       7.50909000      11.76991000  F      -0.00812200       0.03421100       0.06100700
Cu      10.01212000       7.50909000      11.76991000  F       0.05563600       0.05396700       0.04606400
Cu       0.00000000      10.01212000      11.76991000  F       0.00469400      -0.06747600       0.07087500
Cu       2.50303000      10.01212000      11.76991000  F       0.03044500      -0.02489400       0.03442300
Cu       5.00606000      10.01212000      11.76991000  F       0.02713800      -0.11358000       0.07324900
Cu       7.50909000      10.01212000      11.76991000  F       0.02607500      -0.07927200       0.08146700
Cu      10.01212000      10.01212000      11.76991000  F      -0.05607500      -0.09556400       0.09645300
Cu       1.25842000       1.24206000      13.56817000  T      -0.00023000       0.00171200      -0.00502000
Cu       3.78680000       1.25747000      13.59401000  T       0.00016300       0.00074800      -0.00492800
Cu       6.28229000       1.27315000      13.61691000  T      -0.00069700       0.00008700      -0.00429400
Cu       8.75756000       1.28207000      13.61553000  T      -0.00041600       0.00068100      -0.00473300
Cu      11.25750000       1.26151000      13.60082000  T      -0.00141800       0.00106100      -0.00581500
Cu       1.27057000       3.76850000      13.58343000  T      -0.00137300       0.00194700      -0.00292500
Cu       3.76415000       3.75576000      13.61118000  T      -0.00135200       0.00199200      -0.00271500
Cu       6.28111000       3.75098000      13.55917000  T      -0.00125000       0.00058700      -0.00184800
Cu       8.75009000       3.76480000      13.56160000  T      -0.00209600       0.00075900      -0.00265400
Cu      11.23394000       3.75640000      13.59790000  T      -0.00252600       0.00015700      -0.00429400
Cu       1.27652000       6.25976000      13.59625000  T      -0.00205800       0.00036500      -0.00264100
Cu       3.75439000       6.26427000      13.62809000  T      -0.00208100      -0.00009500      -0.00129600
Cu       6.27744000       6.25619000      13.55959000  T      -0.00138700      -0.00192800      -0.00154000
Cu       8.75010000       6.24630000      13.55984000  T      -0.00218200      -0.00156000      -0.00239900
Cu      11.23830000       6.25003000      13.60376000  T      -0.00264400       0.00040400      -0.00375300
Cu       1.27712000       8.75604000      13.58591000  T      -0.00094800       0.00051500      -0.00595500
Cu       3.76650000       8.73964000      13.61032000  T      -0.00038100      -0.00038900      -0.00488000
Cu       6.27633000       8.73509000      13.61245000  T      -0.00094300      -0.00195300      -0.00350300
Cu       8.75546000       8.73062000      13.61535000  T      -0.00098000      -0.00172800      -0.00419000
Cu      11.25978000       8.75102000      13.59779000  T      -0.00154600      -0.00069000      -0.00527800
Cu       1.24659000      11.25793000      13.59088000  T       0.00071700       0.00067600      -0.00683600
Cu       3.74577000      11.25809000      13.56941000  T       0.00138000      -0.00020600      -0.00495300
Cu       6.25549000      11.26383000      13.56572000  T       0.00105900      -0.00071300      -0.00335600
Cu       8.76077000      11.26444000      13.57242000  T      -0.00010300      -0.00049400      -0.00422300
Cu      11.26904000      11.26501000      13.57510000  T      -0.00024800       0.00005800      -0.00595900
Cu      12.51120000      12.51817000      15.36869000  T       0.00046200       0.00116000      -0.01248600
Cu       2.50552000       0.00925000      15.36515000  T       0.00067500       0.00205000      -0.01110100
Cu       4.99996000      12.47567000      15.35902000  T       0.00070200      -0.00156000      -0.00801700
Cu       7.50447000      12.49315000      15.35180000  T       0.00072300      -0.00104600      -0.00709600
Cu      10.01157000      12.49497000      15.35850000  T       0.00055700      -0.00069100      -0.00961600
Cu       0.05809000       2.50130000      15.34843000  T      -0.00182500       0.00107000      -0.00927200
Cu       2.52010000       2.46210000      15.34772000  T      -0.00163700       0.00213600      -0.00746700
Cu       4.99868000       2.41016000      15.47289000  T      -0.00171700      -0.00029700      -0.00557700
Cu       7.54714000       2.51213000      15.47848000  T      -0.00177300      -0.00089600      -0.00684800
Cu      10.10116000       2.45511000      15.44514000  T      -0.00187900      -0.00017300      -0.00556900
Cu      12.48150000       4.99577000      15.31532000  T      -0.00445800       0.00081000      -0.00539000
Cu       2.43586000       4.92937000      15.46609000  T      -0.00638100       0.00264800      -0.00129700
Pd       5.06007000       4.99255000      15.45547000  T      -0.00000300      -0.00010700       0.00020000
Y        7.49606000       4.99363000      17.25053000  T      -0.00253900      -0.00160200      -0.00334700
Cu       9.98153000       5.00483000      15.44844000  T      -0.00275800      -0.00063800      -0.00598900
Cu       0.02759000       7.50756000      15.34359000  T      -0.00261100       0.00196400      -0.00760100
Cu       2.50435000       7.59108000      15.48071000  T      -0.00337000       0.00444800      -0.00724700
Cu       5.02003000       7.58560000      15.45794000  T      -0.00204300      -0.00218900      -0.00371700
Cu       7.54634000       7.49364000      15.48423000  T      -0.00255200      -0.00048900      -0.00580200
Cu      10.08247000       7.56232000      15.44486000  T      -0.00285900      -0.00136700      -0.00524700
Cu      12.51286000      10.00363000      15.36517000  T       0.00010400       0.00175000      -0.01131600
Cu       2.50809000      10.05855000      15.37363000  T      -0.00007000       0.00296700      -0.00950200
Cu       5.00610000      10.03492000      15.35212000  T      -0.00001600      -0.00084600      -0.00748900
Cu       7.50597000      10.02542000      15.35032000  T       0.00039900      -0.00008400      -0.00696000
Cu      10.01236000      10.03392000      15.35580000  T       0.00027600      -0.00051300      -0.00934600
O        6.13371000       3.39801000      16.68802000  T      -0.00049500      -0.00078100      -0.00884500
O        6.13412000       6.57663000      16.68450000  T      -0.00163800      -0.00240500      -0.00732500
O        8.99309000       6.42796000      16.54969000  T      -0.00417600      -0.00248800      -0.00664800
O        8.99415000       3.56436000      16.55157000  T      -0.00391800       0.00023200      -0.00748800
C        2.68789000       6.86228000      17.26723000  T      -0.02777400       0.01179800      -0.00230600
O        2.82254000       7.61972000      18.37244000  T      -0.01155600       0.01496400      -0.01368100
O        2.70389000       5.60918000      17.41880000  T      -0.06482300       0.01035100       0.00094700
H        2.92592000       7.00184000      19.13868000  T      -0.01724500       0.01622300      -0.00572400
108
Lattice="12.515153631 0.0 0.0 0.0 12.515153631 0.0 0.0 0.0 25.30973" Properties=species:S:1:pos:R:3:move_mask:L:1:forces:R:3 stress="0.008162645634830126 4.253588469289441e-05 0.00022586149073833747 4.253588469289441e-05 0.007792012339916925 -0.00010499466651560817 0.00022586149073833747 -0.00010499466651560817 0.0022838555702884467" free_energy=-445.30304522 energy=-445.30371152 pbc="T T T"
Cu       1.25152000       1.25152000      10.00000000  F       0.00612100      -0.00249200      -0.06260000
Cu       3.75455000       1.25152000      10.00000000  F       0.00400200       0.00768900      -0.06761200
Cu       6.25758000       1.25152000      10.00000000  F      -0.00120800       0.01513600      -0.05827400
Cu       8.76061000       1.25152000      10.00000000  F       0.01011900       0.01096200      -0.05963500
Cu      11.26364000       1.25152000      10.00000000  F      -0.02138000       0.00241000      -0.06030700
Cu       1.25152000       3.75455000      10.00000000  F       0.00533000       0.01552200      -0.06752800
Cu       3.75455000       3.75455000      10.00000000  F       0.00264500      -0.01009600      -0.05569800
Cu       6.25758000       3.75455000      10.00000000  F      -0.00858300      -0.03005700      -0.07573300
Cu       8.76061000       3.75455000      10.00000000  F       0.01146400      -0.02730700      -0.07996100
Cu      11.26364000       3.75455000      10.00000000  F      -0.01084800      -0.00480700      -0.05990300
Cu       1.25152000       6.25758000      10.00000000  F      -0.00110500      -0.01251500      -0.05630100
Cu       3.75455000       6.25758000      10.00000000  F       0.00894900       0.01177600      -0.04435400
Cu       6.25758000       6.25758000      10.00000000  F      -0.01973700       0.02429400      -0.07217300
Cu       8.76061000       6.25758000      10.00000000  F       0.01361100       0.02000500      -0.08550100
Cu      11.26364000       6.25758000      10.00000000  F      -0.00174500      -0.00437700      -0.05145900
Cu       1.25152000       8.76061000      10.00000000  F       0.00066200       0.02250300      -0.06206400
Cu       3.75455000       8.76061000      10.00000000  F      -0.00132300       0.00165000      -0.06132200
Cu       6.25758000       8.76061000      10.00000000  F      -0.00837000      -0.01732400      -0.05879200
Cu       8.76061000       8.76061000      10.00000000  F       0.00384100      -0.01746200      -0.03871200
Cu      11.26364000       8.76061000      10.00000000  F       0.00483900       0.00485100      -0.06914800
Cu       1.25152000      11.26364000      10.00000000  F       0.00384600      -0.02285500      -0.02810900
Cu       3.75455000      11.26364000      10.00000000  F      -0.01105100      -0.01141300      -0.07528400
Cu       6.25758000      11.26364000      10.00000000  F      -0.00178400       0.00673600      -0.07086300
Cu       8.76061000      11.26364000      10.00000000  F       0.00356800       0.01135800      -0.05833700
Cu      11.26364000      11.26364000      10.00000000  F       0.00255300       0.00159000      -0.06116800
Cu       0.00000000       0.00000000      11.76991000  F      -0.02957100       0.03843800       0.07494500
Cu       2.50303000       0.00000000      11.76991000  F       0.03639700       0.01098300       0.06563900
Cu       5.00606000       0.00000000      11.76991000  F       0.06403300       0.08101700       0.05917300
Cu       7.50909000       0.00000000      11.76991000  F       0.01192300       0.07972500       0.07246700
Cu      10.01212000       0.00000000      11.76991000  F      -0.04100500       0.09852300       0.08547400
Cu       0.00000000       2.50303000      11.76991000  F      -0.03091800       0.06019300       0.11351200
Cu       2.50303000       2.50303000      11.76991000  F       0.07613300       0.03146800       0.05399800
Cu       5.00606000       2.50303000      11.76991000  F      -0.02595200      -0.03839200       0.05785100
Cu       7.50909000       2.50303000      11.76991000  F       0.00238200      -0.04406600       0.06465300
Cu      10.01212000       2.50303000      11.76991000  F       0.03480700      -0.06654200       0.03041000
Cu       0.00000000       5.00606000      11.76991000  F      -0.02980400       0.02040600       0.08584900
Cu       2.50303000       5.00606000      11.76991000  F       0.09776000       0.02831800       0.08302100
Cu       5.00606000       5.00606000      11.76991000  F      -0.07599800       0.01233800       0.13500500
Cu       7.50909000       5.00606000      11.76991000  F      -0.01167600       0.00098600       0.07113100
Cu      10.01212000       5.00606000      11.76991000  F       0.03654600       0.00715300       0.05374900
Cu       0.00000000       7.50909000      11.76991000  F      -0.04211000      -0.06282300       0.10962900
Cu       2.50303000       7.50909000      11.76991000  F       0.08238400      -0.06081600       0.10612900
Cu       5.00606000       7.50909000      11.76991000  F      -0.04491200       0.03917700       0.06703400
Cu       7.50909000       7.50909000      11.76991000  F      -0.00802900       0.03448100       0.06102000
Cu      10.01212000       7.50909000      11.76991000  F       0.05585000       0.05415800       0.04620100
Cu       0.00000000      10.01212000      11.76991000  F       0.00463800      -0.06721700       0.07100100
Cu       2.50303000      10.01212000      11.76991000  F       0.03003000      -0.02462900       0.03442200
Cu       5.00606000      10.01212000      11.76991000  F       0.02681000      -0.11327900       0.07325300
Cu       7.50909000      10.01212000      11.76991000  F       0.02608600      -0.07899700       0.08152400
Cu      10.01212000      10.01212000      11.76991000  F      -0.05581500      -0.09525100       0.09655600
Cu       1.25842000       1.24200000      13.56832000  T      -0.00097200       0.00171800      -0.00580200
Cu       3.78675000       1.25741000      13.59411000  T       0.00070500       0.00134400      -0.00445500
Cu       6.28228000       1.27310000      13.61701000  T       0.00028900       0.00085200      -0.00435900
Cu       8.75763000       1.28198000      13.61558000  T      -0.00140600       0.00210100      -0.00322800
Cu      11.25759000       1.26144000      13.60091000  T      -0.00280600       0.00172600      -0.00445100
Cu       1.27057000       3.76844000      13.58351000  T      -0.00145100       0.00180800      -0.00342000
Cu       3.76414000       3.75569000      13.61125000  T      -0.00085600       0.00169600      -0.00338100
Cu       6.28111000       3.75096000      13.55921000  T      -0.00007600       0.00028200      -0.00185600
Cu       8.75015000       3.76477000      13.56162000  T      -0.00156900       0.00078500      -0.00145700
Cu      11.23403000       3.75634000      13.59799000  T      -0.00321700       0.00112300      -0.00388100
Cu       1.27654000       6.25977000      13.59633000  T      -0.00216100      -0.00023800      -0.00317400
Cu       3.75440000       6.26428000      13.62811000  T      -0.00138100      -0.00011000      -0.00175600
Cu       6.27745000       6.25624000      13.55962000  T      -0.00024600      -0.00150400      -0.00154000
Cu       8.75016000       6.24634000      13.55987000  T      -0.00155400      -0.00121800      -0.00162800
Cu      11.23840000       6.25007000      13.60384000  T      -0.00336800      -0.00068300      -0.00359700
Cu       1.27714000       8.75608000      13.58607000  T      -0.00151100      -0.00023800      -0.00608500
Cu       3.76648000       8.73970000      13.61040000  T      -0.00010800      -0.00114700      -0.00394100
Cu       6.27632000       8.73517000      13.61254000  T       0.00008600      -0.00195200      -0.00373400
Cu       8.75553000       8.73073000      13.61540000  T      -0.00145100      -0.00277000      -0.00287500
Cu      11.25985000       8.75108000      13.59790000  T      -0.00237400      -0.00132200      -0.00464900
Cu       1.24658000      11.25792000      13.59105000  T      -0.00025100       0.00052900      -0.00665300
Cu       3.74571000      11.25811000      13.56957000  T       0.00136500      -0.00027000      -0.00590800
Cu       6.25546000      11.26384000      13.56583000  T       0.00120100      -0.00008500      -0.00418300
Cu       8.76082000      11.26445000      13.57255000  T      -0.00096100      -0.00030700      -0.00491300
Cu      11.26909000      11.26501000      13.57528000  T      -0.00164900      -0.00000500      -0.00668800
Cu      12.51119000      12.51817000      15.36893000  T      -0.00022300       0.00042200      -0.00993600
Cu       2.50554000       0.00925000      15.36536000  T      -0.00092900       0.00051000      -0.00862100
Cu       4.99998000      12.47567000      15.35920000  T      -0.00024500      -0.00040500      -0.00699900
Cu       7.50445000      12.49309000      15.35196000  T       0.00105800       0.00114900      -0.00654400
Cu      10.01155000      12.49495000      15.35872000  T       0.00061300       0.00037800      -0.00880900
Cu       0.05816000       2.50129000      15.34865000  T      -0.00294100       0.00030900      -0.00857800
Cu       2.52009000       2.46206000      15.34790000  T      -0.00097100       0.00103300      -0.00681400
Cu       4.99873000       2.41018000      15.47302000  T      -0.00165700      -0.00075800      -0.00480000
Cu       7.54719000       2.51215000      15.47860000  T      -0.00139300      -0.00052500      -0.00503600
Cu      10.10124000       2.45509000      15.44527000  T      -0.00291400       0.00066600      -0.00518100
Cu      12.48168000       4.99576000      15.31543000  T      -0.00613600       0.00049200      -0.00461300
Cu       2.43591000       4.92931000      15.46613000  T      -0.00445700       0.00221800      -0.00147800
Pd       5.06002000       4.99254000      15.45548000  T       0.00701300       0.00027100       0.00025400
Y        7.49609000       4.99363000      17.25059000  T      -0.00262900      -0.00184800      -0.00421600
Cu       9.98164000       5.00485000      15.44850000  T      -0.00366600      -0.00080700      -0.00370700
Cu       0.02768000       7.50750000      15.34378000  T      -0.00337700       0.00185700      -0.00694200
Cu       2.50436000       7.59095000      15.48087000  T      -0.00266000       0.00495100      -0.00618600
Cu       5.02011000       7.58562000      15.45803000  T      -0.00229000      -0.00063800      -0.00350400
Cu       7.54640000       7.49369000      15.48430000  T      -0.00167700      -0.00121200      -0.00373200
Cu      10.08256000       7.56235000      15.44500000  T      -0.00347200      -0.00146400      -0.00535500
Cu      12.51285000      10.00357000      15.36538000  T      -0.00044400       0.00219200      -0.00886900
Cu       2.50813000      10.05850000      15.37381000  T      -0.00153600       0.00214300      -0.00733100
Cu       5.00612000      10.03496000      15.35229000  T      -0.00040900      -0.00095300      -0.00662100
Cu       7.50596000      10.02547000      15.35048000  T       0.00063000      -0.00108900      -0.00648800
Cu      10.01234000      10.03395000      15.35602000  T       0.00044600      -0.00056600      -0.00863200
O        6.13357000       3.39804000      16.68838000  T       0.00246100      -0.00226900      -0.01194600
O        6.13399000       6.57664000      16.68481000  T       0.00214500      -0.00076500      -0.01008300
O        8.99321000       6.42809000      16.55001000  T      -0.00369700      -0.00346400      -0.01026700
O        8.99429000       3.56427000      16.55190000  T      -0.00380900       0.00114700      -0.01123300
C        2.68859000       6.86208000      17.26736000  T      -0.02839000       0.01317800      -0.00266700
O        2.82274000       7.61939000      18.37274000  T      -0.01241500       0.01526900      -0.01450200
O        2.70540000       5.60897000      17.41878000  T      -0.06275400       0.00989600      -0.00008400
H        2.92633000       7.00144000      19.13885000  T      -0.01795500       0.01543900      -0.00567600
108
Lattice="12.515153631 0.0 0.0 0.0 12.515153631 0.0 0.0 0.0 25.30973" Properties=species:S:1:pos:R:3:move_mask:L:1:forces:R:3 stress="0.008184047769622779 4.0407530080968216e-05 0.000226635437869947 4.0407530080968216e-05 0.007811423433298424 -0.00010548150422742707 0.000226635437869947 -0.00010548150422742707 0.0023116053198621238" free_energy=-445.3030568 energy=-445.30371903 pbc="T T T"
Cu       1.25152000       1.25152000      10.00000000  F       0.00658200      -0.00241100      -0.06172700
Cu       3.75455000       1.25152000      10.00000000  F       0.00426300       0.00776000      -0.06648900
Cu       6.25758000       1.25152000      10.00000000  F      -0.00124300       0.01519800      -0.05719900
Cu       8.76061000       1.25152000      10.00000000  F       0.01012400       0.01102300      -0.05881500
Cu      11.26364000       1.25152000      10.00000000  F      -0.02112500       0.00246700      -0.05961200
Cu       1.25152000       3.75455000      10.00000000  F       0.00579300       0.01559500      -0.06651300
Cu       3.75455000       3.75455000      10.00000000  F       0.00290200      -0.01001100      -0.05445700
Cu       6.25758000       3.75455000      10.00000000  F      -0.00860500      -0.02998400      -0.07451900
Cu       8.76061000       3.75455000      10.00000000  F       0.01145000      -0.02722700      -0.07905200
Cu      11.26364000       3.75455000      10.00000000  F      -0.01058400      -0.00471900      -0.05908900
Cu       1.25152000       6.25758000      10.00000000  F      -0.00064100      -0.01254900      -0.05522200
Cu       3.75455000       6.25758000      10.00000000  F       0.00919600       0.01173000      -0.04307500
Cu       6.25758000       6.25758000      10.00000000  F      -0.01975900       0.02425400      -0.07091300
Cu       8.76061000       6.25758000      10.00000000  F       0.01360000       0.01996400      -0.08453200
Cu      11.26364000       6.25758000      10.00000000  F      -0.00147600      -0.00443400      -0.05060000
Cu       1.25152000       8.76061000      10.00000000  F       0.00112400       0.02233500      -0.06108400
Cu       3.75455000       8.76061000      10.00000000  F      -0.00106900       0.00150100      -0.06010300
Cu       6.25758000       8.76061000      10.00000000  F      -0.00838800      -0.01745200      -0.05762900
Cu       8.76061000       8.76061000      10.00000000  F       0.00382400      -0.01759100      -0.03779700
Cu      11.26364000       8.76061000      10.00000000  F       0.00510400       0.00470900      -0.06833800
Cu       1.25152000      11.26364000      10.00000000  F       0.00429500      -0.02292300      -0.02724900
Cu       3.75455000      11.26364000      10.00000000  F      -0.01076200      -0.01148900      -0.07418400
Cu       6.25758000      11.26364000      10.00000000  F      -0.00182100       0.00665400      -0.06977500
Cu       8.76061000      11.26364000      10.00000000  F       0.00357900       0.01127800      -0.05749500
Cu      11.26364000      11.26364000      10.00000000  F       0.00278000       0.00152700      -0.06042600
Cu       0.00000000       0.00000000      11.76991000  F      -0.02890400       0.03816600       0.07651200
Cu       2.50303000       0.00000000      11.76991000  F       0.03674300       0.01079100       0.06727600
Cu       5.00606000       0.00000000      11.76991000  F       0.06391000       0.08087100       0.06083300
Cu       7.50909000       0.00000000      11.76991000  F       0.01167000       0.07952900       0.07398500
Cu      10.01212000       0.00000000      11.76991000  F      -0.04060100       0.09824200       0.08692200
Cu       0.00000000       2.50303000      11.76991000  F      -0.03016800       0.06002700       0.11488900
Cu       2.50303000       2.50303000      11.76991000  F       0.07651800       0.03126000       0.05551000
Cu       5.00606000       2.50303000      11.76991000  F      -0.02590700      -0.03856400       0.05943500
Cu       7.50909000       2.50303000      11.76991000  F       0.00216200      -0.04420400       0.06619900
Cu      10.01212000       2.50303000      11.76991000  F       0.03518300      -0.06661400       0.03183600
Cu       0.00000000       5.00606000      11.76991000  F      -0.02910000       0.02041100       0.08720100
Cu       2.50303000       5.00606000      11.76991000  F       0.09822900       0.02821000       0.08456200
Cu       5.00606000       5.00606000      11.76991000  F      -0.07587600       0.01226500       0.13646600
Cu       7.50909000       5.00606000      11.76991000  F      -0.01179100       0.00106500       0.07263700
Cu      10.01212000       5.00606000      11.76991000  F       0.03699600       0.00716500       0.05526400
Cu       0.00000000       7.50909000      11.76991000  F      -0.04135300      -0.06271400       0.11107300
Cu       2.50303000       7.50909000      11.76991000  F       0.08276800      -0.06061900       0.10764700
Cu       5.00606000       7.50909000      11.76991000  F      -0.04485800       0.03938700       0.06851200
Cu       7.50909000       7.50909000      11.76991000  F      -0.00816400       0.03463900       0.06251200
Cu      10.01212000       7.50909000      11.76991000  F       0.05624600       0.05425800       0.04766900
Cu       0.00000000      10.01212000      11.76991000  F       0.00532500      -0.06719600       0.07270900
Cu       2.50303000      10.01212000      11.76991000  F       0.03036700      -0.02464600       0.03618300
Cu       5.00606000      10.01212000      11.76991000  F       0.02665900      -0.11314300       0.07486100
Cu       7.50909000      10.01212000      11.76991000  F       0.02588000      -0.07880500       0.08296900
Cu      10.01212000      10.01212000      11.76991000  F      -0.05540400      -0.09508600       0.09804300
Cu       1.25842000       1.24190000      13.56858000  T       0.00034800       0.00297400      -0.00728100
Cu       3.78667000       1.25732000      13.59429000  T       0.00159300       0.00213200      -0.00578600
Cu       6.28228000       1.27302000      13.61720000  T      -0.00042800       0.00145900      -0.00538300
Cu       8.75773000       1.28184000      13.61570000  T      -0.00209600       0.00297000      -0.00436300
Cu      11.25773000       1.26133000      13.60110000  T      -0.00289600       0.00257600      -0.00621200
Cu       1.27058000       3.76832000      13.58364000  T      -0.00066400       0.00312500      -0.00381200
Cu       3.76413000       3.75557000      13.61137000  T      -0.00095800       0.00286400      -0.00393900
Cu       6.28113000       3.75092000      13.55928000  T      -0.00117600       0.00105000      -0.00168200
Cu       8.75027000       3.76470000      13.56167000  T      -0.00327100       0.00154800      -0.00177100
Cu      11.23419000       3.75626000      13.59815000  T      -0.00398600       0.00150600      -0.00496100
Cu       1.27659000       6.25980000      13.59646000  T      -0.00164000      -0.00019100      -0.00340900
Cu       3.75442000       6.26431000      13.62814000  T      -0.00186600      -0.00018100      -0.00130500
Cu       6.27748000       6.25633000      13.55967000  T      -0.00148600      -0.00287800      -0.00097700
Cu       8.75027000       6.24642000      13.55993000  T      -0.00325600      -0.00229600      -0.00172300
Cu      11.23856000       6.25012000      13.60399000  T      -0.00417500      -0.00068500      -0.00436700
Cu       1.27716000       8.75612000      13.58634000  T      -0.00045400      -0.00067900      -0.00784100
Cu       3.76645000       8.73980000      13.61055000  T       0.00033100      -0.00210900      -0.00520200
Cu       6.27634000       8.73531000      13.61269000  T      -0.00086400      -0.00376900      -0.00434800
Cu       8.75563000       8.73091000      13.61550000  T      -0.00233800      -0.00440100      -0.00376900
Cu      11.25996000       8.75117000      13.59810000  T      -0.00245200      -0.00230900      -0.00619000
Cu       1.24655000      11.25791000      13.59135000  T       0.00146700       0.00054100      -0.00896400
Cu       3.74560000      11.25814000      13.56983000  T       0.00289100      -0.00074500      -0.00731000
Cu       6.25542000      11.26385000      13.56601000  T       0.00126700      -0.00074000      -0.00477300
Cu       8.76089000      11.26448000      13.57277000  T      -0.00139200      -0.00080500      -0.00593100
Cu      11.26916000      11.26503000      13.57559000  T      -0.00110900      -0.00021400      -0.00860200
Cu      12.51116000      12.51815000      15.36939000  T       0.00114700       0.00095500      -0.01518200
Cu       2.50555000       0.00923000      15.36577000  T       0.00034500       0.00154500      -0.01371500
Cu       4.99999000      12.47568000      15.35954000  T       0.00026000      -0.00124300      -0.01035600
Cu       7.50441000      12.49302000      15.35226000  T       0.00107700       0.00071400      -0.00903800
Cu      10.01151000      12.49493000      15.35912000  T       0.00115100      -0.00001600      -0.01212500
Cu       0.05827000       2.50127000      15.34906000  T      -0.00270700       0.00119700      -0.01206800
Cu       2.52008000       2.46199000      15.34823000  T      -0.00051400       0.00271200      -0.00993000
Cu       4.99884000       2.41020000      15.47326000  T      -0.00215500      -0.00026700      -0.00642800
Cu       7.54728000       2.51218000      15.47885000  T      -0.00299600      -0.00043900      -0.00726200
Cu      10.10137000       2.45507000      15.44551000  T      -0.00348400       0.00064400      -0.00668800
Cu      12.48197000       4.99573000      15.31564000  T      -0.00768400       0.00094000      -0.00656900
Cu       2.43604000       4.92920000      15.46621000  T      -0.00669700       0.00367700      -0.00144700
Pd       5.06003000       4.99254000      15.45548000  T      -0.00642600      -0.00049200       0.00040100
Y        7.49615000       4.99365000      17.25067000  T      -0.00381700      -0.00171600      -0.00190300
Cu       9.98181000       5.00489000      15.44866000  T      -0.00545800      -0.00107100      -0.00504400
Cu       0.02782000       7.50741000      15.34412000  T      -0.00382700       0.00258500      -0.00995400
Cu       2.50439000       7.59071000      15.48117000  T      -0.00203900       0.00660600      -0.00882500
Cu       5.02024000       7.58567000      15.45819000  T      -0.00285300      -0.00302800      -0.00396000
Cu       7.54650000       7.49376000      15.48446000  T      -0.00373600      -0.00254800      -0.00497400
Cu      10.08272000       7.56241000      15.44525000  T      -0.00475600      -0.00244000      -0.00668000
Cu      12.51284000      10.00346000      15.36580000  T       0.00072200       0.00280300      -0.01369400
Cu       2.50818000      10.05841000      15.37417000  T      -0.00070500       0.00334400      -0.01172700
Cu       5.00614000      10.03503000      15.35261000  T      -0.00026400      -0.00186700      -0.00968400
Cu       7.50595000      10.02555000      15.35078000  T       0.00034800      -0.00174700      -0.00882800
Cu      10.01231000      10.03399000      15.35642000  T       0.00089100      -0.00121600      -0.01193100
O        6.13337000       3.39808000      16.68896000  T       0.00039800      -0.00095500      -0.00965200
O        6.13383000       6.57668000      16.68532000  T      -0.00038700      -0.00219900      -0.00786700
O        8.99343000       6.42830000      16.55050000  T      -0.00439800      -0.00371900      -0.00684500
O        8.99453000       3.56412000      16.55241000  T      -0.00421200       0.00142300      -0.00741100
C        2.68983000       6.86174000      17.26757000  T      -0.02536300       0.01237900      -0.00195900
O        2.82310000       7.61881000      18.37325000  T      -0.00920700       0.01584000      -0.01048100
O        2.70810000       5.60860000      17.41873000  T      -0.05179300       0.01280600      -0.00008300
H        2.92705000       7.00071000      19.13915000  T      -0.01792800       0.01415200      -0.00399900
108
Lattice="12.515153631 0.0 0.0 0.0 12.515153631 0.0 0.0 0.0 25.30973" Properties=species:S:1:pos:R:3:move_mask:L:1:forces:R:3 stress="0.008150967771255598 4.269192242104149e-05 0.00022440097760288082 4.269192242104149e-05 0.0077802346121963835 -0.00010557512686431531 0.00022440097760288082 -0.00010557512686431531 0.002276309585755254" free_energy=-445.30293854 energy=-445.30360098 pbc="T T T"
Cu       1.25152000       1.25152000      10.00000000  F       0.00651000      -0.00226600      -0.06272200
Cu       3.75455000       1.25152000      10.00000000  F       0.00408000       0.00794600      -0.06748400
Cu       6.25758000       1.25152000      10.00000000  F      -0.00164100       0.01539700      -0.05824000
Cu       8.76061000       1.25152000      10.00000000  F       0.00969200       0.01120600      -0.05989800
Cu      11.26364000       1.25152000      10.00000000  F      -0.02130000       0.00263800      -0.06064600
Cu       1.25152000       3.75455000      10.00000000  F       0.00575000       0.01577900      -0.06748900
Cu       3.75455000       3.75455000      10.00000000  F       0.00274100      -0.00981900      -0.05538300
Cu       6.25758000       3.75455000      10.00000000  F      -0.00902000      -0.02977500      -0.07546800
Cu       8.76061000       3.75455000      10.00000000  F       0.01101000      -0.02704600      -0.08002400
Cu      11.26364000       3.75455000      10.00000000  F      -0.01078000      -0.00455700      -0.06010700
Cu       1.25152000       6.25758000      10.00000000  F      -0.00067000      -0.01249200      -0.05620200
Cu       3.75455000       6.25758000      10.00000000  F       0.00903700       0.01178800      -0.04397400
Cu       6.25758000       6.25758000      10.00000000  F      -0.02018500       0.02428600      -0.07182700
Cu       8.76061000       6.25758000      10.00000000  F       0.01314700       0.02000100      -0.08549200
Cu      11.26364000       6.25758000      10.00000000  F      -0.00166700      -0.00436900      -0.05161400
Cu       1.25152000       8.76061000      10.00000000  F       0.00107600       0.02233000      -0.06208800
Cu       3.75455000       8.76061000      10.00000000  F      -0.00125000       0.00145100      -0.06108000
Cu       6.25758000       8.76061000      10.00000000  F      -0.00881600      -0.01752300      -0.05863200
Cu       8.76061000       8.76061000      10.00000000  F       0.00340600      -0.01763400      -0.03886300
Cu      11.26364000       8.76061000      10.00000000  F       0.00492100       0.00468500      -0.06940600
Cu       1.25152000      11.26364000      10.00000000  F       0.00423200      -0.02288600      -0.02825900
Cu       3.75455000      11.26364000      10.00000000  F      -0.01098200      -0.01145900      -0.07522100
Cu       6.25758000      11.26364000      10.00000000  F      -0.00222100       0.00669900      -0.07089600
Cu       8.76061000      11.26364000      10.00000000  F       0.00315000       0.01132900      -0.05864600
Cu      11.26364000      11.26364000      10.00000000  F       0.00263700       0.00157100      -0.06153700
Cu       0.00000000       0.00000000      11.76991000  F      -0.02908700       0.03856200       0.07455300
Cu       2.50303000       0.00000000      11.76991000  F       0.03685900       0.01111700       0.06538000
Cu       5.00606000       0.00000000      11.76991000  F       0.06378300       0.08115400       0.05904200
Cu       7.50909000       0.00000000      11.76991000  F       0.01120000       0.07988600       0.07230400
Cu      10.01212000       0.00000000      11.76991000  F      -0.04125900       0.09864000       0.08511800
Cu       0.00000000       2.50303000      11.76991000  F      -0.03044200       0.06058900       0.11320200
Cu       2.50303000       2.50303000      11.76991000  F       0.07660700       0.03189400       0.05384700
Cu       5.00606000       2.50303000      11.76991000  F      -0.02615900      -0.03786400       0.05792800
Cu       7.50909000       2.50303000      11.76991000  F       0.00158700      -0.04356200       0.06464200
Cu      10.01212000       2.50303000      11.76991000  F       0.03446100      -0.06609900       0.03012400
Cu       0.00000000       5.00606000      11.76991000  F      -0.02934900       0.02061800       0.08567000
Cu       2.50303000       5.00606000      11.76991000  F       0.09831600       0.02854900       0.08305600
Cu       5.00606000       5.00606000      11.76991000  F      -0.07620900       0.01255800       0.13521000
Cu       7.50909000       5.00606000      11.76991000  F      -0.01254100       0.00118400       0.07123500
Cu      10.01212000       5.00606000      11.76991000  F       0.03616200       0.00734200       0.05359000
Cu       0.00000000       7.50909000      11.76991000  F      -0.04161400      -0.06300700       0.10940700
Cu       2.50303000       7.50909000      11.76991000  F       0.08288100      -0.06102100       0.10604200
Cu       5.00606000       7.50909000      11.76991000  F      -0.04514100       0.03885000       0.06718500
Cu       7.50909000       7.50909000      11.76991000  F      -0.00885600       0.03415000       0.06107600
Cu      10.01212000       7.50909000      11.76991000  F       0.05548900       0.05390000       0.04599900
Cu       0.00000000      10.01212000      11.76991000  F       0.00512100      -0.06741700       0.07065500
Cu       2.50303000      10.01212000      11.76991000  F       0.03051200      -0.02487100       0.03421400
Cu       5.00606000      10.01212000      11.76991000  F       0.02653800      -0.11355300       0.07315500
Cu       7.50909000      10.01212000      11.76991000  F       0.02534400      -0.07927000       0.08140200
Cu      10.01212000      10.01212000      11.76991000  F      -0.05607000      -0.09544300       0.09624700
Cu       1.25842000       1.24201000      13.56829000  T       0.00012200       0.00200000      -0.00522000
Cu       3.78674000       1.25741000      13.59407000  T       0.00045600       0.00132800      -0.00463400
Cu       6.28227000       1.27309000      13.61698000  T      -0.00090900       0.00075400      -0.00415300
Cu       8.75764000       1.28196000      13.61553000  T      -0.00132200       0.00142200      -0.00402200
Cu      11.25760000       1.26144000      13.60086000  T      -0.00160300       0.00151900      -0.00511200
Cu       1.27056000       3.76844000      13.58348000  T      -0.00076600       0.00213100      -0.00316300
Cu       3.76411000       3.75569000      13.61122000  T      -0.00113800       0.00207300      -0.00302500
Cu       6.28109000       3.75097000      13.55920000  T      -0.00155700       0.00084400      -0.00188100
Cu       8.75014000       3.76477000      13.56159000  T      -0.00251700       0.00098300      -0.00229800
Cu      11.23403000       3.75633000      13.59796000  T      -0.00251200       0.00079600      -0.00401800
Cu       1.27653000       6.25978000      13.59631000  T      -0.00138300       0.00018600      -0.00282400
Cu       3.75437000       6.26429000      13.62809000  T      -0.00176600      -0.00007000      -0.00145600
Cu       6.27743000       6.25623000      13.55961000  T      -0.00171400      -0.00187000      -0.00152000
Cu       8.75014000       6.24633000      13.55985000  T      -0.00259200      -0.00140500      -0.00212700
Cu      11.23839000       6.25008000      13.60381000  T      -0.00261500      -0.00009500      -0.00352900
Cu       1.27714000       8.75609000      13.58603000  T      -0.00043100      -0.00015100      -0.00565700
Cu       3.76647000       8.73971000      13.61035000  T      -0.00019100      -0.00107700      -0.00432900
Cu       6.27631000       8.73517000      13.61251000  T      -0.00118600      -0.00231600      -0.00346400
Cu       8.75553000       8.73074000      13.61536000  T      -0.00169300      -0.00232000      -0.00358700
Cu      11.25985000       8.75108000      13.59786000  T      -0.00158400      -0.00116400      -0.00481300
Cu       1.24659000      11.25793000      13.59100000  T       0.00094500       0.00055500      -0.00650400
Cu       3.74571000      11.25811000      13.56954000  T       0.00145300      -0.00031000      -0.00515900
Cu       6.25546000      11.26383000      13.56581000  T       0.00046600      -0.00062700      -0.00363200
Cu       8.76083000      11.26445000      13.57253000  T      -0.00090000      -0.00049800      -0.00431800
Cu      11.26910000      11.26502000      13.57525000  T      -0.00050900      -0.00002800      -0.00590700
Cu      12.51120000      12.51818000      15.36884000  T       0.00070400       0.00105500      -0.01144300
Cu       2.50555000       0.00928000      15.36527000  T       0.00051300       0.00167000      -0.01038700
Cu       4.99999000      12.47565000      15.35915000  T       0.00013300      -0.00097700      -0.00765900
Cu       7.50444000      12.49307000      15.35192000  T       0.00024700      -0.00010400      -0.00677100
Cu      10.01155000      12.49494000      15.35866000  T       0.00039900      -0.00020000      -0.00893400
Cu       0.05816000       2.50131000      15.34860000  T      -0.00179000       0.00117100      -0.00887700
Cu       2.52007000       2.46208000      15.34785000  T      -0.00086400       0.00225900      -0.00738000
Cu       4.99874000       2.41019000      15.47299000  T      -0.00207000      -0.00023200      -0.00572000
Cu       7.54718000       2.51216000      15.47856000  T      -0.00227300      -0.00026500      -0.00624400
Cu      10.10123000       2.45510000      15.44524000  T      -0.00230600       0.00033500      -0.00543000
Cu      12.48167000       4.99577000      15.31539000  T      -0.00482400       0.00086200      -0.00535500
Cu       2.43584000       4.92933000      15.46613000  T      -0.00537800       0.00268300      -0.00174900
Pd       5.05994000       4.99254000      15.45545000  T      -0.00451300      -0.00047500      -0.00028800
Y        7.49605000       4.99360000      17.25054000  T      -0.00249600      -0.00155400      -0.00329800
Cu       9.98162000       5.00485000      15.44846000  T      -0.00359900      -0.00056800      -0.00502800
Cu       0.02767000       7.50751000      15.34374000  T      -0.00258100       0.00176200      -0.00735400
Cu       2.50432000       7.59097000      15.48083000  T      -0.00204600       0.00436500      -0.00715600
Cu       5.02011000       7.58559000      15.45801000  T      -0.00255500      -0.00194300      -0.00417000
Cu       7.54637000       7.49367000      15.48426000  T      -0.00289300      -0.00128900      -0.00513500
Cu      10.08254000       7.56233000      15.44498000  T      -0.00324200      -0.00156200      -0.00529300
Cu      12.51286000      10.00357000      15.36530000  T       0.00039900       0.00163300      -0.01035500
Cu       2.50815000      10.05852000      15.37374000  T      -0.00018500       0.00243800      -0.00893300
Cu       5.00612000      10.03496000      15.35224000  T      -0.00035800      -0.00132000      -0.00723200
Cu       7.50596000      10.02548000      15.35044000  T      -0.00017100      -0.00087700      -0.00671600
Cu      10.01234000      10.03394000      15.35596000  T       0.00015300      -0.00086800      -0.00872600
O        6.13349000       3.39803000      16.68837000  T      -0.00085200       0.00020600      -0.00802200
O        6.13392000       6.57662000      16.68481000  T      -0.00188400      -0.00257600      -0.00664300
O        8.99320000       6.42811000      16.55002000  T      -0.00424800      -0.00232900      -0.00618300
O        8.99429000       3.56423000      16.55191000  T      -0.00386100       0.00067500      -0.00668100
C        2.68850000       6.86222000      17.26739000  T      -0.02564100       0.00872800      -0.00630300
O        2.82264000       7.61949000      18.37267000  T      -0.00801800       0.01274800      -0.00627400
O        2.70518000       5.60905000      17.41876000  T      -0.05139500       0.01072600       0.00058200
H        2.92623000       7.00150000      19.13884000  T      -0.01804400       0.01699500      -0.00758000
108
Lattice="12.515153631 0.0 0.0 0.0 12.515153631 0.0 0.0 0.0 25.30973" Properties=species:S:1:pos:R:3:move_mask:L:1:forces:R:3 stress="0.008171258917423844 4.268568091191561e-05 0.00022714724161826942 4.268568091191561e-05 0.007801318430023618 -0.00010505084009774111 0.00022714724161826942 -0.00010505084009774111 0.002300145909107002" free_energy=-445.30341837 energy=-445.30407834 pbc="T T T"
Cu       1.25152000       1.25152000      10.00000000  F       0.00624800      -0.00254700      -0.06202400
Cu       3.75455000       1.25152000      10.00000000  F       0.00417900       0.00765500      -0.06700900
Cu       6.25758000       1.25152000      10.00000000  F      -0.00104500       0.01513700      -0.05764000
Cu       8.76061000       1.25152000      10.00000000  F       0.01032700       0.01096000      -0.05897600
Cu      11.26364000       1.25152000      10.00000000  F      -0.02125500       0.00237200      -0.05969400
Cu       1.25152000       3.75455000      10.00000000  F       0.00547300       0.01549800      -0.06695200
Cu       3.75455000       3.75455000      10.00000000  F       0.00282800      -0.01010600      -0.05504200
Cu       6.25758000       3.75455000      10.00000000  F      -0.00839300      -0.03008600      -0.07500300
Cu       8.76061000       3.75455000      10.00000000  F       0.01164600      -0.02734000      -0.07928600
Cu      11.26364000       3.75455000      10.00000000  F      -0.01073900      -0.00483600      -0.05929500
Cu       1.25152000       6.25758000      10.00000000  F      -0.00093800      -0.01248100      -0.05567400
Cu       3.75455000       6.25758000      10.00000000  F       0.00910200       0.01179300      -0.04365100
Cu       6.25758000       6.25758000      10.00000000  F      -0.01956800       0.02428300      -0.07144500
Cu       8.76061000       6.25758000      10.00000000  F       0.01379300       0.01997600      -0.08484300
Cu      11.26364000       6.25758000      10.00000000  F      -0.00161100      -0.00439100      -0.05085100
Cu       1.25152000       8.76061000      10.00000000  F       0.00082400       0.02251900      -0.06141700
Cu       3.75455000       8.76061000      10.00000000  F      -0.00118800       0.00166100      -0.06063000
Cu       6.25758000       8.76061000      10.00000000  F      -0.00822900      -0.01732100      -0.05815200
Cu       8.76061000       8.76061000      10.00000000  F       0.00403400      -0.01745100      -0.03809500
Cu      11.26364000       8.76061000      10.00000000  F       0.00501000       0.00487400      -0.06851500
Cu       1.25152000      11.26364000      10.00000000  F       0.00398300      -0.02286600      -0.02748300
Cu       3.75455000      11.26364000      10.00000000  F      -0.01090100      -0.01143400      -0.07464100
Cu       6.25758000      11.26364000      10.00000000  F      -0.00164400       0.00673700      -0.07021900
Cu       8.76061000      11.26364000      10.00000000  F       0.00378600       0.01137500      -0.05771100
Cu      11.26364000      11.26364000      10.00000000  F       0.00270300       0.00160800      -0.06052500
Cu       0.00000000       0.00000000      11.76991000  F      -0.02934600       0.03816100       0.07625300
Cu       2.50303000       0.00000000      11.76991000  F       0.03635200       0.01075600       0.06695200
Cu       5.00606000       0.00000000      11.76991000  F       0.06403100       0.08090900       0.06045800
Cu       7.50909000       0.00000000      11.76991000  F       0.01214200       0.07964000       0.07365600
Cu      10.01212000       0.00000000      11.76991000  F      -0.04052000       0.09836000       0.08668900
Cu       0.00000000       2.50303000      11.76991000  F      -0.03066500       0.05986100       0.11472200
Cu       2.50303000       2.50303000      11.76991000  F       0.07616300       0.03110400       0.05527000
Cu       5.00606000       2.50303000      11.76991000  F      -0.02565600      -0.03864900       0.05919300
Cu       7.50909000       2.50303000      11.76991000  F       0.00265600      -0.04419100       0.06604300
Cu      10.01212000       2.50303000      11.76991000  F       0.03521900      -0.06670400       0.03173500
Cu       0.00000000       5.00606000      11.76991000  F      -0.02959100       0.02034300       0.08708700
Cu       2.50303000       5.00606000      11.76991000  F       0.09791600       0.02817500       0.08437000
Cu       5.00606000       5.00606000      11.76991000  F      -0.07560700       0.01222500       0.13635400
Cu       7.50909000       5.00606000      11.76991000  F      -0.01126100       0.00097400       0.07257300
Cu      10.01212000       5.00606000      11.76991000  F       0.03698300       0.00707100       0.05522100
Cu       0.00000000       7.50909000      11.76991000  F      -0.04178700      -0.06259100       0.11091300
Cu       2.50303000       7.50909000      11.76991000  F       0.08243100      -0.06050300       0.10744000
Cu       5.00606000       7.50909000      11.76991000  F      -0.04467400       0.03943400       0.06832400
Cu       7.50909000       7.50909000      11.76991000  F      -0.00769500       0.03461800       0.06240600
Cu      10.01212000       7.50909000      11.76991000  F       0.05632100       0.05430800       0.04758000
Cu       0.00000000      10.01212000      11.76991000  F       0.00493100      -0.06705500       0.07243000
Cu       2.50303000      10.01212000      11.76991000  F       0.02997300      -0.02451800       0.03585500
Cu       5.00606000      10.01212000      11.76991000  F       0.02675300      -0.11302300       0.07450500
Cu       7.50909000      10.01212000      11.76991000  F       0.02632600      -0.07870300       0.08268400
Cu      10.01212000      10.01212000      11.76991000  F      -0.05528700      -0.09499100       0.09782600
Cu       1.25842000       1.24190000      13.56860000  T      -0.00024600       0.00247900      -0.00668100
Cu       3.78669000       1.25732000      13.59432000  T       0.00110800       0.00173200      -0.00551100
Cu       6.28230000       1.27303000      13.61722000  T      -0.00015800       0.00127800      -0.00500800
Cu       8.75773000       1.28185000      13.61574000  T      -0.00127400       0.00246500      -0.00442400
Cu      11.25772000       1.26134000      13.60113000  T      -0.00253500       0.00214500      -0.00607500
Cu       1.27060000       3.76832000      13.58367000  T      -0.00117700       0.00267300      -0.00347000
Cu       3.76415000       3.75556000      13.61138000  T      -0.00095600       0.00243000      -0.00371400
Cu       6.28115000       3.75092000      13.55930000  T      -0.00080900       0.00098800      -0.00141700
Cu       8.75028000       3.76471000      13.56170000  T      -0.00262200       0.00134800      -0.00177000
Cu      11.23419000       3.75627000      13.59818000  T      -0.00372500       0.00103100      -0.00472600
Cu       1.27661000       6.25979000      13.59648000  T      -0.00195400      -0.00007800      -0.00295600
Cu       3.75444000       6.26430000      13.62816000  T      -0.00184500      -0.00010300      -0.00141900
Cu       6.27750000       6.25633000      13.55970000  T      -0.00109300      -0.00269800      -0.00078000
Cu       8.75028000       6.24642000      13.55996000  T      -0.00263600      -0.00215200      -0.00159100
Cu      11.23856000       6.25011000      13.60401000  T      -0.00386400      -0.00042400      -0.00414700
Cu       1.27717000       8.75611000      13.58637000  T      -0.00090100      -0.00037000      -0.00710900
Cu       3.76647000       8.73979000      13.61059000  T       0.00006300      -0.00167100      -0.00490800
Cu       6.27635000       8.73531000      13.61271000  T      -0.00057400      -0.00331500      -0.00398300
Cu       8.75563000       8.73090000      13.61553000  T      -0.00159100      -0.00368000      -0.00378400
Cu      11.25996000       8.75116000      13.59813000  T      -0.00220600      -0.00182500      -0.00588800
Cu       1.24655000      11.25790000      13.59138000  T       0.00083500       0.00056800      -0.00838700
Cu       3.74561000      11.25814000      13.56985000  T       0.00218400      -0.00056400      -0.00670300
Cu       6.25542000      11.26385000      13.56602000  T       0.00145400      -0.00062000      -0.00448200
Cu       8.76089000      11.26448000      13.57279000  T      -0.00067700      -0.00060000      -0.00550700
Cu      11.26915000      11.26502000      13.57561000  T      -0.00093800      -0.00005600      -0.00785300
Cu      12.51116000      12.51814000      15.36946000  T       0.00077100       0.00103500      -0.01420700
Cu       2.50555000       0.00921000      15.36583000  T       0.00022100       0.00162600      -0.01262400
Cu       4.99999000      12.47569000      15.35958000  T       0.00041400      -0.00118000      -0.00930800
Cu       7.50441000      12.49304000      15.35230000  T       0.00118100       0.00033400      -0.00833400
Cu      10.01152000      12.49494000      15.35917000  T       0.00104000      -0.00010400      -0.01131500
Cu       0.05828000       2.50126000      15.34910000  T      -0.00258200       0.00116600      -0.01106800
Cu       2.52010000       2.46197000      15.34827000  T      -0.00099000       0.00243200      -0.00899600
Cu       4.99886000       2.41021000      15.47331000  T      -0.00176000      -0.00031200      -0.00604700
Cu       7.54729000       2.51219000      15.47890000  T      -0.00236200      -0.00016400      -0.00682100
Cu      10.10137000       2.45508000      15.44555000  T      -0.00314800       0.00076900      -0.00611900
Cu      12.48198000       4.99573000      15.31568000  T      -0.00668000       0.00095900      -0.00611300
Cu       2.43609000       4.92919000      15.46623000  T      -0.00693900       0.00337300      -0.00137900
Pd       5.06007000       4.99255000      15.45550000  T      -0.00942400      -0.00131400      -0.00136600
Y        7.49615000       4.99366000      17.25073000  T      -0.00406800      -0.00223300      -0.00372600
Cu       9.98182000       5.00489000      15.44872000  T      -0.00495300      -0.00092300      -0.00484500
Cu       0.02783000       7.50740000      15.34415000  T      -0.00346600       0.00216900      -0.00893200
Cu       2.50442000       7.59069000      15.48123000  T      -0.00285100       0.00561200      -0.00735900
Cu       5.02026000       7.58567000      15.45824000  T      -0.00211600      -0.00258400      -0.00393100
Cu       7.54651000       7.49375000      15.48453000  T      -0.00310000      -0.00232200      -0.00487000
Cu      10.08272000       7.56241000      15.44529000  T      -0.00433700      -0.00245700      -0.00597700
Cu      12.51284000      10.00346000      15.36586000  T       0.00040000       0.00240900      -0.01282400
Cu       2.50818000      10.05839000      15.37422000  T      -0.00068400       0.00307200      -0.01076300
Cu       5.00614000      10.03504000      15.35265000  T      -0.00012400      -0.00171000      -0.00874200
Cu       7.50595000      10.02554000      15.35081000  T       0.00055200      -0.00138500      -0.00814600
Cu      10.01232000      10.03399000      15.35646000  T       0.00077500      -0.00105400      -0.01110000
O        6.13340000       3.39807000      16.68899000  T       0.00116800      -0.00104700      -0.00963400
O        6.13387000       6.57672000      16.68534000  T       0.00092900      -0.00164800      -0.00842700
O        8.99347000       6.42830000      16.55054000  T      -0.00331500      -0.00326600      -0.00754300
O        8.99456000       3.56413000      16.55246000  T      -0.00322000       0.00126900      -0.00806600
C        2.69010000       6.86168000      17.26767000  T      -0.02663200       0.01166200      -0.00347400
O        2.82318000       7.61868000      18.37333000  T      -0.01195900       0.01551400      -0.01148500
O        2.70865000       5.60849000      17.41870000  T      -0.05364900       0.01334600      -0.00063100
H        2.92723000       7.00054000      19.13922000  T      -0.01749100       0.01537400      -0.00530600
108
Lattice="12.515153631 0.0 0.0 0.0 12.515153631 0.0 0.0 0.0 25.30973" Properties=species:S:1:pos:R:3:move_mask:L:1:forces:R:3 stress="0.008064510386843861 4.576898642010194e-05 0.00021849026846066933 4.576898642010194e-05 0.0076980276954993765 -0.00010601827401225303 0.00021849026846066933 -0.00010601827401225303 0.0021679944363846757" free_energy=-445.30382581 energy=-445.30447704 pbc="T T T"
Cu       1.25152000       1.25152000      10.00000000  F       0.00629500      -0.00244600      -0.06289200
Cu       3.75455000       1.25152000      10.00000000  F       0.00403300       0.00773100      -0.06758700
Cu       6.25758000       1.25152000      10.00000000  F      -0.00133400       0.01519800      -0.05819800
Cu       8.76061000       1.25152000      10.00000000  F       0.00994700       0.01100200      -0.05974600
Cu      11.26364000       1.25152000      10.00000000  F      -0.02136700       0.00246000      -0.06063100
Cu       1.25152000       3.75455000      10.00000000  F       0.00549300       0.01553400      -0.06756800
Cu       3.75455000       3.75455000      10.00000000  F       0.00269600      -0.01008600      -0.05555300
Cu       6.25758000       3.75455000      10.00000000  F      -0.00870700      -0.03000900      -0.07552300
Cu       8.76061000       3.75455000      10.00000000  F       0.01124600      -0.02729900      -0.07996300
Cu      11.26364000       3.75455000      10.00000000  F      -0.01080600      -0.00478300      -0.06007400
Cu       1.25152000       6.25758000      10.00000000  F      -0.00092400      -0.01241300      -0.05631800
Cu       3.75455000       6.25758000      10.00000000  F       0.00898300       0.01187400      -0.04422800
Cu       6.25758000       6.25758000      10.00000000  F      -0.01989700       0.02428700      -0.07205400
Cu       8.76061000       6.25758000      10.00000000  F       0.01339700       0.02000300      -0.08558700
Cu      11.26364000       6.25758000      10.00000000  F      -0.00167000      -0.00433500      -0.05167100
Cu       1.25152000       8.76061000      10.00000000  F       0.00086100       0.02258900      -0.06231000
Cu       3.75455000       8.76061000      10.00000000  F      -0.00135000       0.00172600      -0.06134200
Cu       6.25758000       8.76061000      10.00000000  F      -0.00857000      -0.01726800      -0.05883200
Cu       8.76061000       8.76061000      10.00000000  F       0.00370100      -0.01737900      -0.03896800
Cu      11.26364000       8.76061000      10.00000000  F       0.00492900       0.00493300      -0.06955400
Cu       1.25152000      11.26364000      10.00000000  F       0.00401600      -0.02280800      -0.02835100
Cu       3.75455000      11.26364000      10.00000000  F      -0.01103300      -0.01135000      -0.07546400
Cu       6.25758000      11.26364000      10.00000000  F      -0.00197300       0.00685400      -0.07096000
Cu       8.76061000      11.26364000      10.00000000  F       0.00343200       0.01150300      -0.05863900
Cu      11.26364000      11.26364000      10.00000000  F       0.00258900       0.00167900      -0.06156600
Cu       0.00000000       0.00000000      11.76991000  F      -0.02942200       0.03888000       0.07249400
Cu       2.50303000       0.00000000      11.76991000  F       0.03690400       0.01133200       0.06331900
Cu       5.00606000       0.00000000      11.76991000  F       0.06418800       0.08136800       0.05699500
Cu       7.50909000       0.00000000      11.76991000  F       0.01151500       0.08014200       0.07035600
Cu      10.01212000       0.00000000      11.76991000  F      -0.04154300       0.09900000       0.08308300
Cu       0.00000000       2.50303000      11.76991000  F      -0.03088500       0.06088500       0.11141200
Cu       2.50303000       2.50303000      11.76991000  F       0.07654800       0.03212000       0.05201100
Cu       5.00606000       2.50303000      11.76991000  F      -0.02590500      -0.03761000       0.05615400
Cu       7.50909000       2.50303000      11.76991000  F       0.00179500      -0.04338700       0.06277600
Cu      10.01212000       2.50303000      11.76991000  F       0.03409400      -0.06597500       0.02814000
Cu       0.00000000       5.00606000      11.76991000  F      -0.02976300       0.02060500       0.08409200
Cu       2.50303000       5.00606000      11.76991000  F       0.09817000       0.02866800       0.08145400
Cu       5.00606000       5.00606000      11.76991000  F      -0.07617000       0.01253100       0.13365300
Cu       7.50909000       5.00606000      11.76991000  F      -0.01251000       0.00091200       0.06953300
Cu      10.01212000       5.00606000      11.76991000  F       0.03581900       0.00722400       0.05176800
Cu       0.00000000       7.50909000      11.76991000  F      -0.04203400      -0.06325400       0.10762700
Cu       2.50303000       7.50909000      11.76991000  F       0.08276000      -0.06127300       0.10420100
Cu       5.00606000       7.50909000      11.76991000  F      -0.04501500       0.03843900       0.06558500
Cu       7.50909000       7.50909000      11.76991000  F      -0.00875500       0.03377400       0.05936300
Cu      10.01212000       7.50909000      11.76991000  F       0.05522000       0.05362200       0.04417200
Cu       0.00000000      10.01212000      11.76991000  F       0.00478400      -0.06745400       0.06850500
Cu       2.50303000      10.01212000      11.76991000  F       0.03052500      -0.02483000       0.03197100
Cu       5.00606000      10.01212000      11.76991000  F       0.02687700      -0.11369000       0.07121000
Cu       7.50909000      10.01212000      11.76991000  F       0.02562200      -0.07936000       0.07962500
Cu      10.01212000      10.01212000      11.76991000  F      -0.05630700      -0.09558800       0.09431100
Cu       1.25842000       1.24213000      13.56796000  T      -0.00015800       0.00158000      -0.00478900
Cu       3.78678000       1.25750000      13.59380000  T       0.00010100       0.00105200      -0.00436800
Cu       6.28224000       1.27314000      13.61673000  T      -0.00053900       0.00034300      -0.00385800
Cu       8.75755000       1.28207000      13.61531000  T      -0.00064100       0.00067000      -0.00419400
Cu      11.25748000       1.26154000      13.60057000  T      -0.00118100       0.00109600      -0.00498100
Cu       1.27052000       3.76857000      13.58329000  T      -0.00105600       0.00156400      -0.00314500
Cu       3.76407000       3.75583000      13.61105000  T      -0.00133500       0.00139400      -0.00246300
Cu       6.28102000       3.75101000      13.55909000  T      -0.00124700       0.00043800      -0.00198800
Cu       8.75000000       3.76483000      13.56147000  T      -0.00163200       0.00035800      -0.00275000
Cu      11.23386000       3.75639000      13.59772000  T      -0.00192600       0.00041500      -0.00369800
Cu       1.27644000       6.25978000      13.59614000  T      -0.00154400       0.00030700      -0.00285400
Cu       3.75429000       6.26428000      13.62801000  T      -0.00182200      -0.00003800      -0.00138700
Cu       6.27735000       6.25612000      13.55953000  T      -0.00137400      -0.00150800      -0.00172800
Cu       8.74999000       6.24625000      13.55973000  T      -0.00171600      -0.00103900      -0.00248500
Cu      11.23822000       6.25006000      13.60360000  T      -0.00196500      -0.00002000      -0.00325900
Cu       1.27710000       8.75607000      13.58568000  T      -0.00069000       0.00021300      -0.00518600
Cu       3.76647000       8.73964000      13.61011000  T      -0.00038700      -0.00057800      -0.00413700
Cu       6.27626000       8.73502000      13.61231000  T      -0.00084500      -0.00158300      -0.00323300
Cu       8.75542000       8.73058000      13.61516000  T      -0.00097900      -0.00131800      -0.00374800
Cu      11.25974000       8.75100000      13.59757000  T      -0.00125600      -0.00068900      -0.00455500
Cu       1.24664000      11.25796000      13.59060000  T       0.00048000       0.00070300      -0.00588600
Cu       3.74580000      11.25809000      13.56921000  T       0.00098700       0.00005200      -0.00468500
Cu       6.25550000      11.26380000      13.56558000  T       0.00047900      -0.00039800      -0.00369100
Cu       8.76077000      11.26442000      13.57226000  T      -0.00020000      -0.00023100      -0.00423100
Cu      11.26906000      11.26501000      13.57488000  T      -0.00012600       0.00014000      -0.00542100
Cu      12.51123000      12.51823000      15.36818000  T       0.00039100       0.00095400      -0.00740400
Cu       2.50557000       0.00936000      15.36468000  T       0.00044200       0.00167100      -0.00666800
Cu       4.99999000      12.47560000      15.35869000  T       0.00029100      -0.00070700      -0.00483200
Cu       7.50447000      12.49309000      15.35152000  T       0.00028100      -0.00031600      -0.00421400
Cu      10.01158000      12.49494000      15.35813000  T       0.00038800      -0.00020000      -0.00562700
Cu       0.05804000       2.50136000      15.34807000  T      -0.00132200       0.00074000      -0.00571000
Cu       2.52003000       2.46220000      15.34741000  T      -0.00102200       0.00174800      -0.00484000
Cu       4.99861000       2.41017000      15.47265000  T      -0.00177300      -0.00058600      -0.00456000
Cu       7.54705000       2.51213000      15.47820000  T      -0.00143400      -0.00062800      -0.00490600
Cu      10.10109000       2.45512000      15.44492000  T      -0.00105900      -0.00034800      -0.00430700
Cu      12.48136000       4.99581000      15.31509000  T      -0.00337400       0.00059200      -0.00366900
Cu       2.43556000       4.92948000      15.46602000  T      -0.00446900       0.00185200      -0.00129000
Pd       5.05975000       4.99251000      15.45541000  T       0.00069100      -0.00007500      -0.00019800
Y        7.49593000       4.99353000      17.25035000  T      -0.00086100      -0.00121300      -0.00253700
Cu       9.98140000       5.00481000      15.44818000  T      -0.00209800      -0.00046200      -0.00434800
Cu       0.02751000       7.50762000      15.34330000  T      -0.00184700       0.00140000      -0.00465900
Cu       2.50421000       7.59125000      15.48041000  T      -0.00245100       0.00377800      -0.00610900
Cu       5.01996000       7.58549000      15.45777000  T      -0.00206000      -0.00118900      -0.00349300
Cu       7.54621000       7.49360000      15.48398000  T      -0.00203000      -0.00043600      -0.00419100
Cu      10.08234000       7.56225000      15.44466000  T      -0.00178000      -0.00071600      -0.00393000
Cu      12.51288000      10.00368000      15.36470000  T       0.00016400       0.00107100      -0.00669600
Cu       2.50812000      10.05867000      15.37323000  T      -0.00008500       0.00200700      -0.00569200
Cu       5.00610000      10.03488000      15.35181000  T      -0.00023100      -0.00094600      -0.00444000
Cu       7.50596000      10.02542000      15.35004000  T       0.00002000      -0.00039300      -0.00398800
Cu      10.01235000      10.03389000      15.35544000  T       0.00016800      -0.00055700      -0.00532200
O        6.13355000       3.39801000      16.68778000  T      -0.00155800      -0.00022200      -0.00960000
O        6.13392000       6.57650000      16.68431000  T      -0.00280300      -0.00291900      -0.00803500
O        8.99294000       6.42793000      16.54953000  T      -0.00461800      -0.00263800      -0.00717000
O        8.99404000       3.56430000      16.55139000  T      -0.00424500       0.00041500      -0.00796100
C        2.68687000       6.86277000      17.26709000  T      -0.02842100       0.00905600      -0.00422900
O        2.82209000       7.62031000      18.37207000  T      -0.01072200       0.01485200      -0.01340000
O        2.70175000       5.60966000      17.41881000  T      -0.06553000       0.01036700       0.00253700
H        2.92517000       7.00250000      19.13843000  T      -0.01696700       0.01685000      -0.00602300
108
Lattice="12.515153631 0.0 0.0 0.0 12.515153631 0.0 0.0 0.0 25.30973" Properties=species:S:1:pos:R:3:move_mask:L:1:forces:R:3 stress="0.008129097523278504 4.371552991768634e-05 0.00022278442673927699 4.371552991768634e-05 0.007759269383042542 -0.00010486359482396462 0.00022278442673927699 -0.00010486359482396462 0.0022424743647838402" free_energy=-445.30374458 energy=-445.30441509 pbc="T T T"
Cu       1.25152000       1.25152000      10.00000000  F       0.00599600      -0.00230200      -0.06264800
Cu       3.75455000       1.25152000      10.00000000  F       0.00398900       0.00789000      -0.06769700
Cu       6.25758000       1.25152000      10.00000000  F      -0.00106700       0.01532400      -0.05830100
Cu       8.76061000       1.25152000      10.00000000  F       0.01019100       0.01114300      -0.05960900
Cu      11.26364000       1.25152000      10.00000000  F      -0.02142900       0.00258700      -0.06025700
Cu       1.25152000       3.75455000      10.00000000  F       0.00522700       0.01564600      -0.06745000
Cu       3.75455000       3.75455000      10.00000000  F       0.00264000      -0.00996900      -0.05566800
Cu       6.25758000       3.75455000      10.00000000  F      -0.00847100      -0.02990800      -0.07567400
Cu       8.76061000       3.75455000      10.00000000  F       0.01153500      -0.02719200      -0.07983400
Cu      11.26364000       3.75455000      10.00000000  F      -0.01089300      -0.00470300      -0.05978700
Cu       1.25152000       6.25758000      10.00000000  F      -0.00121400      -0.01257100      -0.05625200
Cu       3.75455000       6.25758000      10.00000000  F       0.00896800       0.01172700      -0.04434000
Cu       6.25758000       6.25758000      10.00000000  F      -0.01961900       0.02425200      -0.07210200
Cu       8.76061000       6.25758000      10.00000000  F       0.01366700       0.01998800      -0.08534300
Cu      11.26364000       6.25758000      10.00000000  F      -0.00180200      -0.00439300      -0.05133500
Cu       1.25152000       8.76061000      10.00000000  F       0.00053600       0.02244000      -0.06214200
Cu       3.75455000       8.76061000      10.00000000  F      -0.00130100       0.00156500      -0.06146200
Cu       6.25758000       8.76061000      10.00000000  F      -0.00822800      -0.01741500      -0.05879500
Cu       8.76061000       8.76061000      10.00000000  F       0.00391700      -0.01752800      -0.03862300
Cu      11.26364000       8.76061000      10.00000000  F       0.00475500       0.00479700      -0.06910900
Cu       1.25152000      11.26364000      10.00000000  F       0.00371000      -0.02278300      -0.02822700
Cu       3.75455000      11.26364000      10.00000000  F      -0.01106000      -0.01134600      -0.07549500
Cu       6.25758000      11.26364000      10.00000000  F      -0.00162600       0.00679200      -0.07097900
Cu       8.76061000      11.26364000      10.00000000  F       0.00363300       0.01140700      -0.05831500
Cu      11.26364000      11.26364000      10.00000000  F       0.00250500       0.00164700      -0.06119600
Cu       0.00000000       0.00000000      11.76991000  F      -0.02972700       0.03890200       0.07346900
Cu       2.50303000       0.00000000      11.76991000  F       0.03656600       0.01141300       0.06422400
Cu       5.00606000       0.00000000      11.76991000  F       0.06434300       0.08131000       0.05796100
Cu       7.50909000       0.00000000      11.76991000  F       0.01196700       0.08006100       0.07144300
Cu      10.01212000       0.00000000      11.76991000  F      -0.04137700       0.09886000       0.08420200
Cu       0.00000000       2.50303000      11.76991000  F      -0.03113400       0.06082800       0.11231400
Cu       2.50303000       2.50303000      11.76991000  F       0.07618900       0.03215900       0.05285200
Cu       5.00606000       2.50303000      11.76991000  F      -0.02588400      -0.03770900       0.05690500
Cu       7.50909000       2.50303000      11.76991000  F       0.00225400      -0.04350900       0.06372400
Cu      10.01212000       2.50303000      11.76991000  F       0.03438300      -0.06602800       0.02919100
Cu       0.00000000       5.00606000      11.76991000  F      -0.03008300       0.02054400       0.08492700
Cu       2.50303000       5.00606000      11.76991000  F       0.09775800       0.02855800       0.08207100
Cu       5.00606000       5.00606000      11.76991000  F      -0.07609000       0.01251500       0.13426500
Cu       7.50909000       5.00606000      11.76991000  F      -0.01199200       0.00099800       0.07025200
Cu      10.01212000       5.00606000      11.76991000  F       0.03607800       0.00726600       0.05266600
Cu       0.00000000       7.50909000      11.76991000  F      -0.04239600      -0.06324000       0.10849600
Cu       2.50303000       7.50909000      11.76991000  F       0.08242700      -0.06135600       0.10502400
Cu       5.00606000       7.50909000      11.76991000  F      -0.04483500       0.03852600       0.06621400
Cu       7.50909000       7.50909000      11.76991000  F      -0.00823400       0.03393300       0.06015600
Cu      10.01212000       7.50909000      11.76991000  F       0.05537400       0.05369700       0.04506300
Cu       0.00000000      10.01212000      11.76991000  F       0.00437900      -0.06742000       0.06945000
Cu       2.50303000      10.01212000      11.76991000  F       0.03023400      -0.02479900       0.03292400
Cu       5.00606000      10.01212000      11.76991000  F       0.02713300      -0.11362700       0.07208800
Cu       7.50909000      10.01212000      11.76991000  F       0.02608000      -0.07942800       0.08055900
Cu      10.01212000      10.01212000      11.76991000  F      -0.05618800      -0.09553300       0.09531100
Cu       1.25842000       1.24214000      13.56794000  T      -0.00062300       0.00181800      -0.00461800
Cu       3.78678000       1.25750000      13.59378000  T       0.00006000       0.00107000      -0.00410600
Cu       6.28223000       1.27314000      13.61672000  T      -0.00023800       0.00027700      -0.00368700
Cu       8.75755000       1.28207000      13.61529000  T      -0.00048000       0.00082300      -0.00369700
Cu      11.25748000       1.26154000      13.60054000  T      -0.00150200       0.00120300      -0.00466000
Cu       1.27051000       3.76858000      13.58328000  T      -0.00162700       0.00171400      -0.00293100
Cu       3.76405000       3.75583000      13.61104000  T      -0.00157100       0.00165100      -0.00250000
Cu       6.28101000       3.75101000      13.55908000  T      -0.00091900       0.00030500      -0.00186100
Cu       8.74999000       3.76483000      13.56146000  T      -0.00160400       0.00044900      -0.00222300
Cu      11.23386000       3.75639000      13.59770000  T      -0.00234000       0.00042600      -0.00361900
Cu       1.27643000       6.25979000      13.59612000  T      -0.00228900       0.00018400      -0.00271500
Cu       3.75428000       6.26428000      13.62800000  T      -0.00211100      -0.00013300      -0.00125300
Cu       6.27734000       6.25611000      13.55952000  T      -0.00102300      -0.00160800      -0.00160100
Cu       8.74999000       6.24624000      13.55972000  T      -0.00169800      -0.00120200      -0.00209000
Cu      11.23821000       6.25007000      13.60358000  T      -0.00248200      -0.00000700      -0.00321500
Cu       1.27710000       8.75608000      13.58566000  T      -0.00130200       0.00030000      -0.00514500
Cu       3.76647000       8.73964000      13.61009000  T      -0.00042700      -0.00051100      -0.00391100
Cu       6.27625000       8.73501000      13.61229000  T      -0.00048400      -0.00169800      -0.00306600
Cu       8.75542000       8.73058000      13.61514000  T      -0.00086900      -0.00160400      -0.00333300
Cu      11.25974000       8.75100000      13.59755000  T      -0.00166400      -0.00073400      -0.00437500
Cu       1.24664000      11.25796000      13.59057000  T       0.00023200       0.00084000      -0.00579500
Cu       3.74581000      11.25809000      13.56919000  T       0.00116400       0.00005800      -0.00449900
Cu       6.25551000      11.26379000      13.56556000  T       0.00110600      -0.00044600      -0.00315700
Cu       8.76077000      11.26442000      13.57224000  T      -0.00009500      -0.00033400      -0.00379100
Cu      11.26906000      11.26502000      13.57485000  T      -0.00059200       0.00014800      -0.00520600
Cu      12.51123000      12.51824000      15.36814000  T       0.00017000       0.00115900      -0.01079200
Cu       2.50557000       0.00937000      15.36465000  T       0.00021000       0.00192400      -0.00935800
Cu       5.00000000      12.47560000      15.35867000  T       0.00051500      -0.00086300      -0.00684200
Cu       7.50448000      12.49308000      15.35150000  T       0.00089800      -0.00021700      -0.00633200
Cu      10.01159000      12.49493000      15.35810000  T       0.00051700      -0.00013700      -0.00851600
Cu       0.05803000       2.50137000      15.34804000  T      -0.00227000       0.00094800      -0.00825200
Cu       2.52002000       2.46221000      15.34739000  T      -0.00147500       0.00207600      -0.00663200
Cu       4.99860000       2.41016000      15.47263000  T      -0.00221000      -0.00096300      -0.00547500
Cu       7.54705000       2.51212000      15.47818000  T      -0.00137500      -0.00098800      -0.00618000
Cu      10.10109000       2.45511000      15.44490000  T      -0.00184500       0.00000800      -0.00526400
Cu      12.48135000       4.99582000      15.31507000  T      -0.00512200       0.00062300      -0.00513500
Cu       2.43553000       4.92949000      15.46602000  T      -0.00569100       0.00221200      -0.00155800
Pd       5.05974000       4.99251000      15.45541000  T      -0.00660300      -0.00103600      -0.00159100
Y        7.49593000       4.99352000      17.25035000  T      -0.00249600      -0.00156500      -0.00364900
Cu       9.98139000       5.00481000      15.44816000  T      -0.00275100      -0.00070400      -0.00519000
Cu       0.02750000       7.50763000      15.34328000  T      -0.00306600       0.00179700      -0.00682100
Cu       2.50419000       7.59127000      15.48037000  T      -0.00268300       0.00447200      -0.00741000
Cu       5.01995000       7.58548000      15.45775000  T      -0.00270200      -0.00120100      -0.00397200
Cu       7.54620000       7.49360000      15.48396000  T      -0.00205700      -0.00057200      -0.00512900
Cu      10.08234000       7.56224000      15.44464000  T      -0.00273100      -0.00129500      -0.00494700
Cu      12.51288000      10.00369000      15.36467000  T      -0.00012600       0.00167300      -0.00971800
Cu       2.50812000      10.05868000      15.37320000  T      -0.00050900       0.00276300      -0.00801700
Cu       5.00610000      10.03488000      15.35180000  T      -0.00002700      -0.00110000      -0.00630400
Cu       7.50596000      10.02542000      15.35002000  T       0.00052100      -0.00052400      -0.00611800
Cu      10.01236000      10.03389000      15.35542000  T       0.00023000      -0.00068400      -0.00819000
O        6.13353000       3.39801000      16.68775000  T       0.00022300      -0.00116600      -0.00569500
O        6.13389000       6.57648000      16.68428000  T      -0.00045600      -0.00166500      -0.00431200
O        8.99292000       6.42792000      16.54951000  T      -0.00288700      -0.00165400      -0.00570300
O        8.99402000       3.56430000      16.55136000  T      -0.00239900      -0.00028800      -0.00642900
C        2.68674000       6.86282000      17.26707000  T      -0.02768600       0.01065600      -0.00549700
O        2.82204000       7.62038000      18.37202000  T      -0.00961000       0.01247200      -0.00759300
O        2.70144000       5.60972000      17.41883000  T      -0.05465600       0.00945800       0.00174200
H        2.92509000       7.00257000      19.13840000  T      -0.01825500       0.01738100      -0.00718300
108
Lattice="12.515153631 0.0 0.0 0.0 12.515153631 0.0 0.0 0.0 25.30973" Properties=species:S:1:pos:R:3:move_mask:L:1:forces:R:3 stress="0.008134521394708896 4.187428472555077e-05 0.00020968974059317394 4.187428472555077e-05 0.007758851201931108 -0.00010028856863469218 0.00020968974059317394 -0.00010028856863469218 0.002218332207484924" free_energy=-445.30675885 energy=-445.30745914 pbc="T T T"
Cu       1.25152000       1.25152000      10.00000000  F       0.00625900      -0.00239600      -0.06243700
Cu       3.75455000       1.25152000      10.00000000  F       0.00388500       0.00775800      -0.06745400
Cu       6.25758000       1.25152000      10.00000000  F      -0.00120900       0.01522800      -0.05819400
Cu       8.76061000       1.25152000      10.00000000  F       0.00990500       0.01113300      -0.05978600
Cu      11.26364000       1.25152000      10.00000000  F      -0.02122200       0.00255100      -0.06021300
Cu       1.25152000       3.75455000      10.00000000  F       0.00543300       0.01571100      -0.06718200
Cu       3.75455000       3.75455000      10.00000000  F       0.00255800      -0.00993800      -0.05544600
Cu       6.25758000       3.75455000      10.00000000  F      -0.00871300      -0.02988900      -0.07575400
Cu       8.76061000       3.75455000      10.00000000  F       0.01135600      -0.02728500      -0.08000800
Cu      11.26364000       3.75455000      10.00000000  F      -0.01065600      -0.00470400      -0.05988100
Cu       1.25152000       6.25758000      10.00000000  F      -0.00100200      -0.01247200      -0.05590100
Cu       3.75455000       6.25758000      10.00000000  F       0.00890400       0.01184200      -0.04398100
Cu       6.25758000       6.25758000      10.00000000  F      -0.01995000       0.02432700      -0.07210600
Cu       8.76061000       6.25758000      10.00000000  F       0.01347100       0.02005500      -0.08546300
Cu      11.26364000       6.25758000      10.00000000  F      -0.00148900      -0.00427800      -0.05130900
Cu       1.25152000       8.76061000      10.00000000  F       0.00077100       0.02256500      -0.06183800
Cu       3.75455000       8.76061000      10.00000000  F      -0.00137500       0.00169200      -0.06115900
Cu       6.25758000       8.76061000      10.00000000  F      -0.00855000      -0.01732500      -0.05867100
Cu       8.76061000       8.76061000      10.00000000  F       0.00372000      -0.01744300      -0.03869000
Cu      11.26364000       8.76061000      10.00000000  F       0.00506500       0.00492100      -0.06911200
Cu       1.25152000      11.26364000      10.00000000  F       0.00392300      -0.02288100      -0.02793500
Cu       3.75455000      11.26364000      10.00000000  F      -0.01117300      -0.01143200      -0.07519100
Cu       6.25758000      11.26364000      10.00000000  F      -0.00186600       0.00674900      -0.07103600
Cu       8.76061000      11.26364000      10.00000000  F       0.00337200       0.01141700      -0.05846200
Cu      11.26364000      11.26364000      10.00000000  F       0.00283800       0.00153000      -0.06121100
Cu       0.00000000       0.00000000      11.76991000  F      -0.02951800       0.03956300       0.06858500
Cu       2.50303000       0.00000000      11.76991000  F       0.03713800       0.01188800       0.05957400
Cu       5.00606000       0.00000000      11.76991000  F       0.06457700       0.08154200       0.05378600
Cu       7.50909000       0.00000000      11.76991000  F       0.01152600       0.08049000       0.06752900
Cu      10.01212000       0.00000000      11.76991000  F      -0.04235400       0.09937100       0.07969400
Cu       0.00000000       2.50303000      11.76991000  F      -0.03141800       0.06199200       0.10809400
Cu       2.50303000       2.50303000      11.76991000  F       0.07656400       0.03345500       0.04893500
Cu       5.00606000       2.50303000      11.76991000  F      -0.02645400      -0.03652300       0.05351200
Cu       7.50909000       2.50303000      11.76991000  F       0.00143500      -0.04283400       0.05996600
Cu      10.01212000       2.50303000      11.76991000  F       0.03335500      -0.06531900       0.02480700
Cu       0.00000000       5.00606000      11.76991000  F      -0.03045900       0.02101500       0.08143300
Cu       2.50303000       5.00606000      11.76991000  F       0.09786200       0.02939700       0.07883000
Cu       5.00606000       5.00606000      11.76991000  F      -0.07720900       0.01305900       0.13155300
Cu       7.50909000       5.00606000      11.76991000  F      -0.01348400       0.00092800       0.06695900
Cu      10.01212000       5.00606000      11.76991000  F       0.03502200       0.00760800       0.04874100
Cu       0.00000000       7.50909000      11.76991000  F      -0.04272900      -0.06382600       0.10462500
Cu       2.50303000       7.50909000      11.76991000  F       0.08264400      -0.06221700       0.10147700
Cu       5.00606000       7.50909000      11.76991000  F      -0.04553500       0.03730500       0.06348700
Cu       7.50909000       7.50909000      11.76991000  F      -0.00937600       0.03304800       0.05688900
Cu      10.01212000       7.50909000      11.76991000  F       0.05435300       0.05288500       0.04113700
Cu       0.00000000      10.01212000      11.76991000  F       0.00426200      -0.06784900       0.06430100
Cu       2.50303000      10.01212000      11.76991000  F       0.03087600      -0.02508900       0.02817300
Cu       5.00606000      10.01212000      11.76991000  F       0.02730100      -0.11452700       0.06819300
Cu       7.50909000      10.01212000      11.76991000  F       0.02542800      -0.08054700       0.07707100
Cu      10.01212000      10.01212000      11.76991000  F      -0.05698900      -0.09630000       0.09097700
Cu       1.25834000       1.24261000      13.56668000  T      -0.00026900       0.00094800      -0.00244900
Cu       3.78686000       1.25784000      13.59268000  T      -0.00094200       0.00018200      -0.00235100
Cu       6.28211000       1.27332000      13.61571000  T      -0.00083500      -0.00096800      -0.00202500
Cu       8.75727000       1.28240000      13.61433000  T      -0.00008200      -0.00101400      -0.00265400
Cu      11.25705000       1.26191000      13.59934000  T      -0.00005000      -0.00013500      -0.00293400
Cu       1.27023000       3.76904000      13.58247000  T      -0.00153100       0.00089400      -0.00204300
Cu       3.76379000       3.75631000      13.61035000  T      -0.00229600       0.00166900       0.00009300
Cu       6.28073000       3.75116000      13.55854000  T      -0.00192800      -0.00033100      -0.00140900
Cu       8.74948000       3.76500000      13.56084000  T      -0.00115800      -0.00060100      -0.00186800
Cu      11.23325000       3.75658000      13.59673000  T      -0.00065100       0.00004200      -0.00205600
Cu       1.27601000       6.25980000      13.59536000  T      -0.00243100       0.00105600      -0.00252500
Cu       3.75388000       6.26420000      13.62764000  T      -0.00239300       0.00004700       0.00044700
Cu       6.27703000       6.25569000      13.55906000  T      -0.00195600      -0.00047000      -0.00118300
Cu       8.74946000       6.24593000      13.55914000  T      -0.00126100       0.00000200      -0.00152100
Cu      11.23757000       6.25000000      13.60272000  T      -0.00071600       0.00083200      -0.00152100
Cu       1.27688000       8.75607000      13.58429000  T      -0.00121100       0.00157000      -0.00330800
Cu       3.76641000       8.73941000      13.60907000  T      -0.00101700       0.00081100      -0.00253800
Cu       6.27606000       8.73452000      13.61145000  T      -0.00113400      -0.00036700      -0.00139200
Cu       8.75507000       8.73007000      13.61428000  T      -0.00049900       0.00024200      -0.00229600
Cu      11.25931000       8.75075000      13.59641000  T      -0.00052900       0.00038500      -0.00232300
Cu       1.24674000      11.25814000      13.58906000  T       0.00058000       0.00090400      -0.00292800
Cu       3.74611000      11.25808000      13.56795000  T       0.00041800       0.00021900      -0.00189100
Cu       6.25567000      11.26370000      13.56465000  T       0.00005400      -0.00084500      -0.00163500
Cu       8.76061000      11.26435000      13.57118000  T       0.00042100      -0.00058000      -0.00184100
Cu      11.26888000      11.26504000      13.57343000  T       0.00059000      -0.00005000      -0.00242500
Cu      12.51130000      12.51849000      15.36570000  T       0.00046300       0.00103200      -0.00784300
Cu       2.50561000       0.00977000      15.36247000  T       0.00075300       0.00225600      -0.00690800
Cu       5.00004000      12.47545000      15.35702000  T       0.00032100      -0.00093700      -0.00500700
Cu       7.50459000      12.49313000      15.35000000  T       0.00038200      -0.00096400      -0.00435800
Cu      10.01167000      12.49494000      15.35614000  T       0.00036600      -0.00046800      -0.00532800
Cu       0.05753000       2.50160000      15.34609000  T      -0.00170000       0.00056700      -0.00565600
Cu       2.51977000       2.46271000      15.34578000  T      -0.00162900       0.00225800      -0.00472800
Cu       4.99806000       2.41003000      15.47127000  T      -0.00352200      -0.00148700      -0.00575200
Cu       7.54661000       2.51196000      15.47669000  T      -0.00120000      -0.00247000      -0.00692900
Cu      10.10060000       2.45514000      15.44360000  T      -0.00010900      -0.00122000      -0.00477700
Cu      12.48015000       4.99597000      15.31387000  T      -0.00453800       0.00040100      -0.00437200
Cu       2.43437000       4.93003000      15.46557000  T      -0.00489800       0.00184700      -0.00131400
Pd       5.05910000       4.99241000      15.45517000  T      -0.01163500      -0.00047200      -0.00124500
Y        7.49540000       4.99324000      17.24940000  T       0.00132200      -0.00105600      -0.00172300
Cu       9.98067000       5.00466000      15.44693000  T      -0.00123300      -0.00050300      -0.00591600
Cu       0.02682000       7.50803000      15.34166000  T      -0.00275900       0.00220100      -0.00521000
Cu       2.50362000       7.59234000      15.47859000  T      -0.00165100       0.00453500      -0.01100500
Cu       5.01930000       7.58515000      15.45674000  T      -0.00406500      -0.00097600      -0.00443800
Cu       7.54564000       7.49340000      15.48274000  T      -0.00208200       0.00107300      -0.00609500
Cu      10.08165000       7.56195000      15.44340000  T      -0.00141000      -0.00010000      -0.00443400
Cu      12.51288000      10.00408000      15.36246000  T       0.00006400       0.00110800      -0.00730900
Cu       2.50800000      10.05926000      15.37132000  T       0.00000600       0.00288600      -0.00633700
Cu       5.00603000      10.03459000      15.35025000  T      -0.00014100      -0.00105300      -0.00468400
Cu       7.50598000      10.02523000      15.34857000  T      -0.00005200      -0.00025900      -0.00411400
Cu      10.01238000      10.03372000      15.35352000  T      -0.00001000      -0.00081600      -0.00550300
O        6.13368000       3.39785000      16.68555000  T      -0.00325700       0.00069800       0.00075900
O        6.13381000       6.57599000      16.68245000  T      -0.00551600      -0.00218500       0.00187600
O        8.99189000       6.42727000      16.54760000  T      -0.00264900       0.00002600      -0.00160000
O        8.99304000       3.56449000      16.54928000  T      -0.00173300      -0.00069500      -0.00140900
C        2.67924000       6.86517000      17.26572000  T      -0.02856400       0.00631900      -0.00707600
O        2.81947000       7.62391000      18.36927000  T      -0.00518700       0.01482000      -0.00759900
O        2.68587000       5.61221000      17.41920000  T      -0.04428300       0.01194900       0.00509400
H        2.92029000       7.00715000      19.13655000  T      -0.02010200       0.01129300      -0.00039300
108
Lattice="12.515153631 0.0 0.0 0.0 12.515153631 0.0 0.0 0.0 25.30973" Properties=species:S:1:pos:R:3:move_mask:L:1:forces:R:3 stress="0.008058680817320286 4.379666953632282e-05 0.00021189299331461072 4.379666953632282e-05 0.007687417129985373 -9.782317252996831e-05 0.00021189299331461072 -9.782317252996831e-05 0.0021388216227302974" free_energy=-445.30505672 energy=-445.30574444 pbc="T T T"
Cu       1.25152000       1.25152000      10.00000000  F       0.00691600      -0.00242800      -0.06266800
Cu       3.75455000       1.25152000      10.00000000  F       0.00437600       0.00781000      -0.06696300
Cu       6.25758000       1.25152000      10.00000000  F      -0.00158200       0.01534400      -0.05759400
Cu       8.76061000       1.25152000      10.00000000  F       0.00931800       0.01123100      -0.05972400
Cu      11.26364000       1.25152000      10.00000000  F      -0.02140600       0.00255500      -0.06079200
Cu       1.25152000       3.75455000      10.00000000  F       0.00617800       0.01571200      -0.06755800
Cu       3.75455000       3.75455000      10.00000000  F       0.00314800      -0.00987400      -0.05500200
Cu       6.25758000       3.75455000      10.00000000  F      -0.00900100      -0.02973400      -0.07504300
Cu       8.76061000       3.75455000      10.00000000  F       0.01059200      -0.02716700      -0.07997200
Cu      11.26364000       3.75455000      10.00000000  F      -0.01091600      -0.00471200      -0.06048200
Cu       1.25152000       6.25758000      10.00000000  F      -0.00021500      -0.01242000      -0.05615100
Cu       3.75455000       6.25758000      10.00000000  F       0.00950000       0.01188700      -0.04343500
Cu       6.25758000       6.25758000      10.00000000  F      -0.02022000       0.02433800      -0.07121200
Cu       8.76061000       6.25758000      10.00000000  F       0.01266200       0.02007400      -0.08525000
Cu      11.26364000       6.25758000      10.00000000  F      -0.00176500      -0.00425100      -0.05180200
Cu       1.25152000       8.76061000      10.00000000  F       0.00148600       0.02259300      -0.06181200
Cu       3.75455000       8.76061000      10.00000000  F      -0.00083500       0.00161400      -0.06038400
Cu       6.25758000       8.76061000      10.00000000  F      -0.00887200      -0.01745200      -0.05770500
Cu       8.76061000       8.76061000      10.00000000  F       0.00302700      -0.01754100      -0.03831900
Cu      11.26364000       8.76061000      10.00000000  F       0.00484300       0.00493500      -0.06931300
Cu       1.25152000      11.26364000      10.00000000  F       0.00457600      -0.02294700      -0.02787800
Cu       3.75455000      11.26364000      10.00000000  F      -0.01069000      -0.01152500      -0.07459000
Cu       6.25758000      11.26364000      10.00000000  F      -0.00222800       0.00660900      -0.07015200
Cu       8.76061000      11.26364000      10.00000000  F       0.00274100       0.01129800      -0.05815700
Cu      11.26364000      11.26364000      10.00000000  F       0.00267600       0.00149400      -0.06147700
Cu       0.00000000       0.00000000      11.76991000  F      -0.02902000       0.03917100       0.07043600
Cu       2.50303000       0.00000000      11.76991000  F       0.03812300       0.01151800       0.06144900
Cu       5.00606000       0.00000000      11.76991000  F       0.06469300       0.08128300       0.05577800
Cu       7.50909000       0.00000000      11.76991000  F       0.01066400       0.08020700       0.06943500
Cu      10.01212000       0.00000000      11.76991000  F      -0.04293200       0.09899200       0.08153500
Cu       0.00000000       2.50303000      11.76991000  F      -0.03074500       0.06150500       0.10977800
Cu       2.50303000       2.50303000      11.76991000  F       0.07763900       0.03293000       0.05067400
Cu       5.00606000       2.50303000      11.76991000  F      -0.02598900      -0.03687400       0.05530500
Cu       7.50909000       2.50303000      11.76991000  F       0.00056800      -0.04306000       0.06169800
Cu      10.01212000       2.50303000      11.76991000  F       0.03277600      -0.06563000       0.02645900
Cu       0.00000000       5.00606000      11.76991000  F      -0.02968900       0.02091800       0.08284200
Cu       2.50303000       5.00606000      11.76991000  F       0.09918000       0.02925000       0.08059400
Cu       5.00606000       5.00606000      11.76991000  F      -0.07655100       0.01307800       0.13311200
Cu       7.50909000       5.00606000      11.76991000  F      -0.01420300       0.00111900       0.06842400
Cu      10.01212000       5.00606000      11.76991000  F       0.03438000       0.00760500       0.05017100
Cu       0.00000000       7.50909000      11.76991000  F      -0.04197800      -0.06343300       0.10623600
Cu       2.50303000       7.50909000      11.76991000  F       0.08383900      -0.06170000       0.10314500
Cu       5.00606000       7.50909000      11.76991000  F      -0.04503500       0.03779700       0.06513400
Cu       7.50909000       7.50909000      11.76991000  F      -0.01019800       0.03348400       0.05841900
Cu      10.01212000       7.50909000      11.76991000  F       0.05371300       0.05334200       0.04258600
Cu       0.00000000      10.01212000      11.76991000  F       0.00483900      -0.06770400       0.06614100
Cu       2.50303000      10.01212000      11.76991000  F       0.03187900      -0.02505600       0.03018700
Cu       5.00606000      10.01212000      11.76991000  F       0.02745600      -0.11435300       0.07009500
Cu       7.50909000      10.01212000      11.76991000  F       0.02457600      -0.08031000       0.07878900
Cu      10.01212000      10.01212000      11.76991000  F      -0.05763100      -0.09602800       0.09270100
Cu       1.25836000       1.24247000      13.56704000  T       0.00081400       0.00153300      -0.00344000
Cu       3.78683000       1.25774000      13.59300000  T       0.00024900       0.00064300      -0.00318400
Cu       6.28215000       1.27327000      13.61599000  T      -0.00138900      -0.00054400      -0.00268500
Cu       8.75735000       1.28231000      13.61460000  T      -0.00161800      -0.00044400      -0.00331300
Cu      11.25717000       1.26180000      13.59969000  T      -0.00099600       0.00029100      -0.00389000
Cu       1.27031000       3.76891000      13.58270000  T      -0.00032400       0.00151800      -0.00219100
Cu       3.76386000       3.75618000      13.61054000  T      -0.00131900       0.00196100      -0.00081200
Cu       6.28081000       3.75112000      13.55869000  T      -0.00274100       0.00041900      -0.00107500
Cu       8.74963000       3.76496000      13.56102000  T      -0.00319600      -0.00018400      -0.00220400
Cu      11.23342000       3.75653000      13.59701000  T      -0.00176900       0.00019400      -0.00292400
Cu       1.27612000       6.25981000      13.59558000  T      -0.00123500       0.00077900      -0.00224800
Cu       3.75399000       6.26423000      13.62774000  T      -0.00170700       0.00015400      -0.00003000
Cu       6.27712000       6.25582000      13.55919000  T      -0.00279500      -0.00134700      -0.00092200
Cu       8.74961000       6.24602000      13.55931000  T      -0.00336800      -0.00049600      -0.00195100
Cu      11.23775000       6.25003000      13.60297000  T      -0.00180300       0.00071400      -0.00223400
Cu       1.27694000       8.75607000      13.58468000  T      -0.00018800       0.00125700      -0.00431900
Cu       3.76642000       8.73948000      13.60936000  T       0.00003200       0.00021700      -0.00305400
Cu       6.27612000       8.73466000      13.61169000  T      -0.00184000      -0.00103700      -0.00197900
Cu       8.75517000       8.73021000      13.61453000  T      -0.00211600      -0.00040800      -0.00286100
Cu      11.25943000       8.75082000      13.59673000  T      -0.00132500       0.00012400      -0.00330100
Cu       1.24671000      11.25808000      13.58949000  T       0.00161600       0.00085000      -0.00441500
Cu       3.74602000      11.25808000      13.56830000  T       0.00200000       0.00000800      -0.00298800
Cu       6.25562000      11.26372000      13.56491000  T      -0.00005700      -0.00097700      -0.00209100
Cu       8.76066000      11.26436000      13.57148000  T      -0.00128200      -0.00064600      -0.00250800
Cu      11.26893000      11.26503000      13.57384000  T      -0.00020100      -0.00002700      -0.00383100
Cu      12.51128000      12.51842000      15.36638000  T       0.00101200       0.00120900      -0.01037500
Cu       2.50559000       0.00965000      15.36308000  T       0.00156200       0.00246300      -0.00963800
Cu       5.00002000      12.47549000      15.35749000  T       0.00052100      -0.00121200      -0.00755200
Cu       7.50456000      12.49311000      15.35042000  T      -0.00018900      -0.00097900      -0.00678000
Cu      10.01164000      12.49494000      15.35669000  T      -0.00014900      -0.00065300      -0.00773300
Cu       0.05767000       2.50153000      15.34664000  T      -0.00166100       0.00098800      -0.00733700
Cu       2.51984000       2.46257000      15.34623000  T      -0.00105700       0.00284400      -0.00648400
Cu       4.99821000       2.41006000      15.47166000  T      -0.00315600      -0.00119100      -0.00674400
Cu       7.54674000       2.51200000      15.47712000  T      -0.00302300      -0.00290000      -0.00836700
Cu      10.10074000       2.45513000      15.44397000  T      -0.00111400      -0.00133900      -0.00527100
Cu      12.48049000       4.99593000      15.31421000  T      -0.00471400       0.00081900      -0.00509600
Cu       2.43470000       4.92988000      15.46570000  T      -0.00526400       0.00251300      -0.00088900
Pd       5.05923000       4.99245000      15.45525000  T      -0.01936400      -0.00191500      -0.00381900
Y        7.49555000       4.99332000      17.24969000  T      -0.00393500      -0.00268100      -0.00260400
Cu       9.98088000       5.00471000      15.44729000  T      -0.00183300      -0.00081200      -0.00644200
Cu       0.02701000       7.50792000      15.34211000  T      -0.00249100       0.00248300      -0.00643100
Cu       2.50379000       7.59203000      15.47910000  T      -0.00198500       0.00507000      -0.01128500
Cu       5.01948000       7.58525000      15.45703000  T      -0.00350800      -0.00162200      -0.00487900
Cu       7.54580000       7.49346000      15.48309000  T      -0.00426300       0.00075400      -0.00678800
Cu      10.08184000       7.56203000      15.44375000  T      -0.00259200      -0.00028600      -0.00491500
Cu      12.51288000      10.00396000      15.36308000  T       0.00067600       0.00166600      -0.00962800
Cu       2.50803000      10.05909000      15.37185000  T       0.00062200       0.00347300      -0.00891900
Cu       5.00605000      10.03467000      15.35069000  T      -0.00015300      -0.00143900      -0.00722600
Cu       7.50598000      10.02528000      15.34898000  T      -0.00079600      -0.00035800      -0.00672600
Cu      10.01237000      10.03376000      15.35405000  T      -0.00047100      -0.00076100      -0.00788800
O        6.13364000       3.39790000      16.68623000  T      -0.00469900      -0.00006700       0.00205300
O        6.13384000       6.57614000      16.68302000  T      -0.00512100      -0.00005700       0.00148900
O        8.99220000       6.42747000      16.54818000  T      -0.00179900       0.00179000       0.00267600
O        8.99333000       3.56445000      16.54991000  T      -0.00093100      -0.00153400       0.00348100
C        2.68146000       6.86448000      17.26606000  T      -0.02561000       0.00878500      -0.00098900
O        2.82028000       7.62288000      18.37017000  T      -0.00885800       0.00863600      -0.01219300
O        2.69057000       5.61144000      17.41908000  T      -0.02469600       0.01435600       0.00082600
H        2.92168000       7.00580000      19.13709000  T      -0.01906400       0.01190500      -0.00076500
