108
Lattice="12.515153631 0.0 0.0 0.0 12.515153631 0.0 0.0 0.0 25.30973" Properties=species:S:1:pos:R:3:move_mask:L:1:forces:R:3 stress="0.007834148768025764 -5.277820116846883e-05 -5.042515222801085e-05 -5.277820116846883e-05 0.007381938948837269 -8.524653164131355e-05 -5.042515222801085e-05 -8.524653164131355e-05 0.001880541733592122" free_energy=-444.8175975 energy=-444.81445716 pbc="T T T"
Cu       1.25152000       1.25152000      10.00000000  F       0.00218400      -0.02111900      -0.08286900
Cu       3.75455000       1.25152000      10.00000000  F       0.01573500      -0.00065800      -0.07399000
Cu       6.25758000       1.25152000      10.00000000  F      -0.01612400       0.01056900      -0.04925900
Cu       8.76061000       1.25152000      10.00000000  F       0.01260700       0.00398300      -0.04504400
Cu      11.26364000       1.25152000      10.00000000  F      -0.01408400      -0.00186800      -0.07138000
Cu       1.25152000       3.75455000      10.00000000  F       0.00351200       0.00315000      -0.06465900
Cu       3.75455000       3.75455000      10.00000000  F       0.01529100      -0.01191000      -0.05763100
Cu       6.25758000       3.75455000      10.00000000  F      -0.01933800      -0.01634900      -0.08759900
Cu       8.76061000       3.75455000      10.00000000  F       0.02068600      -0.01447000      -0.09245100
Cu      11.26364000       3.75455000      10.00000000  F      -0.01749300       0.00063700      -0.05497500
Cu       1.25152000       6.25758000      10.00000000  F      -0.00242100       0.00006400      -0.07880300
Cu       3.75455000       6.25758000      10.00000000  F       0.01687700       0.02083600      -0.06432000
Cu       6.25758000       6.25758000      10.00000000  F      -0.01860100       0.01952300      -0.08095200
Cu       8.76061000       6.25758000      10.00000000  F       0.01686100       0.02039400      -0.07807400
Cu      11.26364000       6.25758000      10.00000000  F      -0.01068900       0.00813600      -0.06593400
Cu       1.25152000       8.76061000      10.00000000  F      -0.00301800       0.00612300      -0.07256700
Cu       3.75455000       8.76061000      10.00000000  F       0.00583200      -0.02118900      -0.07339800
Cu       6.25758000       8.76061000      10.00000000  F      -0.00890000      -0.02407100      -0.06095100
Cu       8.76061000       8.76061000      10.00000000  F       0.01017400      -0.01557700      -0.05445700
Cu      11.26364000       8.76061000      10.00000000  F      -0.00565300      -0.01783800      -0.07722500
Cu       1.25152000      11.26364000      10.00000000  F      -0.00500800       0.00942300      -0.01369100
Cu       3.75455000      11.26364000      10.00000000  F      -0.00480100       0.01148100      -0.07239100
Cu       6.25758000      11.26364000      10.00000000  F       0.00263300       0.01626000      -0.07552500
Cu       8.76061000      11.26364000      10.00000000  F      -0.00478200       0.00685400      -0.07399700
Cu      11.26364000      11.26364000      10.00000000  F       0.01003600       0.00807900      -0.07070500
Cu       0.00000000       0.00000000      11.76991000  F      -0.02034500       0.02631800       0.04559900
Cu       2.50303000       0.00000000      11.76991000  F       0.04419800       0.00627200       0.03519800
Cu       5.00606000       0.00000000      11.76991000  F       0.06598700       0.05526300       0.06198300
Cu       7.50909000       0.00000000      11.76991000  F       0.00449900       0.03565200       0.05349300
Cu      10.01212000       0.00000000      11.76991000  F      -0.05536100       0.05045000       0.08247300
Cu       0.00000000       2.50303000      11.76991000  F      -0.09683700       0.02001000       0.03090300
Cu       2.50303000       2.50303000      11.76991000  F       0.07318400       0.01938800       0.01647200
Cu       5.00606000       2.50303000      11.76991000  F       0.00951000      -0.04175800       0.07077400
Cu       7.50909000       2.50303000      11.76991000  F       0.00311900       0.00965100       0.24187000
Cu      10.01212000       2.50303000      11.76991000  F      -0.04676800       0.00363700       0.13310100
Cu       0.00000000       5.00606000      11.76991000  F      -0.07752300       0.04312900       0.00882600
Cu       2.50303000       5.00606000      11.76991000  F       0.05235700       0.02452400       0.01257800
Cu       5.00606000       5.00606000      11.76991000  F      -0.00415500      -0.00947800       0.10339600
Cu       7.50909000       5.00606000      11.76991000  F      -0.03254000      -0.10125300       0.17617700
Cu      10.01212000       5.00606000      11.76991000  F      -0.04153000      -0.04537500       0.10452600
Cu       0.00000000       7.50909000      11.76991000  F      -0.04972100       0.01834400       0.05230600
Cu       2.50303000       7.50909000      11.76991000  F       0.05804900       0.05328900       0.01424300
Cu       5.00606000       7.50909000      11.76991000  F      -0.00772500       0.05483300       0.01303900
Cu       7.50909000       7.50909000      11.76991000  F      -0.03784800       0.03148700       0.03048800
Cu      10.01212000       7.50909000      11.76991000  F       0.07837600       0.07864000      -0.01965400
Cu       0.00000000      10.01212000      11.76991000  F      -0.02011300      -0.04882000       0.08158900
Cu       2.50303000      10.01212000      11.76991000  F       0.04950300      -0.04096200       0.09417400
Cu       5.00606000      10.01212000      11.76991000  F       0.05940400      -0.07721700       0.07599500
Cu       7.50909000      10.01212000      11.76991000  F       0.02014800      -0.10953600       0.05863800
Cu      10.01212000      10.01212000      11.76991000  F      -0.04357300      -0.08576800       0.08142600
Cu       1.26028000       1.23613000      13.56749000  T       0.00042000       0.00016200       0.00053300
Cu       3.77637000       1.26199000      13.58458000  T       0.00059300      -0.00084600       0.00015800
Cu       6.29734000       1.26200000      13.62279000  T       0.00082400      -0.00200800       0.00138000
Cu       8.73622000       1.25542000      13.61764000  T      -0.00136700      -0.00129100       0.00194700
Cu      11.25877000       1.26283000      13.58283000  T      -0.00089200       0.00012800       0.00105700
Cu       1.23833000       3.75025000      13.55351000  T      -0.00024200       0.00042700       0.00027600
Cu       3.75090000       3.76936000      13.58657000  T      -0.00190900      -0.00082800      -0.00074400
Cu       6.26154000       3.74384000      13.59066000  T      -0.00400400      -0.00263100      -0.00247800
Cu       8.70866000       3.74766000      13.61815000  T      -0.00574100       0.00079800       0.00701100
Cu      11.22843000       3.78210000      13.58586000  T      -0.00211100       0.00009000       0.00157200
Cu       1.24928000       6.26391000      13.56257000  T       0.00228700       0.00084700      -0.00000100
Cu       3.76007000       6.29149000      13.57788000  T       0.00203800       0.00048800       0.00027300
Cu       6.27146000       6.23936000      13.56983000  T       0.00219400      -0.00121900      -0.00157900
Cu       8.74516000       6.25074000      13.53950000  T       0.00253900      -0.00027000       0.00047100
Cu      11.24414000       6.28666000      13.59193000  T       0.00169500      -0.00007200       0.00061200
Cu       1.26588000       8.76594000      13.58172000  T      -0.00019700       0.00095500       0.00019400
Cu       3.79064000       8.76583000      13.61142000  T      -0.00028100       0.00048600      -0.00009100
Cu       6.27908000       8.71117000      13.60803000  T      -0.00118700      -0.00166400      -0.00104800
Cu       8.76622000       8.71152000      13.61317000  T      -0.00047600      -0.00060400      -0.00047700
Cu      11.25922000       8.76295000      13.60597000  T      -0.00049600       0.00071100       0.00038800
Cu       1.24975000      11.25761000      13.59485000  T       0.00070600       0.00062400       0.00051100
Cu       3.74939000      11.27096000      13.57693000  T       0.00091900       0.00029500       0.00062300
Cu       6.26006000      11.24952000      13.56685000  T      -0.00000200      -0.00229300       0.00012900
Cu       8.75825000      11.24487000      13.57072000  T      -0.00019600      -0.00181900      -0.00034100
Cu      11.27050000      11.26942000      13.57614000  T       0.00012000       0.00039700       0.00087100
Cu      12.51237000       0.00806000      15.36469000  T       0.00099200       0.00061500       0.00038100
Cu       2.51291000       0.00229000      15.36199000  T       0.00222200       0.00119200       0.00010400
Cu       5.01709000       0.01577000      15.35499000  T       0.00326400      -0.00133100       0.00068900
Cu       7.51105000      12.32652000      15.39775000  T       0.00226500      -0.01043100       0.00034900
Cu      10.01388000       0.00082000      15.35078000  T       0.00010400      -0.00007400       0.00051500
Cu       0.04356000       2.50461000      15.33711000  T      -0.00235800       0.00058200       0.00007400
Cu       2.48842000       2.50105000      15.33896000  T      -0.00248600       0.00080500       0.00080700
Cu       4.94963000       2.45891000      15.39300000  T      -0.00319500      -0.00208100       0.00059000
Cu       7.50146000       2.14428000      15.79596000  T      -0.00649600      -0.01015400       0.00705000
Cu      10.11110000       2.45447000      15.38327000  T      -0.00250300      -0.00204000       0.00113700
Cu      12.50021000       5.00808000      15.32304000  T       0.00422300       0.00060900       0.00021900
Cu       2.40510000       5.00014000      15.34540000  T       0.00440300       0.00143500       0.00031000
Pd       4.91105000       5.08491000      15.49184000  T       0.00492100      -0.00270400      -0.00313700
Y        7.51063000       4.89821000      17.27245000  T       0.00203900      -0.00266400      -0.01603100
Cu      10.02836000       5.12146000      15.39291000  T       0.00658400       0.00101900       0.00367500
Cu       0.05426000       7.50750000      15.36003000  T      -0.00026000       0.00048200       0.00032200
Cu       2.54038000       7.49384000      15.35910000  T      -0.00083200       0.00197300      -0.00006300
Cu       5.03200000       7.64506000      15.50436000  T      -0.00071500      -0.00207100      -0.00206600
Cu       7.55743000       7.40965000      15.49386000  T       0.00048600      -0.00392700      -0.00189700
Cu      10.08560000       7.60262000      15.48616000  T      -0.00013500       0.00155500       0.00059400
Cu      12.50860000      10.00725000      15.37202000  T      -0.00057300       0.00057800       0.00044000
Cu       2.51056000      10.00093000      15.37118000  T      -0.00006000       0.00132800      -0.00025700
Cu       5.01747000      10.08661000      15.36571000  T      -0.00006700      -0.00131000      -0.00033700
Cu       7.50494000       9.91180000      15.34917000  T      -0.00100000      -0.00765900       0.00048200
Cu      10.00337000      10.06099000      15.35970000  T      -0.00148000       0.00108000       0.00079800
O        5.97756000       3.57069000      16.52699000  T      -0.00913100      -0.00630100       0.01551700
O        6.14046000       6.55592000      16.68092000  T       0.00169800      -0.00215600       0.00036100
O        9.00170000       6.46148000      16.60358000  T       0.00262600      -0.00732400       0.00210400
O        8.87594000       3.72207000      16.10378000  T      -0.03644500       0.00771500      -0.05387300
C        7.64982000       1.77197000      17.76040000  T       0.01159900       0.01207200       0.00939900
O        7.59803000       0.54045000      18.31469000  T       0.00652600       0.01952600       0.02926100
O        7.73573000       2.76010000      18.53192000  T       0.02073800       0.02231400       0.00513500
H        7.62443000       0.63865000      19.29974000  T       0.01199500       0.02530100       0.01933200
108
Lattice="12.515153631 0.0 0.0 0.0 12.515153631 0.0 0.0 0.0 25.30973" Properties=species:S:1:pos:R:3:move_mask:L:1:forces:R:3 stress="0.007853846970827052 -5.2291363456649934e-05 -5.0812125793815605e-05 -5.2291363456649934e-05 0.0074006697177240455 -8.532767125995003e-05 -5.0812125793815605e-05 -8.532767125995003e-05 0.0019011574382349148" free_energy=-444.81836459 energy=-444.81522719 pbc="T T T"
Cu       1.25152000       1.25152000      10.00000000  F       0.00233500      -0.02142600      -0.08286700
Cu       3.75455000       1.25152000      10.00000000  F       0.01597800      -0.00095100      -0.07397600
Cu       6.25758000       1.25152000      10.00000000  F      -0.01604800       0.01011000      -0.04922100
Cu       8.76061000       1.25152000      10.00000000  F       0.01255000       0.00351600      -0.04489300
Cu      11.26364000       1.25152000      10.00000000  F      -0.01408600      -0.00241300      -0.07157400
Cu       1.25152000       3.75455000      10.00000000  F       0.00367500       0.00294900      -0.06490300
Cu       3.75455000       3.75455000      10.00000000  F       0.01550400      -0.01211500      -0.05779700
Cu       6.25758000       3.75455000      10.00000000  F      -0.01924400      -0.01656900      -0.08772100
Cu       8.76061000       3.75455000      10.00000000  F       0.02062100      -0.01468800      -0.09260900
Cu      11.26364000       3.75455000      10.00000000  F      -0.01749500       0.00036400      -0.05515600
Cu       1.25152000       6.25758000      10.00000000  F      -0.00220200       0.00006400      -0.07900100
Cu       3.75455000       6.25758000      10.00000000  F       0.01710100       0.02102400      -0.06444200
Cu       6.25758000       6.25758000      10.00000000  F      -0.01853100       0.01970200      -0.08103900
Cu       8.76061000       6.25758000      10.00000000  F       0.01673800       0.02050000      -0.07825700
Cu      11.26364000       6.25758000      10.00000000  F      -0.01067300       0.00824700      -0.06607300
Cu       1.25152000       8.76061000      10.00000000  F      -0.00280500       0.00616500      -0.07209700
Cu       3.75455000       8.76061000      10.00000000  F       0.00622400      -0.02121900      -0.07328700
Cu       6.25758000       8.76061000      10.00000000  F      -0.00888800      -0.02393300      -0.06088300
Cu       8.76061000       8.76061000      10.00000000  F       0.01005100      -0.01540600      -0.05430300
Cu      11.26364000       8.76061000      10.00000000  F      -0.00574000      -0.01754100      -0.07722900
Cu       1.25152000      11.26364000      10.00000000  F      -0.00512600       0.00930200      -0.01304400
Cu       3.75455000      11.26364000      10.00000000  F      -0.00444400       0.01121800      -0.07164700
Cu       6.25758000      11.26364000      10.00000000  F       0.00289000       0.01601600      -0.07533300
Cu       8.76061000      11.26364000      10.00000000  F      -0.00475500       0.00665900      -0.07402800
Cu      11.26364000      11.26364000      10.00000000  F       0.00989400       0.00789000      -0.07068800
Cu       0.00000000       0.00000000      11.76991000  F      -0.02039300       0.02593400       0.04571300
Cu       2.50303000       0.00000000      11.76991000  F       0.04438800       0.00594300       0.03546900
Cu       5.00606000       0.00000000      11.76991000  F       0.06619800       0.05486600       0.06214400
Cu       7.50909000       0.00000000      11.76991000  F       0.00452000       0.03521500       0.05355100
Cu      10.01212000       0.00000000      11.76991000  F      -0.05533400       0.05002000       0.08250500
Cu       0.00000000       2.50303000      11.76991000  F      -0.09679600       0.01957100       0.03096500
Cu       2.50303000       2.50303000      11.76991000  F       0.07334000       0.01893500       0.01643600
Cu       5.00606000       2.50303000      11.76991000  F       0.00963900      -0.04223800       0.07072700
Cu       7.50909000       2.50303000      11.76991000  F       0.00315400       0.00920500       0.24179600
Cu      10.01212000       2.50303000      11.76991000  F      -0.04683500       0.00321800       0.13312000
Cu       0.00000000       5.00606000      11.76991000  F      -0.07743700       0.04307000       0.00885200
Cu       2.50303000       5.00606000      11.76991000  F       0.05257600       0.02455900       0.01249200
Cu       5.00606000       5.00606000      11.76991000  F      -0.00402900      -0.00944500       0.10335800
Cu       7.50909000       5.00606000      11.76991000  F      -0.03250100      -0.10126900       0.17609400
Cu      10.01212000       5.00606000      11.76991000  F      -0.04161200      -0.04546100       0.10451500
Cu       0.00000000       7.50909000      11.76991000  F      -0.04960400       0.01855900       0.05247800
Cu       2.50303000       7.50909000      11.76991000  F       0.05833700       0.05355000       0.01430100
Cu       5.00606000       7.50909000      11.76991000  F      -0.00760700       0.05510700       0.01300600
Cu       7.50909000       7.50909000      11.76991000  F      -0.03785400       0.03167500       0.03054100
Cu      10.01212000       7.50909000      11.76991000  F       0.07832900       0.07884400      -0.01952000
Cu       0.00000000      10.01212000      11.76991000  F      -0.02014000      -0.04872500       0.08173700
Cu       2.50303000      10.01212000      11.76991000  F       0.04978400      -0.04105600       0.09451100
Cu       5.00606000      10.01212000      11.76991000  F       0.05956200      -0.07733200       0.07615300
Cu       7.50909000      10.01212000      11.76991000  F       0.02006400      -0.10956100       0.05867500
Cu      10.01212000      10.01212000      11.76991000  F      -0.04352100      -0.08566100       0.08142800
Cu       1.26028000       1.23614000      13.56750000  T       0.00051000      -0.00079100       0.00017400
Cu       3.77637000       1.26198000      13.58458000  T       0.00071200      -0.00139600      -0.00002000
Cu       6.29735000       1.26199000      13.62281000  T       0.00055900      -0.00223300       0.00069500
Cu       8.73620000       1.25544000      13.61768000  T      -0.00103500      -0.00179700       0.00091200
Cu      11.25875000       1.26284000      13.58285000  T      -0.00055800      -0.00076800       0.00052500
Cu       1.23833000       3.75026000      13.55351000  T       0.00002000      -0.00007400       0.00001000
Cu       3.75088000       3.76935000      13.58656000  T      -0.00077200      -0.00081500      -0.00060900
Cu       6.26154000       3.74382000      13.59065000  T      -0.00220600      -0.00191500      -0.00158900
Cu       8.70861000       3.74766000      13.61818000  T      -0.00344800       0.00021800       0.00375600
Cu      11.22839000       3.78210000      13.58589000  T      -0.00126300      -0.00016200       0.00076800
Cu       1.24930000       6.26391000      13.56257000  T       0.00156700       0.00109600      -0.00017100
Cu       3.76009000       6.29149000      13.57788000  T       0.00164000       0.00073800       0.00005500
Cu       6.27148000       6.23935000      13.56982000  T       0.00151100      -0.00018400      -0.00114300
Cu       8.74519000       6.25072000      13.53952000  T       0.00129000       0.00044700       0.00008400
Cu      11.24413000       6.28664000      13.59195000  T       0.00104200       0.00048800       0.00028000
Cu       1.26588000       8.76595000      13.58172000  T       0.00009300       0.00098400       0.00001200
Cu       3.79064000       8.76583000      13.61142000  T       0.00016400       0.00081800      -0.00023200
Cu       6.27906000       8.71115000      13.60802000  T      -0.00048100      -0.00049000      -0.00076600
Cu       8.76621000       8.71151000      13.61316000  T      -0.00043500       0.00004100      -0.00036500
Cu      11.25921000       8.76296000      13.60597000  T      -0.00041900       0.00081200       0.00022500
Cu       1.24976000      11.25762000      13.59486000  T       0.00068500      -0.00002500       0.00022400
Cu       3.74940000      11.27097000      13.57694000  T       0.00098400      -0.00028500       0.00019900
Cu       6.26005000      11.24950000      13.56686000  T       0.00014200      -0.00183800      -0.00007300
Cu       8.75824000      11.24486000      13.57073000  T      -0.00028100      -0.00152400      -0.00031700
Cu      11.27050000      11.26943000      13.57615000  T      -0.00004300      -0.00024600       0.00035400
Cu      12.51237000       0.00807000      15.36469000  T       0.00066300      -0.00032700       0.00029300
Cu       2.51293000       0.00231000      15.36200000  T       0.00153400      -0.00000500       0.00004800
Cu       5.01711000       0.01576000      15.35499000  T       0.00201100      -0.00151700       0.00008100
Cu       7.51107000      12.32643000      15.39775000  T       0.00125000      -0.00664600      -0.00025300
Cu      10.01387000       0.00083000      15.35078000  T       0.00005100      -0.00088700       0.00012200
Cu       0.04355000       2.50462000      15.33710000  T      -0.00125200      -0.00027900       0.00043400
Cu       2.48840000       2.50106000      15.33897000  T      -0.00121100      -0.00018500       0.00077000
Cu       4.94959000       2.45890000      15.39299000  T      -0.00187100      -0.00202500       0.00035100
Cu       7.50147000       2.14430000      15.79596000  T      -0.00459900      -0.00796800       0.00432800
Cu      10.11105000       2.45447000      15.38328000  T      -0.00107200      -0.00215000       0.00082100
Cu      12.50024000       5.00809000      15.32303000  T       0.00266000       0.00043900       0.00056600
Cu       2.40515000       5.00015000      15.34540000  T       0.00284800       0.00089600       0.00062300
Pd       4.91113000       5.08489000      15.49180000  T      -0.00379700       0.00317800      -0.00062100
Y        7.51072000       4.89816000      17.27235000  T      -0.00159200       0.00031200      -0.00335300
Cu      10.02834000       5.12143000      15.39297000  T       0.00536000       0.00128000       0.00161000
Cu       0.05426000       7.50750000      15.36003000  T      -0.00004800       0.00077200       0.00029900
Cu       2.54037000       7.49385000      15.35909000  T      -0.00026500       0.00162000       0.00003700
Cu       5.03200000       7.64503000      15.50435000  T      -0.00018800      -0.00094700      -0.00118100
Cu       7.55742000       7.40962000      15.49384000  T       0.00028900      -0.00208700      -0.00116700
Cu      10.08560000       7.60263000      15.48617000  T      -0.00010800       0.00129000       0.00034000
Cu      12.50859000      10.00726000      15.37202000  T      -0.00028300       0.00031900       0.00010500
Cu       2.51056000      10.00094000      15.37118000  T       0.00028600       0.00080300      -0.00031900
Cu       5.01747000      10.08660000      15.36571000  T       0.00020700      -0.00073800      -0.00059900
Cu       7.50493000       9.91173000      15.34917000  T      -0.00056000      -0.00422400      -0.00033300
Cu      10.00336000      10.06101000      15.35971000  T      -0.00097000       0.00056700       0.00008400
O        5.97753000       3.57061000      16.52707000  T      -0.00961600      -0.00649100       0.01184100
O        6.14047000       6.55590000      16.68093000  T       0.00042400      -0.00067900      -0.00076900
O        9.00172000       6.46142000      16.60357000  T       0.00350400      -0.00411700       0.00083400
O        8.87579000       3.72211000      16.10351000  T      -0.03123000       0.00501100      -0.04842800
C        7.64989000       1.77208000      17.76049000  T       0.01079900       0.00875700       0.00747200
O        7.59805000       0.54057000      18.31482000  T       0.00628700       0.01552100       0.02981300
O        7.73580000       2.76019000      18.53196000  T       0.01899500       0.01933800       0.00625900
H        7.62450000       0.63877000      19.29990000  T       0.01176400       0.02508000       0.01792600
108
Lattice="12.515153631 0.0 0.0 0.0 12.515153631 0.0 0.0 0.0 25.30973" Properties=species:S:1:pos:R:3:move_mask:L:1:forces:R:3 stress="0.007856318608440901 -5.164224650755808e-05 -4.920805794846361e-05 -5.164224650755808e-05 0.007405563060878737 -8.192604878634363e-05 -4.920805794846361e-05 -8.192604878634363e-05 0.001894666268743996" free_energy=-444.81655175 energy=-444.81342895 pbc="T T T"
Cu       1.25152000       1.25152000      10.00000000  F       0.00214200      -0.02092700      -0.08284100
Cu       3.75455000       1.25152000      10.00000000  F       0.01580200      -0.00044400      -0.07406700
Cu       6.25758000       1.25152000      10.00000000  F      -0.01611700       0.01063300      -0.04953600
Cu       8.76061000       1.25152000      10.00000000  F       0.01265800       0.00403800      -0.04505500
Cu      11.26364000       1.25152000      10.00000000  F      -0.01403400      -0.00191000      -0.07170200
Cu       1.25152000       3.75455000      10.00000000  F       0.00339500       0.00317000      -0.06482100
Cu       3.75455000       3.75455000      10.00000000  F       0.01541400      -0.01192800      -0.05785300
Cu       6.25758000       3.75455000      10.00000000  F      -0.01931800      -0.01640600      -0.08782600
Cu       8.76061000       3.75455000      10.00000000  F       0.02075200      -0.01447400      -0.09254600
Cu      11.26364000       3.75455000      10.00000000  F      -0.01744100       0.00062000      -0.05507400
Cu       1.25152000       6.25758000      10.00000000  F      -0.00236900      -0.00007500      -0.07892900
Cu       3.75455000       6.25758000      10.00000000  F       0.01687400       0.02086200      -0.06449700
Cu       6.25758000       6.25758000      10.00000000  F      -0.01861100       0.01953600      -0.08124600
Cu       8.76061000       6.25758000      10.00000000  F       0.01692500       0.02029900      -0.07830500
Cu      11.26364000       6.25758000      10.00000000  F      -0.01064700       0.00807100      -0.06605900
Cu       1.25152000       8.76061000      10.00000000  F      -0.00287500       0.00592100      -0.07214200
Cu       3.75455000       8.76061000      10.00000000  F       0.00599500      -0.02134800      -0.07346500
Cu       6.25758000       8.76061000      10.00000000  F      -0.00895200      -0.02402700      -0.06120600
Cu       8.76061000       8.76061000      10.00000000  F       0.01015300      -0.01561100      -0.05456900
Cu      11.26364000       8.76061000      10.00000000  F      -0.00572400      -0.01779200      -0.07731000
Cu       1.25152000      11.26364000      10.00000000  F      -0.00515800       0.00952200      -0.01311300
Cu       3.75455000      11.26364000      10.00000000  F      -0.00459700       0.01136900      -0.07182900
Cu       6.25758000      11.26364000      10.00000000  F       0.00279500       0.01615600      -0.07565200
Cu       8.76061000      11.26364000      10.00000000  F      -0.00471400       0.00694400      -0.07439800
Cu      11.26364000      11.26364000      10.00000000  F       0.00988300       0.00816500      -0.07081800
Cu       0.00000000       0.00000000      11.76991000  F      -0.02054800       0.02638100       0.04546400
Cu       2.50303000       0.00000000      11.76991000  F       0.04424700       0.00637200       0.03524700
Cu       5.00606000       0.00000000      11.76991000  F       0.06607400       0.05544000       0.06200900
Cu       7.50909000       0.00000000      11.76991000  F       0.00466900       0.03575600       0.05338000
Cu      10.01212000       0.00000000      11.76991000  F      -0.05539800       0.05045400       0.08234900
Cu       0.00000000       2.50303000      11.76991000  F      -0.09684900       0.01998700       0.03080600
Cu       2.50303000       2.50303000      11.76991000  F       0.07311600       0.01935200       0.01639100
Cu       5.00606000       2.50303000      11.76991000  F       0.00968500      -0.04159300       0.07065300
Cu       7.50909000       2.50303000      11.76991000  F       0.00284400       0.00924100       0.24131900
Cu      10.01212000       2.50303000      11.76991000  F      -0.04614400       0.00310600       0.13234200
Cu       0.00000000       5.00606000      11.76991000  F      -0.07759600       0.04318500       0.00877900
Cu       2.50303000       5.00606000      11.76991000  F       0.05223600       0.02454200       0.01236700
Cu       5.00606000       5.00606000      11.76991000  F      -0.00397800      -0.00955200       0.10327900
Cu       7.50909000       5.00606000      11.76991000  F      -0.03264700      -0.10079100       0.17579000
Cu      10.01212000       5.00606000      11.76991000  F      -0.04123600      -0.04504100       0.10426500
Cu       0.00000000       7.50909000      11.76991000  F      -0.04990300       0.01820200       0.05233600
Cu       2.50303000       7.50909000      11.76991000  F       0.05809300       0.05338300       0.01410400
Cu       5.00606000       7.50909000      11.76991000  F      -0.00773300       0.05487400       0.01284200
Cu       7.50909000       7.50909000      11.76991000  F      -0.03778400       0.03160800       0.03038700
Cu      10.01212000       7.50909000      11.76991000  F       0.07825200       0.07870300      -0.01961400
Cu       0.00000000      10.01212000      11.76991000  F      -0.02020000      -0.04875900       0.08158600
Cu       2.50303000      10.01212000      11.76991000  F       0.04962600      -0.04107900       0.09418800
Cu       5.00606000      10.01212000      11.76991000  F       0.05944800      -0.07722100       0.07585600
Cu       7.50909000      10.01212000      11.76991000  F       0.02004900      -0.10945400       0.05849800
Cu      10.01212000      10.01212000      11.76991000  F      -0.04347600      -0.08556700       0.08137400
Cu       1.26028000       1.23611000      13.56748000  T       0.00013500       0.00024300       0.00059500
Cu       3.77637000       1.26198000      13.58457000  T       0.00035400      -0.00085000       0.00015500
Cu       6.29734000       1.26204000      13.62276000  T       0.00090700      -0.00214200       0.00136700
Cu       8.73621000       1.25551000      13.61765000  T      -0.00098200      -0.00093200       0.00208400
Cu      11.25874000       1.26284000      13.58283000  T      -0.00067600       0.00031700       0.00107600
Cu       1.23834000       3.75025000      13.55349000  T      -0.00060100       0.00042700       0.00050300
Cu       3.75093000       3.76938000      13.58654000  T      -0.00188000      -0.00087900      -0.00060300
Cu       6.26173000       3.74388000      13.59070000  T      -0.00337300      -0.00275800      -0.00208900
Cu       8.70877000       3.74762000      13.61789000  T      -0.00478200       0.00043800       0.00578900
Cu      11.22841000       3.78211000      13.58584000  T      -0.00220300       0.00003600       0.00186300
Cu       1.24923000       6.26392000      13.56256000  T       0.00207100       0.00060500       0.00019500
Cu       3.76003000       6.29152000      13.57786000  T       0.00211300       0.00016700       0.00056700
Cu       6.27144000       6.23944000      13.56983000  T       0.00251300      -0.00146200      -0.00165700
Cu       8.74509000       6.25073000      13.53952000  T       0.00296900      -0.00103100       0.00093200
Cu      11.24402000       6.28666000      13.59194000  T       0.00168100      -0.00052900       0.00115700
Cu       1.26590000       8.76595000      13.58171000  T      -0.00033300       0.00082100       0.00024600
Cu       3.79067000       8.76585000      13.61141000  T      -0.00057900       0.00036300      -0.00014000
Cu       6.27909000       8.71125000      13.60804000  T      -0.00120700      -0.00200600      -0.00115100
Cu       8.76620000       8.71158000      13.61316000  T      -0.00015600      -0.00104300      -0.00058100
Cu      11.25921000       8.76297000      13.60595000  T      -0.00024900       0.00045800       0.00049000
Cu       1.24975000      11.25760000      13.59484000  T       0.00071800       0.00067200       0.00055500
Cu       3.74940000      11.27097000      13.57691000  T       0.00065100       0.00023000       0.00054700
Cu       6.26005000      11.24957000      13.56685000  T       0.00006100      -0.00241300       0.00003800
Cu       8.75820000      11.24491000      13.57073000  T       0.00017100      -0.00184000      -0.00050300
Cu      11.27047000      11.26942000      13.57613000  T       0.00038200       0.00048100       0.00086400
Cu      12.51234000       0.00805000      15.36468000  T       0.00111200       0.00067100       0.00010000
Cu       2.51288000       0.00227000      15.36198000  T       0.00212800       0.00113600       0.00005100
Cu       5.01701000       0.01577000      15.35493000  T       0.00299700      -0.00150800       0.00076200
Cu       7.51100000      12.32675000      15.39771000  T       0.00246200      -0.00945600       0.00090200
Cu      10.01384000       0.00083000      15.35074000  T       0.00038000      -0.00002400       0.00040100
Cu       0.04364000       2.50461000      15.33711000  T      -0.00230900       0.00062900      -0.00036400
Cu       2.48848000       2.50103000      15.33896000  T      -0.00252700       0.00080700       0.00061200
Cu       4.94967000       2.45892000      15.39292000  T      -0.00323800      -0.00185000       0.00070400
Cu       7.50188000       2.14496000      15.79551000  T      -0.00514500      -0.00852800       0.00474200
Cu      10.11106000       2.45452000      15.38320000  T      -0.00248200      -0.00224000       0.00065100
Cu      12.50011000       5.00809000      15.32302000  T       0.00423500       0.00045800      -0.00024900
Cu       2.40505000       5.00014000      15.34540000  T       0.00507800       0.00145000       0.00007100
Pd       4.91128000       5.08489000      15.49166000  T      -0.00060500       0.00073700      -0.00075200
Y        7.51097000       4.89817000      17.27276000  T      -0.00040900      -0.00111400      -0.00346300
Cu      10.02793000       5.12133000      15.39292000  T       0.00569500       0.00039300       0.00391900
Cu       0.05425000       7.50753000      15.36003000  T      -0.00027300       0.00030700      -0.00000400
Cu       2.54039000       7.49384000      15.35909000  T      -0.00086600       0.00183300      -0.00021800
Cu       5.03201000       7.64512000      15.50439000  T      -0.00048100      -0.00278900      -0.00175700
Cu       7.55737000       7.40981000      15.49386000  T       0.00022600      -0.00413700      -0.00181900
Cu      10.08560000       7.60263000      15.48612000  T      -0.00023800       0.00098400       0.00054900
Cu      12.50860000      10.00726000      15.37201000  T      -0.00044900       0.00046900       0.00026200
Cu       2.51057000      10.00092000      15.37116000  T      -0.00011800       0.00128700      -0.00032100
Cu       5.01749000      10.08667000      15.36568000  T      -0.00013200      -0.00160800      -0.00018800
Cu       7.50495000       9.91198000      15.34913000  T      -0.00091700      -0.00779400       0.00058100
Cu      10.00338000      10.06100000      15.35968000  T      -0.00132600       0.00093700       0.00077300
O        5.97874000       3.57117000      16.52580000  T      -0.01193500      -0.01030900       0.01370600
O        6.14048000       6.55612000      16.68103000  T       0.00015600      -0.00135700      -0.00167200
O        9.00128000       6.46201000      16.60353000  T       0.00592800      -0.00547700      -0.00079800
O        8.87969000       3.72144000      16.10959000  T      -0.03221000       0.00536000      -0.05746000
C        7.64847000       1.77110000      17.75926000  T       0.01203100       0.01205600       0.01519400
O        7.59722000       0.53872000      18.31188000  T       0.00613500       0.02316200       0.02314900
O        7.73331000       2.75840000      18.53185000  T       0.01959300       0.01976900       0.00448100
H        7.62295000       0.63527000      19.29697000  T       0.01271600       0.02648000       0.02401500
108
Lattice="12.515153631 0.0 0.0 0.0 12.515153631 0.0 0.0 0.0 25.30973" Properties=species:S:1:pos:R:3:move_mask:L:1:forces:R:3 stress="0.007845651869344767 -4.717332597342566e-05 -4.991334847968842e-05 -4.717332597342566e-05 0.007388274080600041 -8.083378468931407e-05 -4.991334847968842e-05 -8.083378468931407e-05 0.001876959107353865" free_energy=-444.81596878 energy=-444.81285874 pbc="T T T"
Cu       1.25152000       1.25152000      10.00000000  F       0.00223100      -0.02080700      -0.08278400
Cu       3.75455000       1.25152000      10.00000000  F       0.01594500      -0.00029800      -0.07381800
Cu       6.25758000       1.25152000      10.00000000  F      -0.01620000       0.01070800      -0.04948100
Cu       8.76061000       1.25152000      10.00000000  F       0.01250500       0.00403100      -0.04501200
Cu      11.26364000       1.25152000      10.00000000  F      -0.01409900      -0.00190300      -0.07188300
Cu       1.25152000       3.75455000      10.00000000  F       0.00347200       0.00299000      -0.06473000
Cu       3.75455000       3.75455000      10.00000000  F       0.01561700      -0.01212300      -0.05765400
Cu       6.25758000       3.75455000      10.00000000  F      -0.01946800      -0.01660700      -0.08768400
Cu       8.76061000       3.75455000      10.00000000  F       0.02054900      -0.01465300      -0.09242900
Cu      11.26364000       3.75455000      10.00000000  F      -0.01742800       0.00046800      -0.05519400
Cu       1.25152000       6.25758000      10.00000000  F      -0.00220200      -0.00027600      -0.07897300
Cu       3.75455000       6.25758000      10.00000000  F       0.01700100       0.02063500      -0.06441100
Cu       6.25758000       6.25758000      10.00000000  F      -0.01872900       0.01939500      -0.08127400
Cu       8.76061000       6.25758000      10.00000000  F       0.01678800       0.02020300      -0.07843300
Cu      11.26364000       6.25758000      10.00000000  F      -0.01074800       0.00793400      -0.06633100
Cu       1.25152000       8.76061000      10.00000000  F      -0.00271100       0.00587900      -0.07234200
Cu       3.75455000       8.76061000      10.00000000  F       0.00616200      -0.02131100      -0.07352300
Cu       6.25758000       8.76061000      10.00000000  F      -0.00891500      -0.02389600      -0.06121400
Cu       8.76061000       8.76061000      10.00000000  F       0.00997400      -0.01551400      -0.05464900
Cu      11.26364000       8.76061000      10.00000000  F      -0.00594100      -0.01775900      -0.07748300
Cu       1.25152000      11.26364000      10.00000000  F      -0.00501700       0.00973200      -0.01315700
Cu       3.75455000      11.26364000      10.00000000  F      -0.00436500       0.01151300      -0.07181500
Cu       6.25758000      11.26364000      10.00000000  F       0.00281600       0.01621500      -0.07550100
Cu       8.76061000      11.26364000      10.00000000  F      -0.00492600       0.00710300      -0.07445900
Cu      11.26364000      11.26364000      10.00000000  F       0.00965200       0.00837600      -0.07090600
Cu       0.00000000       0.00000000      11.76991000  F      -0.02062700       0.02668300       0.04532000
Cu       2.50303000       0.00000000      11.76991000  F       0.04454200       0.00669400       0.03517400
Cu       5.00606000       0.00000000      11.76991000  F       0.06627600       0.05576700       0.06209800
Cu       7.50909000       0.00000000      11.76991000  F       0.00467100       0.03591600       0.05338500
Cu      10.01212000       0.00000000      11.76991000  F      -0.05587500       0.05060800       0.08236800
Cu       0.00000000       2.50303000      11.76991000  F      -0.09669600       0.02000600       0.03074600
Cu       2.50303000       2.50303000      11.76991000  F       0.07324400       0.01932000       0.01631100
Cu       5.00606000       2.50303000      11.76991000  F       0.00974000      -0.04155400       0.07063900
Cu       7.50909000       2.50303000      11.76991000  F       0.00218900       0.00855200       0.24085800
Cu      10.01212000       2.50303000      11.76991000  F      -0.04582000       0.00240800       0.13159200
Cu       0.00000000       5.00606000      11.76991000  F      -0.07748700       0.04299400       0.00870400
Cu       2.50303000       5.00606000      11.76991000  F       0.05246000       0.02427800       0.01227800
Cu       5.00606000       5.00606000      11.76991000  F      -0.00393300      -0.00997300       0.10316000
Cu       7.50909000       5.00606000      11.76991000  F      -0.03306700      -0.10062800       0.17535500
Cu      10.01212000       5.00606000      11.76991000  F      -0.04109000      -0.04498400       0.10382000
Cu       0.00000000       7.50909000      11.76991000  F      -0.05000600       0.01791200       0.05228100
Cu       2.50303000       7.50909000      11.76991000  F       0.05842500       0.05327800       0.01396300
Cu       5.00606000       7.50909000      11.76991000  F      -0.00768200       0.05460900       0.01271200
Cu       7.50909000       7.50909000      11.76991000  F      -0.03783000       0.03160700       0.03021200
Cu      10.01212000       7.50909000      11.76991000  F       0.07792300       0.07877200      -0.01978100
Cu       0.00000000      10.01212000      11.76991000  F      -0.02026600      -0.04850400       0.08155800
Cu       2.50303000      10.01212000      11.76991000  F       0.04994000      -0.04087900       0.09404500
Cu       5.00606000      10.01212000      11.76991000  F       0.05961300      -0.07696400       0.07567300
Cu       7.50909000      10.01212000      11.76991000  F       0.01979800      -0.10924700       0.05826600
Cu      10.01212000      10.01212000      11.76991000  F      -0.04374500      -0.08526900       0.08129200
Cu       1.26027000       1.23613000      13.56748000  T       0.00022200       0.00025800       0.00041400
Cu       3.77637000       1.26198000      13.58456000  T       0.00048800      -0.00085600       0.00003400
Cu       6.29737000       1.26203000      13.62275000  T       0.00087400      -0.00227900       0.00126000
Cu       8.73620000       1.25559000      13.61770000  T      -0.00117100      -0.00004500       0.00262800
Cu      11.25872000       1.26286000      13.58284000  T      -0.00086600       0.00039200       0.00098300
Cu       1.23833000       3.75028000      13.55349000  T      -0.00049500       0.00014200       0.00035200
Cu       3.75092000       3.76938000      13.58650000  T      -0.00151800      -0.00119700      -0.00088900
Cu       6.26182000       3.74387000      13.59070000  T      -0.00163600      -0.00299100      -0.00085600
Cu       8.70880000       3.74758000      13.61771000  T      -0.00415800      -0.00044500       0.00420800
Cu      11.22834000       3.78214000      13.58587000  T      -0.00268400      -0.00029600       0.00186000
Cu       1.24924000       6.26395000      13.56255000  T       0.00208200       0.00037200       0.00003100
Cu       3.76005000       6.29154000      13.57786000  T       0.00196200       0.00023800      -0.00000500
Cu       6.27149000       6.23947000      13.56977000  T       0.00258000      -0.00166100      -0.00154600
Cu       8.74512000       6.25067000      13.53958000  T       0.00251500      -0.00240600       0.00175500
Cu      11.24397000       6.28664000      13.59200000  T       0.00106900      -0.00093000       0.00147800
Cu       1.26589000       8.76597000      13.58170000  T      -0.00015600       0.00099000       0.00010700
Cu       3.79067000       8.76586000      13.61139000  T      -0.00036700       0.00043500      -0.00021100
Cu       6.27907000       8.71125000      13.60800000  T      -0.00117600      -0.00173100      -0.00110400
Cu       8.76618000       8.71160000      13.61311000  T      -0.00046200      -0.00078500      -0.00081500
Cu      11.25920000       8.76299000      13.60594000  T      -0.00042800       0.00061800       0.00030900
Cu       1.24976000      11.25761000      13.59484000  T       0.00086600       0.00093000       0.00041600
Cu       3.74941000      11.27098000      13.57690000  T       0.00094400       0.00050200       0.00048400
Cu       6.26005000      11.24956000      13.56683000  T       0.00022400      -0.00190500       0.00032300
Cu       8.75818000      11.24490000      13.57070000  T      -0.00029100      -0.00133200      -0.00034900
Cu      11.27046000      11.26943000      13.57613000  T       0.00016600       0.00075000       0.00073400
Cu      12.51234000       0.00806000      15.36466000  T       0.00099100       0.00081000       0.00020900
Cu       2.51291000       0.00230000      15.36197000  T       0.00228800       0.00132100       0.00014600
Cu       5.01701000       0.01573000      15.35491000  T       0.00237400      -0.00157900       0.00016100
Cu       7.51104000      12.32678000      15.39774000  T       0.00237600      -0.00829700       0.00026300
Cu      10.01383000       0.00083000      15.35072000  T       0.00039500      -0.00023600      -0.00003400
Cu       0.04367000       2.50463000      15.33708000  T      -0.00150400       0.00035400      -0.00067300
Cu       2.48847000       2.50106000      15.33895000  T      -0.00198300       0.00074500       0.00065900
Cu       4.94960000       2.45887000      15.39285000  T      -0.00334700      -0.00170200       0.00008100
Cu       7.50225000       2.14555000      15.79505000  T      -0.00192800      -0.00296600       0.00141300
Cu      10.11099000       2.45447000      15.38312000  T      -0.00369200      -0.00227500       0.00068700
Cu      12.50015000       5.00812000      15.32298000  T       0.00449300       0.00028700      -0.00035200
Cu       2.40515000       5.00020000      15.34538000  T       0.00482800       0.00117100       0.00012900
Pd       4.91132000       5.08497000      15.49155000  T       0.00286800      -0.00024600      -0.00110700
Y        7.51131000       4.89809000      17.27317000  T       0.00033000      -0.00041200      -0.00363600
Cu      10.02762000       5.12119000      15.39305000  T       0.00258100      -0.00139600       0.00467000
Cu       0.05424000       7.50756000      15.36000000  T      -0.00028400       0.00037300       0.00030100
Cu       2.54037000       7.49388000      15.35906000  T      -0.00050300       0.00171700      -0.00000500
Cu       5.03200000       7.64509000      15.50436000  T      -0.00020300      -0.00223400      -0.00148100
Cu       7.55730000       7.40987000      15.49379000  T      -0.00029300      -0.00403800      -0.00141500
Cu      10.08560000       7.60267000      15.48607000  T      -0.00021800       0.00101000       0.00040200
Cu      12.50858000      10.00727000      15.37199000  T      -0.00051200       0.00071900       0.00057500
Cu       2.51057000      10.00095000      15.37114000  T       0.00009800       0.00147100      -0.00012700
Cu       5.01750000      10.08667000      15.36565000  T       0.00008800      -0.00141900      -0.00024200
Cu       7.50493000       9.91195000      15.34911000  T      -0.00107100      -0.00686400       0.00024800
Cu      10.00335000      10.06104000      15.35967000  T      -0.00150300       0.00126200       0.00084900
O        5.97995000       3.57148000      16.52456000  T      -0.01144700      -0.00920100       0.01158600
O        6.14048000       6.55630000      16.68109000  T      -0.00045000      -0.00363300      -0.00187000
O        9.00093000       6.46258000      16.60345000  T       0.00481100      -0.00542100      -0.00160000
O        8.88408000       3.72069000      16.11603000  T      -0.03935600       0.00558900      -0.06160900
C        7.64693000       1.77035000      17.75824000  T       0.01234200       0.01943700       0.00289000
O        7.59622000       0.53712000      18.30822000  T       0.00809600       0.01191000       0.05877000
O        7.73038000       2.75667000      18.53191000  T       0.02249600       0.01969500       0.01368100
H        7.62131000       0.63142000      19.29399000  T       0.01159600       0.02584300       0.00794600
108
Lattice="12.515153631 0.0 0.0 0.0 12.515153631 0.0 0.0 0.0 25.30973" Properties=species:S:1:pos:R:3:move_mask:L:1:forces:R:3 stress="0.007837569115026748 -5.9019710294352095e-05 -5.291551436923826e-05 -5.9019710294352095e-05 0.007391363627617353 -8.999007857698481e-05 -5.291551436923826e-05 -8.999007857698481e-05 0.0019130912036836032" free_energy=-444.82058462 energy=-444.81741627 pbc="T T T"
Cu       1.25152000       1.25152000      10.00000000  F       0.00250400      -0.02135300      -0.08281000
Cu       3.75455000       1.25152000      10.00000000  F       0.01563100      -0.00095200      -0.07398500
Cu       6.25758000       1.25152000      10.00000000  F      -0.01624700       0.00998500      -0.04912700
Cu       8.76061000       1.25152000      10.00000000  F       0.01250500       0.00346700      -0.04516300
Cu      11.26364000       1.25152000      10.00000000  F      -0.01390700      -0.00237900      -0.07137600
Cu       1.25152000       3.75455000      10.00000000  F       0.00403600       0.00305600      -0.06482900
Cu       3.75455000       3.75455000      10.00000000  F       0.01481800      -0.01198900      -0.05764400
Cu       6.25758000       3.75455000      10.00000000  F      -0.01942500      -0.01644500      -0.08792400
Cu       8.76061000       3.75455000      10.00000000  F       0.02068200      -0.01464900      -0.09328200
Cu      11.26364000       3.75455000      10.00000000  F      -0.01733000       0.00038100      -0.05521400
Cu       1.25152000       6.25758000      10.00000000  F      -0.00218200      -0.00000300      -0.07892600
Cu       3.75455000       6.25758000      10.00000000  F       0.01675000       0.02104100      -0.06434700
Cu       6.25758000       6.25758000      10.00000000  F      -0.01869300       0.01978700      -0.08092500
Cu       8.76061000       6.25758000      10.00000000  F       0.01664400       0.02062300      -0.07849000
Cu      11.26364000       6.25758000      10.00000000  F      -0.01036400       0.00831100      -0.06598400
Cu       1.25152000       8.76061000      10.00000000  F      -0.00297100       0.00631600      -0.07195100
Cu       3.75455000       8.76061000      10.00000000  F       0.00598200      -0.02125900      -0.07315700
Cu       6.25758000       8.76061000      10.00000000  F      -0.00912700      -0.02402500      -0.06088000
Cu       8.76061000       8.76061000      10.00000000  F       0.01009900      -0.01529100      -0.05440700
Cu      11.26364000       8.76061000      10.00000000  F      -0.00545700      -0.01738400      -0.07732100
Cu       1.25152000      11.26364000      10.00000000  F      -0.00531400       0.00936100      -0.01312400
Cu       3.75455000      11.26364000      10.00000000  F      -0.00482900       0.01142800      -0.07158200
Cu       6.25758000      11.26364000      10.00000000  F       0.00269800       0.01630400      -0.07548100
Cu       8.76061000      11.26364000      10.00000000  F      -0.00460500       0.00658000      -0.07397300
Cu      11.26364000      11.26364000      10.00000000  F       0.01018100       0.00779200      -0.07078000
Cu       0.00000000       0.00000000      11.76991000  F      -0.02007000       0.02584100       0.04643900
Cu       2.50303000       0.00000000      11.76991000  F       0.04406400       0.00584500       0.03582500
Cu       5.00606000       0.00000000      11.76991000  F       0.06576500       0.05443800       0.06200700
Cu       7.50909000       0.00000000      11.76991000  F       0.00402500       0.03491100       0.05371200
Cu      10.01212000       0.00000000      11.76991000  F      -0.05470900       0.04997900       0.08280900
Cu       0.00000000       2.50303000      11.76991000  F      -0.09684000       0.01948300       0.03171900
Cu       2.50303000       2.50303000      11.76991000  F       0.07316200       0.01874200       0.01663700
Cu       5.00606000       2.50303000      11.76991000  F       0.00869300      -0.04325100       0.07048700
Cu       7.50909000       2.50303000      11.76991000  F       0.00433700       0.01019100       0.24298100
Cu      10.01212000       2.50303000      11.76991000  F      -0.04850200       0.00488600       0.13577100
Cu       0.00000000       5.00606000      11.76991000  F      -0.07716500       0.04296200       0.00930600
Cu       2.50303000       5.00606000      11.76991000  F       0.05245600       0.02483700       0.01277100
Cu       5.00606000       5.00606000      11.76991000  F      -0.00503100      -0.00879500       0.10330400
Cu       7.50909000       5.00606000      11.76991000  F      -0.03162500      -0.10240700       0.17686500
Cu      10.01212000       5.00606000      11.76991000  F      -0.04238000      -0.04643100       0.10572200
Cu       0.00000000       7.50909000      11.76991000  F      -0.04896200       0.01927700       0.05274600
Cu       2.50303000       7.50909000      11.76991000  F       0.05808700       0.05376200       0.01453300
Cu       5.00606000       7.50909000      11.76991000  F      -0.00812700       0.05567800       0.01282500
Cu       7.50909000       7.50909000      11.76991000  F      -0.03789400       0.03186300       0.03032700
Cu      10.01212000       7.50909000      11.76991000  F       0.07908700       0.07892200      -0.01938000
Cu       0.00000000      10.01212000      11.76991000  F      -0.02005100      -0.04850500       0.08196100
Cu       2.50303000      10.01212000      11.76991000  F       0.04943600      -0.04074800       0.09485800
Cu       5.00606000      10.01212000      11.76991000  F       0.05908400      -0.07736200       0.07617300
Cu       7.50909000      10.01212000      11.76991000  F       0.02012500      -0.10963900       0.05858800
Cu      10.01212000      10.01212000      11.76991000  F      -0.04319600      -0.08577300       0.08129100
Cu       1.26027000       1.23613000      13.56753000  T       0.00111300      -0.00009700       0.00030100
Cu       3.77639000       1.26190000      13.58461000  T       0.00044100      -0.00064400       0.00018900
Cu       6.29741000       1.26183000      13.62293000  T      -0.00067500      -0.00209700       0.00089700
Cu       8.73612000       1.25519000      13.61773000  T      -0.00109600      -0.00381700      -0.00067900
Cu      11.25869000       1.26283000      13.58293000  T       0.00026500      -0.00079300       0.00013800
Cu       1.23826000       3.75029000      13.55354000  T       0.00080000       0.00013700       0.00024100
Cu       3.75067000       3.76928000      13.58655000  T      -0.00139600      -0.00076200      -0.00001100
Cu       6.26103000       3.74361000      13.59035000  T      -0.00751700      -0.00168600      -0.00322600
Cu       8.70807000       3.74784000      13.61904000  T      -0.00580900       0.00203600       0.01083800
Cu      11.22830000       3.78211000      13.58597000  T       0.00014800       0.00007500       0.00073400
Cu       1.24943000       6.26402000      13.56258000  T       0.00271900       0.00063700       0.00008800
Cu       3.76021000       6.29157000      13.57792000  T       0.00163300       0.00043100       0.00015300
Cu       6.27165000       6.23932000      13.56970000  T       0.00029100      -0.00108500      -0.00096900
Cu       8.74542000       6.25089000      13.53947000  T       0.00161100       0.00228300      -0.00159000
Cu      11.24436000       6.28673000      13.59191000  T       0.00313500       0.00094500      -0.00083100
Cu       1.26582000       8.76606000      13.58172000  T       0.00033000       0.00065800       0.00023500
Cu       3.79057000       8.76593000      13.61141000  T      -0.00032200       0.00041300       0.00005000
Cu       6.27899000       8.71108000      13.60796000  T      -0.00124000      -0.00122200      -0.00067400
Cu       8.76622000       8.71149000      13.61317000  T      -0.00038900      -0.00063400      -0.00028700
Cu      11.25917000       8.76304000      13.60601000  T      -0.00008800       0.00055400       0.00026500
Cu       1.24975000      11.25767000      13.59488000  T       0.00082300       0.00028500       0.00044400
Cu       3.74942000      11.27100000      13.57697000  T       0.00060900      -0.00012800       0.00056500
Cu       6.26005000      11.24933000      13.56683000  T      -0.00054800      -0.00225400      -0.00034000
Cu       8.75828000      11.24472000      13.57069000  T       0.00012100      -0.00182900      -0.00065800
Cu      11.27051000      11.26947000      13.57620000  T       0.00064700      -0.00011800       0.00012700
Cu      12.51242000       0.00811000      15.36472000  T       0.00134200       0.00008900       0.00053600
Cu       2.51305000       0.00238000      15.36201000  T       0.00185700       0.00039500      -0.00044700
Cu       5.01742000       0.01570000      15.35510000  T       0.00315700      -0.00094000       0.00052100
Cu       7.51124000      12.32549000      15.39779000  T       0.00100900      -0.00986500      -0.00066700
Cu      10.01389000       0.00083000      15.35085000  T       0.00038500      -0.00041800       0.00127400
Cu       0.04324000       2.50466000      15.33714000  T      -0.00278800       0.00011800       0.00076500
Cu       2.48812000       2.50110000      15.33905000  T      -0.00202600       0.00031700      -0.00004400
Cu       4.94945000       2.45879000      15.39321000  T      -0.00009600       0.00062700       0.00356500
Cu       7.50021000       2.14224000      15.79731000  T      -0.01114100      -0.01954800       0.01389600
Cu      10.11094000       2.45442000      15.38351000  T       0.00031100      -0.00181300       0.00074400
Cu      12.50053000       5.00815000      15.32309000  T       0.00352800       0.00025600       0.00084100
Cu       2.40546000       5.00027000      15.34546000  T       0.00239000       0.00075800      -0.00050500
Pd       4.91130000       5.08474000      15.49168000  T       0.01053000      -0.00899500      -0.00278200
Y        7.50997000       4.89844000      17.27120000  T      -0.00301300      -0.00034500      -0.00353600
Cu      10.02951000       5.12185000      15.39309000  T       0.01134400       0.00417700      -0.00001500
Cu       0.05420000       7.50756000      15.36006000  T       0.00030200       0.00038900       0.00020500
Cu       2.54024000       7.49406000      15.35911000  T      -0.00040200       0.00164600      -0.00062600
Cu       5.03192000       7.64491000      15.50422000  T      -0.00014400      -0.00138600      -0.00171100
Cu       7.55758000       7.40927000      15.49376000  T       0.00027000      -0.00325900      -0.00170200
Cu      10.08555000       7.60276000      15.48630000  T      -0.00002600       0.00149600       0.00106300
Cu      12.50852000      10.00732000      15.37205000  T       0.00006500       0.00037500       0.00015700
Cu       2.51051000      10.00107000      15.37117000  T       0.00016600       0.00099200      -0.00059900
Cu       5.01743000      10.08653000      15.36571000  T      -0.00043500      -0.00117400      -0.00053600
Cu       7.50488000       9.91112000      15.34923000  T      -0.00100700      -0.00606800       0.00049400
Cu      10.00326000      10.06109000      15.35977000  T      -0.00112800       0.00057000       0.00070600
O        5.97473000       3.56952000      16.53034000  T      -0.01785100      -0.00878800       0.01549300
O        6.14052000       6.55579000      16.68091000  T       0.00008900       0.00127200      -0.00141800
O        9.00261000       6.46023000      16.60384000  T       0.00511900      -0.00689400       0.00336400
O        8.86514000       3.72400000      16.08737000  T      -0.03950900       0.00839000      -0.06463300
C        7.65454000       1.77392000      17.76352000  T       0.00557500      -0.00163500       0.02111000
O        7.60075000       0.54516000      18.32481000  T       0.01123600       0.04304700       0.03175700
O        7.74335000       2.76471000      18.53185000  T       0.02953900       0.03088700      -0.00399400
H        7.62972000       0.65122000      19.30930000  T       0.00989700       0.01663100       0.00313500
108
Lattice="12.515153631 0.0 0.0 0.0 12.515153631 0.0 0.0 0.0 25.30973" Properties=species:S:1:pos:R:3:move_mask:L:1:forces:R:3 stress="0.007820223961165919 -6.310165726267974e-05 -5.2497333257804086e-05 -6.310165726267974e-05 0.007365417674181057 -9.127582945691678e-05 -5.2497333257804086e-05 -9.127582945691678e-05 0.0018998404798093534" free_energy=-444.82300105 energy=-444.81979866 pbc="T T T"
Cu       1.25152000       1.25152000      10.00000000  F       0.00252500      -0.02092400      -0.08309900
Cu       3.75455000       1.25152000      10.00000000  F       0.01556200      -0.00056600      -0.07440200
Cu       6.25758000       1.25152000      10.00000000  F      -0.01618600       0.01027400      -0.04916200
Cu       8.76061000       1.25152000      10.00000000  F       0.01243600       0.00377300      -0.04520500
Cu      11.26364000       1.25152000      10.00000000  F      -0.01390000      -0.00197800      -0.07116300
Cu       1.25152000       3.75455000      10.00000000  F       0.00420000       0.00319700      -0.06474600
Cu       3.75455000       3.75455000      10.00000000  F       0.01448800      -0.01183500      -0.05771700
Cu       6.25758000       3.75455000      10.00000000  F      -0.01933800      -0.01627000      -0.08803000
Cu       8.76061000       3.75455000      10.00000000  F       0.02076700      -0.01447400      -0.09348000
Cu      11.26364000       3.75455000      10.00000000  F      -0.01737000       0.00051700      -0.05490000
Cu       1.25152000       6.25758000      10.00000000  F      -0.00235500      -0.00031200      -0.07902100
Cu       3.75455000       6.25758000      10.00000000  F       0.01667000       0.02071000      -0.06471500
Cu       6.25758000       6.25758000      10.00000000  F      -0.01852900       0.01951300      -0.08098400
Cu       8.76061000       6.25758000      10.00000000  F       0.01662000       0.02047200      -0.07846500
Cu      11.26364000       6.25758000      10.00000000  F      -0.01033300       0.00814300      -0.06568200
Cu       1.25152000       8.76061000      10.00000000  F      -0.00341200       0.00622500      -0.07245000
Cu       3.75455000       8.76061000      10.00000000  F       0.00596300      -0.02153200      -0.07395500
Cu       6.25758000       8.76061000      10.00000000  F      -0.00898400      -0.02431000      -0.06138400
Cu       8.76061000       8.76061000      10.00000000  F       0.01023400      -0.01540300      -0.05455500
Cu      11.26364000       8.76061000      10.00000000  F      -0.00538200      -0.01747500      -0.07753600
Cu       1.25152000      11.26364000      10.00000000  F      -0.00569100       0.00962500      -0.01381300
Cu       3.75455000      11.26364000      10.00000000  F      -0.00495200       0.01192500      -0.07239000
Cu       6.25758000      11.26364000      10.00000000  F       0.00285400       0.01683100      -0.07605600
Cu       8.76061000      11.26364000      10.00000000  F      -0.00444200       0.00668500      -0.07406000
Cu      11.26364000      11.26364000      10.00000000  F       0.01029400       0.00784400      -0.07115500
Cu       0.00000000       0.00000000      11.76991000  F      -0.02014300       0.02631400       0.04682500
Cu       2.50303000       0.00000000      11.76991000  F       0.04381800       0.00647100       0.03588300
Cu       5.00606000       0.00000000      11.76991000  F       0.06605100       0.05462200       0.06169400
Cu       7.50909000       0.00000000      11.76991000  F       0.00387700       0.03497900       0.05379100
Cu      10.01212000       0.00000000      11.76991000  F      -0.05444100       0.05041600       0.08292600
Cu       0.00000000       2.50303000      11.76991000  F      -0.09737000       0.02004500       0.03217900
Cu       2.50303000       2.50303000      11.76991000  F       0.07295900       0.01902600       0.01625900
Cu       5.00606000       2.50303000      11.76991000  F       0.00801600      -0.04431400       0.06948200
Cu       7.50909000       2.50303000      11.76991000  F       0.00596500       0.01159200       0.24478300
Cu      10.01212000       2.50303000      11.76991000  F      -0.05086400       0.00719200       0.13896800
Cu       0.00000000       5.00606000      11.76991000  F      -0.07733900       0.04264900       0.00955000
Cu       2.50303000       5.00606000      11.76991000  F       0.05242900       0.02483300       0.01246700
Cu       5.00606000       5.00606000      11.76991000  F      -0.00577000      -0.00853000       0.10247900
Cu       7.50909000       5.00606000      11.76991000  F      -0.02993300      -0.10422800       0.17773000
Cu      10.01212000       5.00606000      11.76991000  F      -0.04348000      -0.04789600       0.10712300
Cu       0.00000000       7.50909000      11.76991000  F      -0.04882100       0.01937000       0.05276100
Cu       2.50303000       7.50909000      11.76991000  F       0.05798000       0.05324500       0.01438000
Cu       5.00606000       7.50909000      11.76991000  F      -0.00809000       0.05532100       0.01198400
Cu       7.50909000       7.50909000      11.76991000  F      -0.03720000       0.03120700       0.02960900
Cu      10.01212000       7.50909000      11.76991000  F       0.07992000       0.07844400      -0.01950700
Cu       0.00000000      10.01212000      11.76991000  F      -0.02053100      -0.04831000       0.08199600
Cu       2.50303000      10.01212000      11.76991000  F       0.04902600      -0.04040600       0.09498200
Cu       5.00606000      10.01212000      11.76991000  F       0.05913500      -0.07744000       0.07572400
Cu       7.50909000      10.01212000      11.76991000  F       0.02061300      -0.11004100       0.05800600
Cu      10.01212000      10.01212000      11.76991000  F      -0.04299200      -0.08612100       0.08078600
Cu       1.26030000       1.23620000      13.56762000  T       0.00079600       0.00062400      -0.00032500
Cu       3.77648000       1.26182000      13.58466000  T       0.00065400       0.00053400       0.00037300
Cu       6.29749000       1.26148000      13.62313000  T      -0.00088700      -0.00094700       0.00083500
Cu       8.73593000       1.25479000      13.61786000  T      -0.00076600      -0.00431500      -0.00194800
Cu      11.25859000       1.26282000      13.58303000  T       0.00032700      -0.00053600      -0.00087200
Cu       1.23822000       3.75035000      13.55362000  T       0.00047300       0.00034000      -0.00028700
Cu       3.75037000       3.76915000      13.58651000  T      -0.00108600      -0.00042500       0.00080200
Cu       6.26010000       3.74320000      13.58984000  T      -0.00988000      -0.00131300      -0.00403800
Cu       8.70710000       3.74806000      13.62048000  T      -0.00669200       0.00329600       0.01270000
Cu      11.22809000       3.78212000      13.58616000  T       0.00078900       0.00055200      -0.00010000
Cu       1.24980000       6.26411000      13.56262000  T       0.00223100       0.00047400      -0.00032100
Cu       3.76056000       6.29162000      13.57801000  T       0.00192700      -0.00047300       0.00050000
Cu       6.27196000       6.23914000      13.56945000  T       0.00015200      -0.00215100      -0.00006500
Cu       8.74581000       6.25105000      13.53941000  T       0.00232100       0.00362000      -0.00263500
Cu      11.24477000       6.28679000      13.59190000  T       0.00408300       0.00169400      -0.00231000
Cu       1.26576000       8.76618000      13.58177000  T      -0.00054900       0.00033100      -0.00030200
Cu       3.79052000       8.76600000      13.61140000  T      -0.00071400       0.00016400      -0.00040500
Cu       6.27884000       8.71083000      13.60781000  T      -0.00056700      -0.00160700      -0.00082900
Cu       8.76616000       8.71138000      13.61314000  T       0.00029600      -0.00116300      -0.00006900
Cu      11.25906000       8.76314000      13.60610000  T      -0.00036300       0.00004100      -0.00003200
Cu       1.24982000      11.25780000      13.59498000  T       0.00013500       0.00052500      -0.00018300
Cu       3.74957000      11.27103000      13.57706000  T       0.00030300       0.00039200       0.00003800
Cu       6.26008000      11.24894000      13.56680000  T      -0.00009300      -0.00173000      -0.00085600
Cu       8.75830000      11.24442000      13.57061000  T       0.00086100      -0.00172600      -0.00106800
Cu      11.27051000      11.26955000      13.57631000  T       0.00060100      -0.00013500      -0.00054100
Cu      12.51257000       0.00821000      15.36478000  T       0.00127600       0.00043900       0.00092500
Cu       2.51340000       0.00255000      15.36202000  T       0.00187200       0.00101300       0.00015200
Cu       5.01801000       0.01552000      15.35525000  T       0.00430700       0.00043200       0.00188000
Cu       7.51156000      12.32379000      15.39781000  T       0.00103400      -0.00967000       0.00160800
Cu      10.01391000       0.00080000      15.35095000  T       0.00013400       0.00031900       0.00211200
Cu       0.04275000       2.50473000      15.33715000  T      -0.00433500       0.00055600       0.00130000
Cu       2.48769000       2.50122000      15.33912000  T      -0.00228400       0.00080900       0.00003600
Cu       4.94912000       2.45860000      15.39354000  T       0.00103100       0.00116800       0.00459700
Cu       7.49852000       2.13948000      15.79901000  T      -0.01671700      -0.03000500       0.02426700
Cu      10.11065000       2.45414000      15.38372000  T      -0.00066400       0.00105800       0.00377700
Cu      12.50126000       5.00822000      15.32313000  T       0.00349700       0.00036700       0.00151700
Cu       2.40620000       5.00047000      15.34544000  T       0.00203900       0.00057500      -0.00035600
Pd       4.91206000       5.08416000      15.49141000  T       0.01019800      -0.01034600       0.00016700
Y        7.50930000       4.89844000      17.26994000  T      -0.00353000      -0.00106400      -0.00500400
Cu      10.03117000       5.12233000      15.39341000  T       0.01538400       0.00543500       0.00099600
Cu       0.05416000       7.50763000      15.36008000  T      -0.00036500       0.00008600       0.00022400
Cu       2.54013000       7.49437000      15.35908000  T      -0.00060000       0.00128800       0.00006700
Cu       5.03186000       7.64457000      15.50389000  T      -0.00005600      -0.00192600      -0.00110900
Cu       7.55770000       7.40859000      15.49348000  T       0.00203700      -0.00485300      -0.00068200
Cu      10.08545000       7.60302000      15.48647000  T      -0.00138600       0.00057000       0.00234000
Cu      12.50840000      10.00743000      15.37212000  T      -0.00055000       0.00028400       0.00042600
Cu       2.51052000      10.00129000      15.37116000  T      -0.00017500       0.00121800       0.00031800
Cu       5.01743000      10.08628000      15.36568000  T      -0.00052000      -0.00113600       0.00061100
Cu       7.50473000       9.90990000      15.34930000  T      -0.00062100      -0.00642500       0.00146300
Cu      10.00298000      10.06125000      15.35987000  T      -0.00131200       0.00005300       0.00084800
O        5.97182000       3.56800000      16.53368000  T      -0.01573000      -0.00524700       0.01137100
O        6.14066000       6.55573000      16.68075000  T       0.00051300      -0.00004100      -0.00148700
O        9.00354000       6.45900000      16.60414000  T       0.00447600      -0.00698000       0.00263500
O        8.85561000       3.72577000      16.07243000  T      -0.02683700       0.00758300      -0.04879100
C        7.65825000       1.77615000      17.76674000  T       0.00406100       0.01645100       0.00934400
O        7.60297000       0.55028000      18.33271000  T       0.00988900       0.02520200       0.00947700
O        7.74999000       2.76965000      18.53188000  T       0.02551900       0.03163100      -0.01191900
H        7.63375000       0.66063000      19.31649000  T       0.00950700       0.01599500       0.01409600
108
Lattice="12.515153631 0.0 0.0 0.0 12.515153631 0.0 0.0 0.0 25.30973" Properties=species:S:1:pos:R:3:move_mask:L:1:forces:R:3 stress="0.007816997100947836 -6.349487233761039e-05 -5.4906555780395026e-05 -6.349487233761039e-05 0.0073615292139956314 -9.13070370025462e-05 -5.4906555780395026e-05 -9.13070370025462e-05 0.0019013946155816983" free_energy=-444.82930051 energy=-444.82609055 pbc="T T T"
Cu       1.25152000       1.25152000      10.00000000  F       0.00271200      -0.02082100      -0.08328700
Cu       3.75455000       1.25152000      10.00000000  F       0.01575600      -0.00049600      -0.07442000
Cu       6.25758000       1.25152000      10.00000000  F      -0.01618700       0.01046900      -0.04900600
Cu       8.76061000       1.25152000      10.00000000  F       0.01216600       0.00403900      -0.04505600
Cu      11.26364000       1.25152000      10.00000000  F      -0.01403900      -0.00173200      -0.07121100
Cu       1.25152000       3.75455000      10.00000000  F       0.00439300       0.00327600      -0.06482900
Cu       3.75455000       3.75455000      10.00000000  F       0.01466000      -0.01170400      -0.05762800
Cu       6.25758000       3.75455000      10.00000000  F      -0.01929600      -0.01616400      -0.08776200
Cu       8.76061000       3.75455000      10.00000000  F       0.02051400      -0.01442600      -0.09311200
Cu      11.26364000       3.75455000      10.00000000  F      -0.01755800       0.00055900      -0.05476300
Cu       1.25152000       6.25758000      10.00000000  F      -0.00213700      -0.00036400      -0.07904700
Cu       3.75455000       6.25758000      10.00000000  F       0.01690100       0.02071000      -0.06454000
Cu       6.25758000       6.25758000      10.00000000  F      -0.01855700       0.01939700      -0.08067600
Cu       8.76061000       6.25758000      10.00000000  F       0.01629700       0.02028300      -0.07832700
Cu      11.26364000       6.25758000      10.00000000  F      -0.01046900       0.00796300      -0.06574600
Cu       1.25152000       8.76061000      10.00000000  F      -0.00313200       0.00621600      -0.07256500
Cu       3.75455000       8.76061000      10.00000000  F       0.00615000      -0.02159000      -0.07381800
Cu       6.25758000       8.76061000      10.00000000  F      -0.00919500      -0.02446400      -0.06125300
Cu       8.76061000       8.76061000      10.00000000  F       0.00991900      -0.01556100      -0.05469900
Cu      11.26364000       8.76061000      10.00000000  F      -0.00536500      -0.01757200      -0.07784200
Cu       1.25152000      11.26364000      10.00000000  F      -0.00544500       0.00965700      -0.01406100
Cu       3.75455000      11.26364000      10.00000000  F      -0.00483600       0.01192900      -0.07238900
Cu       6.25758000      11.26364000      10.00000000  F       0.00267200       0.01694400      -0.07603700
Cu       8.76061000      11.26364000      10.00000000  F      -0.00470100       0.00681400      -0.07419900
Cu      11.26364000      11.26364000      10.00000000  F       0.01029600       0.00796300      -0.07151600
Cu       0.00000000       0.00000000      11.76991000  F      -0.01984700       0.02650600       0.04689500
Cu       2.50303000       0.00000000      11.76991000  F       0.04410400       0.00652600       0.03585800
Cu       5.00606000       0.00000000      11.76991000  F       0.06600100       0.05460000       0.06148500
Cu       7.50909000       0.00000000      11.76991000  F       0.00339300       0.03501800       0.05360200
Cu      10.01212000       0.00000000      11.76991000  F      -0.05447200       0.05065000       0.08280200
Cu       0.00000000       2.50303000      11.76991000  F      -0.09731800       0.02019000       0.03248400
Cu       2.50303000       2.50303000      11.76991000  F       0.07321800       0.01908200       0.01631900
Cu       5.00606000       2.50303000      11.76991000  F       0.00778200      -0.04458600       0.06911800
Cu       7.50909000       2.50303000      11.76991000  F       0.00613700       0.01211800       0.24522000
Cu      10.01212000       2.50303000      11.76991000  F      -0.05163500       0.00795000       0.13984500
Cu       0.00000000       5.00606000      11.76991000  F      -0.07719800       0.04251500       0.00981400
Cu       2.50303000       5.00606000      11.76991000  F       0.05279800       0.02490500       0.01262600
Cu       5.00606000       5.00606000      11.76991000  F      -0.00603000      -0.00823900       0.10219100
Cu       7.50909000       5.00606000      11.76991000  F      -0.02980400      -0.10466400       0.17790700
Cu      10.01212000       5.00606000      11.76991000  F      -0.04398500      -0.04839400       0.10757900
Cu       0.00000000       7.50909000      11.76991000  F      -0.04841800       0.01938200       0.05277500
Cu       2.50303000       7.50909000      11.76991000  F       0.05839100       0.05323800       0.01438400
Cu       5.00606000       7.50909000      11.76991000  F      -0.00812900       0.05530000       0.01177700
Cu       7.50909000       7.50909000      11.76991000  F      -0.03764500       0.03103300       0.02928000
Cu      10.01212000       7.50909000      11.76991000  F       0.07989900       0.07827000      -0.01968700
Cu       0.00000000      10.01212000      11.76991000  F      -0.02022800      -0.04822300       0.08190800
Cu       2.50303000      10.01212000      11.76991000  F       0.04937200      -0.04034100       0.09491100
Cu       5.00606000      10.01212000      11.76991000  F       0.05899400      -0.07752800       0.07543800
Cu       7.50909000      10.01212000      11.76991000  F       0.02021100      -0.11018300       0.05768100
Cu      10.01212000      10.01212000      11.76991000  F      -0.04312900      -0.08619200       0.08052600
Cu       1.26031000       1.23622000      13.56762000  T       0.00096700       0.00111100      -0.00026500
Cu       3.77650000       1.26181000      13.58468000  T       0.00104100       0.00088300       0.00065200
Cu       6.29748000       1.26142000      13.62317000  T      -0.00076000      -0.00092800       0.00092600
Cu       8.73590000       1.25465000      13.61783000  T      -0.00122700      -0.00461900      -0.00196600
Cu      11.25859000       1.26280000      13.58302000  T       0.00032700      -0.00017100      -0.00080600
Cu       1.23821000       3.75037000      13.55363000  T       0.00047400       0.00047900      -0.00011500
Cu       3.75031000       3.76912000      13.58652000  T      -0.00182200      -0.00046100       0.00079600
Cu       6.25978000       3.74312000      13.58970000  T      -0.01219000      -0.00186000      -0.00604000
Cu       8.70685000       3.74816000      13.62092000  T      -0.00922000       0.00426800       0.01749600
Cu      11.22808000       3.78213000      13.58618000  T       0.00089800       0.00072100      -0.00019400
Cu       1.24988000       6.26414000      13.56261000  T       0.00310800       0.00037600      -0.00031700
Cu       3.76063000       6.29163000      13.57802000  T       0.00285600      -0.00102600       0.00125800
Cu       6.27200000       6.23908000      13.56942000  T       0.00026500      -0.00273600      -0.00052900
Cu       8.74591000       6.25115000      13.53934000  T       0.00309300       0.00396400      -0.00319400
Cu      11.24490000       6.28684000      13.59185000  T       0.00546100       0.00182700      -0.00305300
Cu       1.26574000       8.76621000      13.58177000  T      -0.00040500       0.00022600      -0.00043500
Cu       3.79050000       8.76602000      13.61139000  T      -0.00073600      -0.00002200      -0.00066400
Cu       6.27881000       8.71078000      13.60778000  T      -0.00101000      -0.00235400      -0.00127900
Cu       8.76616000       8.71135000      13.61313000  T       0.00009200      -0.00148900      -0.00016000
Cu      11.25904000       8.76316000      13.60611000  T      -0.00042400      -0.00017900       0.00008500
Cu       1.24982000      11.25783000      13.59499000  T       0.00046800       0.00081100      -0.00026100
Cu       3.74959000      11.27105000      13.57707000  T       0.00055100       0.00055700      -0.00007400
Cu       6.26008000      11.24887000      13.56678000  T      -0.00033800      -0.00222500      -0.00118200
Cu       8.75833000      11.24436000      13.57058000  T       0.00085700      -0.00212700      -0.00129500
Cu      11.27052000      11.26956000      13.57631000  T       0.00083200       0.00012400      -0.00053500
Cu      12.51261000       0.00824000      15.36480000  T       0.00178300       0.00092200       0.00130600
Cu       2.51347000       0.00260000      15.36202000  T       0.00270200       0.00151200       0.00019500
Cu       5.01817000       0.01551000      15.35530000  T       0.00544500       0.00073800       0.00218400
Cu       7.51162000      12.32340000      15.39784000  T       0.00158500      -0.01473900       0.00065400
Cu      10.01392000       0.00080000      15.35100000  T       0.00036700       0.00071600       0.00255900
Cu       0.04259000       2.50475000      15.33718000  T      -0.00512600       0.00085200       0.00125200
Cu       2.48758000       2.50125000      15.33913000  T      -0.00318700       0.00125500       0.00007400
Cu       4.94911000       2.45861000      15.39367000  T      -0.00085200      -0.00072400       0.00406700
Cu       7.49797000       2.13851000      15.79974000  T      -0.01961100      -0.03472300       0.02803300
Cu      10.11060000       2.45414000      15.38383000  T      -0.00196900       0.00146700       0.00388300
Cu      12.50141000       5.00824000      15.32317000  T       0.00555500       0.00037300       0.00142200
Cu       2.40631000       5.00051000      15.34543000  T       0.00381000       0.00094900      -0.00058100
Pd       4.91236000       5.08383000      15.49139000  T       0.01410600      -0.01417800      -0.00302100
Y        7.50910000       4.89844000      17.26966000  T      -0.00582100       0.00122500      -0.01146700
Cu      10.03171000       5.12251000      15.39346000  T       0.01792600       0.00612800       0.00157800
Cu       0.05414000       7.50765000      15.36009000  T      -0.00042200      -0.00027900       0.00034500
Cu       2.54009000       7.49444000      15.35908000  T      -0.00082200       0.00158000      -0.00019300
Cu       5.03184000       7.64450000      15.50383000  T      -0.00030200      -0.00351500      -0.00168400
Cu       7.55776000       7.40842000      15.49343000  T       0.00239300      -0.00646400      -0.00108400
Cu      10.08541000       7.60307000      15.48653000  T      -0.00169200       0.00071800       0.00315500
Cu      12.50837000      10.00745000      15.37213000  T      -0.00060300       0.00036000       0.00076700
Cu       2.51051000      10.00135000      15.37116000  T      -0.00014300       0.00158400       0.00033200
Cu       5.01741000      10.08624000      15.36568000  T      -0.00073900      -0.00138400       0.00059700
Cu       7.50470000       9.90964000      15.34934000  T      -0.00110600      -0.00884800       0.00187600
Cu      10.00292000      10.06128000      15.35989000  T      -0.00178300       0.00015600       0.00140000
O        5.97112000       3.56771000      16.53435000  T      -0.01765200      -0.00635800       0.01553000
O        6.14069000       6.55572000      16.68073000  T      -0.00007200       0.00021900      -0.00168000
O        9.00375000       6.45870000      16.60424000  T       0.00570500      -0.00783900       0.00225500
O        8.85369000       3.72617000      16.06931000  T      -0.03337400       0.00891400      -0.06133600
C        7.65895000       1.77675000      17.76737000  T       0.00652500       0.02225400       0.00887000
O        7.60355000       0.55152000      18.33437000  T       0.01134600       0.02950300       0.01807700
O        7.75148000       2.77094000      18.53165000  T       0.02867000       0.03534500      -0.00863600
H        7.63467000       0.66269000      19.31797000  T       0.01022100       0.01687500       0.01547600
108
Lattice="12.515153631 0.0 0.0 0.0 12.515153631 0.0 0.0 0.0 25.30973" Properties=species:S:1:pos:R:3:move_mask:L:1:forces:R:3 stress="0.007829242941852818 -5.915702349512152e-05 -5.149869179766276e-05 -5.915702349512152e-05 0.007374779937869881 -9.218708978929573e-05 -5.149869179766276e-05 -9.218708978929573e-05 0.0019086035586220937" free_energy=-444.82171947 energy=-444.81853255 pbc="T T T"
Cu       1.25152000       1.25152000      10.00000000  F       0.00252500      -0.02116100      -0.08293000
Cu       3.75455000       1.25152000      10.00000000  F       0.01564400      -0.00076200      -0.07413400
Cu       6.25758000       1.25152000      10.00000000  F      -0.01615400       0.01025100      -0.04903900
Cu       8.76061000       1.25152000      10.00000000  F       0.01250300       0.00380400      -0.04501800
Cu      11.26364000       1.25152000      10.00000000  F      -0.01393100      -0.00206600      -0.07115000
Cu       1.25152000       3.75455000      10.00000000  F       0.00407200       0.00298100      -0.06475600
Cu       3.75455000       3.75455000      10.00000000  F       0.01481500      -0.01201200      -0.05763200
Cu       6.25758000       3.75455000      10.00000000  F      -0.01925300      -0.01643500      -0.08780800
Cu       8.76061000       3.75455000      10.00000000  F       0.02070400      -0.01465900      -0.09309600
Cu      11.26364000       3.75455000      10.00000000  F      -0.01745300       0.00030500      -0.05487200
Cu       1.25152000       6.25758000      10.00000000  F      -0.00222700      -0.00026300      -0.07903300
Cu       3.75455000       6.25758000      10.00000000  F       0.01683700       0.02078000      -0.06454300
Cu       6.25758000       6.25758000      10.00000000  F      -0.01853000       0.01947200      -0.08085000
Cu       8.76061000       6.25758000      10.00000000  F       0.01658200       0.02028600      -0.07836600
Cu      11.26364000       6.25758000      10.00000000  F      -0.01043800       0.00801000      -0.06578400
Cu       1.25152000       8.76061000      10.00000000  F      -0.00309200       0.00630000      -0.07236500
Cu       3.75455000       8.76061000      10.00000000  F       0.00603700      -0.02138900      -0.07362600
Cu       6.25758000       8.76061000      10.00000000  F      -0.00908800      -0.02423900      -0.06118300
Cu       8.76061000       8.76061000      10.00000000  F       0.01009800      -0.01547200      -0.05458100
Cu      11.26364000       8.76061000      10.00000000  F      -0.00537900      -0.01748500      -0.07757100
Cu       1.25152000      11.26364000      10.00000000  F      -0.00540200       0.00958600      -0.01351800
Cu       3.75455000      11.26364000      10.00000000  F      -0.00487400       0.01172700      -0.07202600
Cu       6.25758000      11.26364000      10.00000000  F       0.00271500       0.01662300      -0.07578100
Cu       8.76061000      11.26364000      10.00000000  F      -0.00454100       0.00678500      -0.07409100
Cu      11.26364000      11.26364000      10.00000000  F       0.01030300       0.00796900      -0.07106900
Cu       0.00000000       0.00000000      11.76991000  F      -0.02003900       0.02645000       0.04626100
Cu       2.50303000       0.00000000      11.76991000  F       0.04387800       0.00635300       0.03547300
Cu       5.00606000       0.00000000      11.76991000  F       0.06594700       0.05475500       0.06165300
Cu       7.50909000       0.00000000      11.76991000  F       0.00390900       0.03531600       0.05357200
Cu      10.01212000       0.00000000      11.76991000  F      -0.05460800       0.05065800       0.08260500
Cu       0.00000000       2.50303000      11.76991000  F      -0.09726400       0.02002300       0.03166700
Cu       2.50303000       2.50303000      11.76991000  F       0.07298700       0.01904000       0.01599400
Cu       5.00606000       2.50303000      11.76991000  F       0.00875200      -0.04368600       0.06969900
Cu       7.50909000       2.50303000      11.76991000  F       0.00485800       0.01069900       0.24330700
Cu      10.01212000       2.50303000      11.76991000  F      -0.04930400       0.00592900       0.13664500
Cu       0.00000000       5.00606000      11.76991000  F      -0.07765000       0.04260500       0.00947800
Cu       2.50303000       5.00606000      11.76991000  F       0.05249300       0.02467000       0.01240600
Cu       5.00606000       5.00606000      11.76991000  F      -0.00511000      -0.00891600       0.10266500
Cu       7.50909000       5.00606000      11.76991000  F      -0.03084800      -0.10340500       0.17670800
Cu      10.01212000       5.00606000      11.76991000  F      -0.04268700      -0.04720200       0.10603800
Cu       0.00000000       7.50909000      11.76991000  F      -0.04910700       0.01883000       0.05293700
Cu       2.50303000       7.50909000      11.76991000  F       0.05805700       0.05332600       0.01443900
Cu       5.00606000       7.50909000      11.76991000  F      -0.00809000       0.05526000       0.01220700
Cu       7.50909000       7.50909000      11.76991000  F      -0.03745900       0.03107500       0.02981400
Cu      10.01212000       7.50909000      11.76991000  F       0.07942200       0.07804700      -0.01929300
Cu       0.00000000      10.01212000      11.76991000  F      -0.02014600      -0.04824000       0.08189800
Cu       2.50303000      10.01212000      11.76991000  F       0.04926000      -0.04045800       0.09480500
Cu       5.00606000      10.01212000      11.76991000  F       0.05909200      -0.07729300       0.07588200
Cu       7.50909000      10.01212000      11.76991000  F       0.02025600      -0.10978300       0.05826700
Cu      10.01212000      10.01212000      11.76991000  F      -0.04319100      -0.08583900       0.08109100
Cu       1.26028000       1.23629000      13.56754000  T       0.00074400      -0.00007700      -0.00009300
Cu       3.77636000       1.26194000      13.58457000  T       0.00145100      -0.00035500       0.00105800
Cu       6.29738000       1.26166000      13.62304000  T       0.00008200      -0.00157400       0.00112600
Cu       8.73604000       1.25504000      13.61774000  T      -0.00116100      -0.00361700      -0.00036700
Cu      11.25868000       1.26291000      13.58292000  T      -0.00028000      -0.00085900      -0.00008400
Cu       1.23824000       3.75037000      13.55356000  T       0.00026100       0.00019100      -0.00014800
Cu       3.75053000       3.76920000      13.58645000  T      -0.00121100      -0.00073500       0.00064400
Cu       6.26065000       3.74337000      13.59015000  T      -0.00834000      -0.00226200      -0.00500700
Cu       8.70776000       3.74788000      13.61933000  T      -0.00775100       0.00290600       0.01507800
Cu      11.22818000       3.78213000      13.58611000  T       0.00003600       0.00018400      -0.00016000
Cu       1.24959000       6.26400000      13.56261000  T       0.00265200       0.00114200      -0.00027600
Cu       3.76037000       6.29154000      13.57794000  T       0.00298700      -0.00041000       0.00176000
Cu       6.27183000       6.23919000      13.56951000  T       0.00067000      -0.00172500      -0.00058200
Cu       8.74558000       6.25085000      13.53951000  T       0.00247800       0.00274600      -0.00222700
Cu      11.24447000       6.28665000      13.59203000  T       0.00439400       0.00222800      -0.00274700
Cu       1.26577000       8.76612000      13.58176000  T      -0.00011700       0.00087700      -0.00018600
Cu       3.79052000       8.76595000      13.61142000  T      -0.00043600       0.00043500      -0.00022400
Cu       6.27888000       8.71092000      13.60788000  T      -0.00076600      -0.00144400      -0.00053300
Cu       8.76617000       8.71135000      13.61314000  T      -0.00022500      -0.00040900       0.00014700
Cu      11.25911000       8.76308000      13.60604000  T      -0.00047000       0.00033800       0.00042100
Cu       1.24977000      11.25785000      13.59495000  T       0.00057800       0.00007100      -0.00002300
Cu       3.74946000      11.27109000      13.57701000  T       0.00093200      -0.00014500       0.00045400
Cu       6.26007000      11.24919000      13.56685000  T      -0.00011200      -0.00230400      -0.00009400
Cu       8.75825000      11.24466000      13.57066000  T       0.00038300      -0.00211000      -0.00024300
Cu      11.27052000      11.26961000      13.57624000  T       0.00037500      -0.00035700      -0.00000100
Cu      12.51248000       0.00827000      15.36473000  T       0.00137500       0.00065500       0.00103200
Cu       2.51319000       0.00259000      15.36202000  T       0.00245000       0.00096100       0.00004400
Cu       5.01766000       0.01559000      15.35518000  T       0.00416800      -0.00010700       0.00129700
Cu       7.51135000      12.32510000      15.39797000  T       0.00169700      -0.01467200      -0.00071800
Cu      10.01390000       0.00081000      15.35090000  T       0.00033500       0.00056300       0.00162800
Cu       0.04300000       2.50478000      15.33706000  T      -0.00389500       0.00032100       0.00127000
Cu       2.48790000       2.50125000      15.33901000  T      -0.00233900       0.00073100       0.00072500
Cu       4.94940000       2.45881000      15.39341000  T      -0.00195400      -0.00326900       0.00203500
Cu       7.49982000       2.14118000      15.79819000  T      -0.01565200      -0.03001500       0.02426200
Cu      10.11089000       2.45428000      15.38355000  T      -0.00354600       0.00196200       0.00371700
Cu      12.50083000       5.00819000      15.32304000  T       0.00536700       0.00036600       0.00182100
Cu       2.40593000       5.00039000      15.34535000  T       0.00443300       0.00111700       0.00024300
Pd       4.91230000       5.08392000      15.49139000  T       0.00674400      -0.00607600      -0.00298300
Y        7.50944000       4.89836000      17.27073000  T      -0.00387200       0.00068000      -0.01088200
Cu      10.03020000       5.12212000      15.39317000  T       0.01305700       0.00349900       0.00215800
Cu       0.05419000       7.50761000      15.36006000  T      -0.00055200       0.00008500       0.00044600
Cu       2.54015000       7.49422000      15.35910000  T      -0.00067400       0.00189100      -0.00013800
Cu       5.03188000       7.64464000      15.50408000  T      -0.00040900      -0.00368500      -0.00145900
Cu       7.55752000       7.40894000      15.49360000  T       0.00209400      -0.00530800      -0.00094000
Cu      10.08546000       7.60287000      15.48634000  T      -0.00135000       0.00072100       0.00277300
Cu      12.50843000      10.00744000      15.37213000  T      -0.00049400       0.00046400       0.00037000
Cu       2.51052000      10.00124000      15.37121000  T      -0.00006300       0.00146200      -0.00016700
Cu       5.01744000      10.08635000      15.36576000  T      -0.00068200      -0.00144000      -0.00021300
Cu       7.50481000       9.91057000      15.34934000  T      -0.00098900      -0.00700000       0.00069200
Cu      10.00308000      10.06122000      15.35988000  T      -0.00134600       0.00015700       0.00066200
O        5.97361000       3.56865000      16.53170000  T      -0.01570300      -0.00858700       0.01655300
O        6.14065000       6.55561000      16.68086000  T      -0.00154300       0.00135300      -0.00172300
O        9.00282000       6.45976000      16.60401000  T       0.00605600      -0.00776800       0.00116800
O        8.86082000       3.72478000      16.08099000  T      -0.03380200       0.00683000      -0.06368600
C        7.65616000       1.77412000      17.76573000  T       0.00880100       0.02455800       0.00976700
O        7.60214000       0.54780000      18.33081000  T       0.01188000       0.02919700       0.02517900
O        7.74647000       2.76695000      18.53178000  T       0.02768700       0.03659100      -0.00606600
H        7.63230000       0.65834000      19.31463000  T       0.00968500       0.01387800       0.01204500
108
Lattice="12.515153631 0.0 0.0 0.0 12.515153631 0.0 0.0 0.0 25.30973" Properties=species:S:1:pos:R:3:move_mask:L:1:forces:R:3 stress="0.007848735174852954 -6.639717408114611e-05 -7.338766430213535e-05 -6.639717408114611e-05 0.007361504247959128 -9.615044808423159e-05 -7.338766430213535e-05 -9.615044808423159e-05 0.001956844182656045" free_energy=-444.83807878 energy=-444.83475322 pbc="T T T"
Cu       1.25152000       1.25152000      10.00000000  F       0.00359600      -0.02151400      -0.08411500
Cu       3.75455000       1.25152000      10.00000000  F       0.01602500      -0.00175900      -0.07512100
Cu       6.25758000       1.25152000      10.00000000  F      -0.01629700       0.00896900      -0.04819000
Cu       8.76061000       1.25152000      10.00000000  F       0.01098300       0.00328500      -0.04504700
Cu      11.26364000       1.25152000      10.00000000  F      -0.01383300      -0.00259500      -0.07023600
Cu       1.25152000       3.75455000      10.00000000  F       0.00616000       0.00321800      -0.06558400
Cu       3.75455000       3.75455000      10.00000000  F       0.01334600      -0.01145200      -0.05795700
Cu       6.25758000       3.75455000      10.00000000  F      -0.01872600      -0.01593300      -0.08830300
Cu       8.76061000       3.75455000      10.00000000  F       0.02018500      -0.01443300      -0.09418500
Cu      11.26364000       3.75455000      10.00000000  F      -0.01802100       0.00027600      -0.05427300
Cu       1.25152000       6.25758000      10.00000000  F      -0.00164500      -0.00025100      -0.08002800
Cu       3.75455000       6.25758000      10.00000000  F       0.01719900       0.02099100      -0.06503400
Cu       6.25758000       6.25758000      10.00000000  F      -0.01842900       0.01994300      -0.07991500
Cu       8.76061000       6.25758000      10.00000000  F       0.01510400       0.02064300      -0.07862000
Cu      11.26364000       6.25758000      10.00000000  F      -0.01018000       0.00852100      -0.06587500
Cu       1.25152000       8.76061000      10.00000000  F      -0.00358600       0.00721900      -0.07332100
Cu       3.75455000       8.76061000      10.00000000  F       0.00681100      -0.02138100      -0.07444000
Cu       6.25758000       8.76061000      10.00000000  F      -0.00947000      -0.02452200      -0.06115200
Cu       8.76061000       8.76061000      10.00000000  F       0.00933400      -0.01477400      -0.05489400
Cu      11.26364000       8.76061000      10.00000000  F      -0.00475900      -0.01661100      -0.07897500
Cu       1.25152000      11.26364000      10.00000000  F      -0.00597700       0.00964500      -0.01568000
Cu       3.75455000      11.26364000      10.00000000  F      -0.00491100       0.01262900      -0.07314600
Cu       6.25758000      11.26364000      10.00000000  F       0.00251200       0.01806500      -0.07619800
Cu       8.76061000      11.26364000      10.00000000  F      -0.00479300       0.00624400      -0.07347700
Cu      11.26364000      11.26364000      10.00000000  F       0.01094100       0.00745900      -0.07255300
Cu       0.00000000       0.00000000      11.76991000  F      -0.01833700       0.02612200       0.05017800
Cu       2.50303000       0.00000000      11.76991000  F       0.04475400       0.00661700       0.03826900
Cu       5.00606000       0.00000000      11.76991000  F       0.06606700       0.05231400       0.06036200
Cu       7.50909000       0.00000000      11.76991000  F       0.00070700       0.03245700       0.05379600
Cu      10.01212000       0.00000000      11.76991000  F      -0.05201200       0.05019700       0.08334200
Cu       0.00000000       2.50303000      11.76991000  F      -0.09902300       0.01941100       0.03659700
Cu       2.50303000       2.50303000      11.76991000  F       0.07409000       0.01728600       0.01704000
Cu       5.00606000       2.50303000      11.76991000  F       0.00115400      -0.05420200       0.06210300
Cu       7.50909000       2.50303000      11.76991000  F       0.01804200       0.02152600       0.26063700
Cu      10.01212000       2.50303000      11.76991000  F      -0.06840800       0.02180400       0.16369700
Cu       0.00000000       5.00606000      11.76991000  F      -0.07506100       0.04050500       0.01071400
Cu       2.50303000       5.00606000      11.76991000  F       0.05437800       0.02551900       0.01284800
Cu       5.00606000       5.00606000      11.76991000  F      -0.01263600      -0.00336900       0.09581400
Cu       7.50909000       5.00606000      11.76991000  F      -0.01953800      -0.11589400       0.18660200
Cu      10.01212000       5.00606000      11.76991000  F      -0.05322800      -0.05989000       0.11916400
Cu       0.00000000       7.50909000      11.76991000  F      -0.04338000       0.02424000       0.05068400
Cu       2.50303000       7.50909000      11.76991000  F       0.06066900       0.05358000       0.01435300
Cu       5.00606000       7.50909000      11.76991000  F      -0.00857000       0.05593400       0.00911200
Cu       7.50909000       7.50909000      11.76991000  F      -0.03847200       0.03033100       0.02537600
Cu      10.01212000       7.50909000      11.76991000  F       0.08464500       0.08031700      -0.02366200
Cu       0.00000000      10.01212000      11.76991000  F      -0.02062900      -0.04745300       0.08226000
Cu       2.50303000      10.01212000      11.76991000  F       0.04933100      -0.03898400       0.09596300
Cu       5.00606000      10.01212000      11.76991000  F       0.05805200      -0.07869400       0.07322500
Cu       7.50909000      10.01212000      11.76991000  F       0.02081100      -0.11268500       0.05437300
Cu      10.01212000      10.01212000      11.76991000  F      -0.04151300      -0.08821600       0.07705100
Cu       1.26065000       1.23636000      13.56795000  T      -0.00070700       0.00158300       0.00079800
Cu       3.77728000       1.26164000      13.58534000  T      -0.00026000       0.00095600      -0.00008100
Cu       6.29780000       1.26022000      13.62406000  T       0.00082700       0.00011300       0.00066100
Cu       8.73502000       1.25176000      13.61781000  T      -0.00046400      -0.00162900       0.00133100
Cu      11.25829000       1.26239000      13.58334000  T      -0.00074200       0.00160200       0.00065000
Cu       1.23815000       3.75045000      13.55389000  T      -0.00159200      -0.00087300       0.00053800
Cu       3.74855000       3.76860000      13.58709000  T      -0.00511900      -0.00064600       0.00005200
Cu       6.25237000       3.74147000      13.58596000  T      -0.00916700      -0.00148600      -0.00402500
Cu       8.70010000       3.75064000      13.63304000  T      -0.01194000       0.00320200       0.01575000
Cu      11.22794000       3.78235000      13.58647000  T      -0.00170100      -0.00023700       0.00153600
Cu       1.25207000       6.26470000      13.56257000  T       0.00210500      -0.00109500      -0.00009500
Cu       3.76241000       6.29156000      13.57869000  T       0.00088700      -0.00070300      -0.00022200
Cu       6.27299000       6.23768000      13.56892000  T       0.00227400      -0.00162800      -0.00061700
Cu       8.74850000       6.25347000      13.53781000  T       0.00498900       0.00137700       0.00071800
Cu      11.24849000       6.28799000      13.59023000  T       0.00296300      -0.00164400      -0.00015800
Cu       1.26536000       8.76657000      13.58174000  T      -0.00116500       0.00018000       0.00024900
Cu       3.79011000       8.76621000      13.61115000  T      -0.00078800       0.00091700      -0.00045500
Cu       6.27830000       8.70931000      13.60703000  T      -0.00040600      -0.00178800      -0.00155700
Cu       8.76628000       8.71084000      13.61311000  T       0.00055100      -0.00024500       0.00003000
Cu      11.25864000       8.76341000      13.60650000  T      -0.00068000       0.00046600       0.00075100
Cu       1.25009000      11.25802000      13.59514000  T      -0.00000600       0.00234800       0.00039000
Cu       3.75019000      11.27116000      13.57740000  T       0.00015500       0.00267200       0.00035700
Cu       6.26001000      11.24681000      13.56608000  T      -0.00055500      -0.00116900      -0.00179900
Cu       8.75915000      11.24240000      13.56980000  T       0.00150300      -0.00118000      -0.00191000
Cu      11.27085000      11.26950000      13.57656000  T       0.00032400       0.00249700       0.00121300
Cu      12.51371000       0.00835000      15.36549000  T       0.00133400       0.00044300      -0.00003800
Cu       2.51543000       0.00309000      15.36212000  T       0.00298800       0.00126700      -0.00037300
Cu       5.02204000       0.01543000      15.35666000  T       0.00551000       0.00147700       0.00143700
Cu       7.51347000      12.31131000      15.39768000  T       0.00441600      -0.01394600       0.00036700
Cu      10.01426000       0.00103000      15.35224000  T       0.00090700       0.00105400       0.00070100
Cu       0.03933000       2.50487000      15.33800000  T      -0.00464500       0.00009300      -0.00026300
Cu       2.48507000       2.50163000      15.33965000  T      -0.00529900       0.00003900       0.00011700
Cu       4.94728000       2.45765000      15.39601000  T      -0.00415300       0.00319100       0.00334100
Cu       7.48368000       2.11716000      15.81382000  T      -0.01293800      -0.00040100      -0.00516300
Cu      10.10882000       2.45381000      15.38623000  T      -0.00900100       0.00464100       0.00483900
Cu      12.50569000       5.00848000      15.32404000  T       0.00497300      -0.00058100      -0.00051400
Cu       2.40901000       5.00123000      15.34558000  T       0.00217400       0.00015800       0.00026600
Pd       4.91473000       5.08117000      15.49120000  T       0.01565300      -0.01809800      -0.00146600
Y        7.50591000       4.89886000      17.26072000  T      -0.00281700       0.00046000      -0.02313800
Cu      10.04376000       5.12587000      15.39544000  T       0.01002000      -0.00128400       0.00831800
Cu       0.05380000       7.50758000      15.36033000  T      -0.00068800      -0.00077400       0.00054100
Cu       2.53949000       7.49572000      15.35900000  T      -0.00093400       0.00082900       0.00048900
Cu       5.03153000       7.64300000      15.50226000  T       0.00009800       0.00061600      -0.00136800
Cu       7.55961000       7.40425000      15.49235000  T       0.00203200      -0.00434200      -0.00073100
Cu      10.08484000       7.60422000      15.48828000  T      -0.00031000       0.00244500       0.00177000
Cu      12.50789000      10.00754000      15.37242000  T      -0.00123500       0.00028300       0.00087500
Cu       2.51034000      10.00221000      15.37117000  T      -0.00060700       0.00119600       0.00052600
Cu       5.01709000      10.08537000      15.36572000  T       0.00022900       0.00125800       0.00068000
Cu       7.50403000       9.90263000      15.35007000  T      -0.00092300      -0.01195600       0.00238300
Cu      10.00181000      10.06159000      15.36050000  T      -0.00176400       0.00241400       0.00151100
O        5.95383000       3.56158000      16.55205000  T      -0.00833600       0.00029400       0.01509400
O        6.14113000       6.55606000      16.67986000  T       0.00551300      -0.00078600       0.00205200
O        9.00997000       6.45110000      16.60633000  T       0.00365100      -0.00427200      -0.00012400
O        8.80919000       3.73581000      15.99445000  T      -0.04089900       0.01383100      -0.08125200
C        7.67456000       1.79590000      17.77773000  T       0.02621100       0.00301000       0.00292000
O        7.61380000       0.57742000      18.35608000  T       0.00211000       0.01116300       0.02311000
O        7.78500000       2.79988000      18.52840000  T       0.02297300      -0.00445700       0.00958600
H        7.64962000       0.68928000      19.33927000  T       0.01900700       0.04649100       0.01582000
108
Lattice="12.515153631 0.0 0.0 0.0 12.515153631 0.0 0.0 0.0 25.30973" Properties=species:S:1:pos:R:3:move_mask:L:1:forces:R:3 stress="0.007839029628162204 -5.544956707434687e-05 -5.084333333944502e-05 -5.544956707434687e-05 0.0073872629561216475 -9.204977658852629e-05 -5.084333333944502e-05 -9.204977658852629e-05 0.0019312914442946789" free_energy=-444.82266417 energy=-444.81946706 pbc="T T T"
Cu       1.25152000       1.25152000      10.00000000  F       0.00254900      -0.02096600      -0.08312500
Cu       3.75455000       1.25152000      10.00000000  F       0.01592400      -0.00061700      -0.07424000
Cu       6.25758000       1.25152000      10.00000000  F      -0.01606400       0.01028400      -0.04891400
Cu       8.76061000       1.25152000      10.00000000  F       0.01228600       0.00388600      -0.04475400
Cu      11.26364000       1.25152000      10.00000000  F      -0.01408400      -0.00200400      -0.07120700
Cu       1.25152000       3.75455000      10.00000000  F       0.00416900       0.00309400      -0.06479700
Cu       3.75455000       3.75455000      10.00000000  F       0.01489100      -0.01194200      -0.05764600
Cu       6.25758000       3.75455000      10.00000000  F      -0.01909200      -0.01641800      -0.08758400
Cu       8.76061000       3.75455000      10.00000000  F       0.02067300      -0.01459300      -0.09288900
Cu      11.26364000       3.75455000      10.00000000  F      -0.01763300       0.00043300      -0.05465600
Cu       1.25152000       6.25758000      10.00000000  F      -0.00226200      -0.00038500      -0.07903200
Cu       3.75455000       6.25758000      10.00000000  F       0.01697300       0.02061000      -0.06455100
Cu       6.25758000       6.25758000      10.00000000  F      -0.01833900       0.01945100      -0.08051400
Cu       8.76061000       6.25758000      10.00000000  F       0.01651200       0.02031200      -0.07819600
Cu      11.26364000       6.25758000      10.00000000  F      -0.01062300       0.00807500      -0.06567300
Cu       1.25152000       8.76061000      10.00000000  F      -0.00333800       0.00619700      -0.07260200
Cu       3.75455000       8.76061000      10.00000000  F       0.00628100      -0.02154000      -0.07377700
Cu       6.25758000       8.76061000      10.00000000  F      -0.00878800      -0.02429900      -0.06114100
Cu       8.76061000       8.76061000      10.00000000  F       0.01000700      -0.01553300      -0.05444700
Cu      11.26364000       8.76061000      10.00000000  F      -0.00554100      -0.01761200      -0.07765300
Cu       1.25152000      11.26364000      10.00000000  F      -0.00555800       0.00955700      -0.01395700
Cu       3.75455000      11.26364000      10.00000000  F      -0.00463800       0.01187400      -0.07225600
Cu       6.25758000      11.26364000      10.00000000  F       0.00296200       0.01672600      -0.07568500
Cu       8.76061000      11.26364000      10.00000000  F      -0.00464000       0.00668400      -0.07392800
Cu      11.26364000      11.26364000      10.00000000  F       0.01007900       0.00787300      -0.07130300
Cu       0.00000000       0.00000000      11.76991000  F      -0.02031900       0.02680100       0.04666800
Cu       2.50303000       0.00000000      11.76991000  F       0.04400100       0.00679400       0.03590700
Cu       5.00606000       0.00000000      11.76991000  F       0.06641000       0.05485100       0.06190400
Cu       7.50909000       0.00000000      11.76991000  F       0.00397300       0.03512900       0.05402300
Cu      10.01212000       0.00000000      11.76991000  F      -0.05483100       0.05099700       0.08284900
Cu       0.00000000       2.50303000      11.76991000  F      -0.09820100       0.02030000       0.03165500
Cu       2.50303000       2.50303000      11.76991000  F       0.07268600       0.01894200       0.01528800
Cu       5.00606000       2.50303000      11.76991000  F       0.00746000      -0.04544700       0.06755900
Cu       7.50909000       2.50303000      11.76991000  F       0.00694000       0.01194800       0.24516600
Cu      10.01212000       2.50303000      11.76991000  F      -0.05261900       0.00851400       0.14031100
Cu       0.00000000       5.00606000      11.76991000  F      -0.07796300       0.04239800       0.00932900
Cu       2.50303000       5.00606000      11.76991000  F       0.05250000       0.02501400       0.01209800
Cu       5.00606000       5.00606000      11.76991000  F      -0.00641000      -0.00800500       0.10135600
Cu       7.50909000       5.00606000      11.76991000  F      -0.02828400      -0.10466900       0.17802400
Cu      10.01212000       5.00606000      11.76991000  F      -0.04470800      -0.04918900       0.10804000
Cu       0.00000000       7.50909000      11.76991000  F      -0.04896700       0.01926100       0.05295100
Cu       2.50303000       7.50909000      11.76991000  F       0.05875700       0.05299600       0.01558100
Cu       5.00606000       7.50909000      11.76991000  F      -0.00822600       0.05483800       0.01271400
Cu       7.50909000       7.50909000      11.76991000  F      -0.03655800       0.03071700       0.02959200
Cu      10.01212000       7.50909000      11.76991000  F       0.08022900       0.07830100      -0.01968600
Cu       0.00000000      10.01212000      11.76991000  F      -0.02065300      -0.04802300       0.08256900
Cu       2.50303000      10.01212000      11.76991000  F       0.04920400      -0.04006800       0.09590100
Cu       5.00606000      10.01212000      11.76991000  F       0.05915900      -0.07713400       0.07628300
Cu       7.50909000      10.01212000      11.76991000  F       0.02042300      -0.11014300       0.05791500
Cu      10.01212000      10.01212000      11.76991000  F      -0.04294800      -0.08610400       0.08075000
Cu       1.26019000       1.23647000      13.56752000  T       0.00101000      -0.00091400       0.00013700
Cu       3.77638000       1.26211000      13.58461000  T       0.00163900      -0.00141500       0.00109000
Cu       6.29747000       1.26156000      13.62312000  T       0.00011300      -0.00322200       0.00046200
Cu       8.73594000       1.25483000      13.61787000  T      -0.00111000      -0.00377800      -0.00106500
Cu      11.25856000       1.26308000      13.58297000  T      -0.00039400      -0.00187400      -0.00061300
Cu       1.23797000       3.75035000      13.55351000  T       0.00050600       0.00087100       0.00055800
Cu       3.74975000       3.76904000      13.58633000  T       0.00017500      -0.00129800       0.00020500
Cu       6.25920000       3.74290000      13.58914000  T      -0.00576700      -0.00290200      -0.00467600
Cu       8.70601000       3.74839000      13.62176000  T      -0.00445500       0.00197000       0.01033300
Cu      11.22778000       3.78217000      13.58617000  T      -0.00085600       0.00095000       0.00000300
Cu       1.24994000       6.26397000      13.56253000  T       0.00339400       0.00196100       0.00027100
Cu       3.76079000       6.29134000      13.57831000  T       0.00327400       0.00137200       0.00107300
Cu       6.27231000       6.23895000      13.56932000  T       0.00195600      -0.00082300      -0.00200300
Cu       8.74639000       6.25110000      13.53946000  T       0.00140100       0.00218800      -0.00267600
Cu      11.24508000       6.28670000      13.59185000  T       0.00423000       0.00302400      -0.00282300
Cu       1.26552000       8.76623000      13.58178000  T       0.00032700       0.00087500      -0.00004900
Cu       3.79036000       8.76611000      13.61144000  T       0.00025000      -0.00016900       0.00033400
Cu       6.27879000       8.71066000      13.60768000  T      -0.00129400      -0.00119200      -0.00015600
Cu       8.76629000       8.71134000      13.61307000  T      -0.00088700      -0.00038800      -0.00044900
Cu      11.25898000       8.76321000      13.60613000  T      -0.00056600       0.00055900       0.00014100
Cu       1.24975000      11.25812000      13.59500000  T       0.00106000      -0.00112300       0.00036600
Cu       3.74952000      11.27143000      13.57711000  T       0.00189400      -0.00146000       0.00056900
Cu       6.26012000      11.24896000      13.56676000  T       0.00073300      -0.00281400       0.00106300
Cu       8.75843000      11.24438000      13.57047000  T      -0.00058500      -0.00221500       0.00049000
Cu      11.27056000      11.26982000      13.57633000  T       0.00005900      -0.00147100      -0.00024200
Cu      12.51278000       0.00839000      15.36478000  T       0.00163200       0.00051500       0.00134800
Cu       2.51377000       0.00288000      15.36198000  T       0.00218000       0.00069300       0.00040500
Cu       5.01860000       0.01584000      15.35542000  T       0.00309600      -0.00180900       0.00060300
Cu       7.51203000      12.32301000      15.39814000  T       0.00153700      -0.00986300       0.00005200
Cu      10.01416000       0.00097000      15.35104000  T       0.00047100      -0.00008000       0.00132400
Cu       0.04213000       2.50480000      15.33702000  T      -0.00276200       0.00047900       0.00158900
Cu       2.48702000       2.50131000      15.33909000  T      -0.00185200       0.00092400       0.00104800
Cu       4.94855000       2.45850000      15.39369000  T      -0.00254800      -0.00531100       0.00106000
Cu       7.49815000       2.13961000      15.79830000  T      -0.01177400      -0.03305800       0.02826000
Cu      10.11041000       2.45405000      15.38383000  T      -0.00092100      -0.00078600       0.00214700
Cu      12.50191000       5.00817000      15.32298000  T       0.00596300       0.00016500       0.00201500
Cu       2.40696000       5.00059000      15.34538000  T       0.00559200       0.00151700      -0.00002100
Pd       4.91444000       5.08213000      15.49017000  T      -0.00328800       0.00680100      -0.00255300
Y        7.50873000       4.89866000      17.26810000  T       0.00177600      -0.00327300       0.00446000
Cu      10.03245000       5.12293000      15.39388000  T       0.00958200       0.00137900       0.00269200
Cu       0.05399000       7.50755000      15.36007000  T      -0.00024800       0.00018400       0.00019400
Cu       2.53990000       7.49454000      15.35909000  T      -0.00085500       0.00239400      -0.00057300
Cu       5.03189000       7.64407000      15.50390000  T      -0.00181100      -0.00297800      -0.00324900
Cu       7.55783000       7.40836000      15.49332000  T       0.00109500      -0.00336000      -0.00329900
Cu      10.08551000       7.60344000      15.48655000  T       0.00034900       0.00303900       0.00068600
Cu      12.50815000      10.00752000      15.37219000  T      -0.00052000       0.00016000       0.00020400
Cu       2.51037000      10.00155000      15.37120000  T      -0.00013500       0.00137100      -0.00051600
Cu       5.01742000      10.08647000      15.36583000  T      -0.00083900      -0.00287800      -0.00092000
Cu       7.50463000       9.90878000      15.34972000  T      -0.00096700      -0.00270300      -0.00074600
Cu      10.00272000      10.06163000      15.36009000  T      -0.00132300       0.00007200       0.00020200
O        5.97334000       3.56740000      16.53250000  T      -0.01938400      -0.01484700       0.01660900
O        6.14078000       6.55606000      16.68089000  T      -0.00246600      -0.00026200      -0.00219500
O        9.00326000       6.46004000      16.60367000  T       0.00614900      -0.01136200       0.00274500
O        8.85875000       3.72557000      16.07595000  T      -0.03908700       0.00866700      -0.06759200
C        7.65725000       1.77365000      17.76600000  T       0.00266300       0.02516200       0.00566400
O        7.60238000       0.54750000      18.33162000  T       0.01673700       0.04151400       0.03821000
O        7.74705000       2.76631000      18.53245000  T       0.03454000       0.04163300      -0.01858800
H        7.63306000       0.66153000      19.31525000  T       0.00755200       0.00102000       0.00616900
108
Lattice="12.515153631 0.0 0.0 0.0 12.515153631 0.0 0.0 0.0 25.30973" Properties=species:S:1:pos:R:3:move_mask:L:1:forces:R:3 stress="0.007816685025491543 -6.576678165943189e-05 -7.753202636172184e-05 -6.576678165943189e-05 0.007324136332822465 -0.00010113741387581232 -7.753202636172184e-05 -0.00010113741387581232 0.001946583141653093" free_energy=-444.84168784 energy=-444.8383515 pbc="T T T"
Cu       1.25152000       1.25152000      10.00000000  F       0.00337600      -0.02147000      -0.08349900
Cu       3.75455000       1.25152000      10.00000000  F       0.01539700      -0.00175700      -0.07500500
Cu       6.25758000       1.25152000      10.00000000  F      -0.01630600       0.00885500      -0.04835100
Cu       8.76061000       1.25152000      10.00000000  F       0.01135100       0.00316400      -0.04510000
Cu      11.26364000       1.25152000      10.00000000  F      -0.01338500      -0.00270000      -0.06953300
Cu       1.25152000       3.75455000      10.00000000  F       0.00610900       0.00304800      -0.06486900
Cu       3.75455000       3.75455000      10.00000000  F       0.01249300      -0.01154600      -0.05761400
Cu       6.25758000       3.75455000      10.00000000  F      -0.01871700      -0.01602600      -0.08849600
Cu       8.76061000       3.75455000      10.00000000  F       0.02062600      -0.01456800      -0.09422900
Cu      11.26364000       3.75455000      10.00000000  F      -0.01760700       0.00011500      -0.05370100
Cu       1.25152000       6.25758000      10.00000000  F      -0.00196800      -0.00052700      -0.07933700
Cu       3.75455000       6.25758000      10.00000000  F       0.01661600       0.02067500      -0.06488600
Cu       6.25758000       6.25758000      10.00000000  F      -0.01840500       0.01978400      -0.08004000
Cu       8.76061000       6.25758000      10.00000000  F       0.01546100       0.02054900      -0.07860000
Cu      11.26364000       6.25758000      10.00000000  F      -0.00970900       0.00840900      -0.06530500
Cu       1.25152000       8.76061000      10.00000000  F      -0.00412500       0.00715300      -0.07282700
Cu       3.75455000       8.76061000      10.00000000  F       0.00629900      -0.02157100      -0.07448700
Cu       6.25758000       8.76061000      10.00000000  F      -0.00940400      -0.02475500      -0.06148000
Cu       8.76061000       8.76061000      10.00000000  F       0.00988400      -0.01476600      -0.05493100
Cu      11.26364000       8.76061000      10.00000000  F      -0.00437700      -0.01658500      -0.07847300
Cu       1.25152000      11.26364000      10.00000000  F      -0.00648600       0.00970900      -0.01533100
Cu       3.75455000      11.26364000      10.00000000  F      -0.00557500       0.01281700      -0.07319300
Cu       6.25758000      11.26364000      10.00000000  F       0.00259600       0.01827800      -0.07671200
Cu       8.76061000      11.26364000      10.00000000  F      -0.00416400       0.00611100      -0.07347700
Cu      11.26364000      11.26364000      10.00000000  F       0.01136500       0.00734300      -0.07208300
Cu       0.00000000       0.00000000      11.76991000  F      -0.01801100       0.02613200       0.05062900
Cu       2.50303000       0.00000000      11.76991000  F       0.04390400       0.00689100       0.03858800
Cu       5.00606000       0.00000000      11.76991000  F       0.06533300       0.05257000       0.06017400
Cu       7.50909000       0.00000000      11.76991000  F       0.00073800       0.03243600       0.05370000
Cu      10.01212000       0.00000000      11.76991000  F      -0.05069600       0.05031600       0.08330400
Cu       0.00000000       2.50303000      11.76991000  F      -0.09884800       0.01923000       0.03687300
Cu       2.50303000       2.50303000      11.76991000  F       0.07370900       0.01728400       0.01712900
Cu       5.00606000       2.50303000      11.76991000  F      -0.00021800      -0.05499300       0.06156000
Cu       7.50909000       2.50303000      11.76991000  F       0.01972700       0.02316400       0.26229900
Cu      10.01212000       2.50303000      11.76991000  F      -0.06974500       0.02360500       0.16652600
Cu       0.00000000       5.00606000      11.76991000  F      -0.07461700       0.04005400       0.01064100
Cu       2.50303000       5.00606000      11.76991000  F       0.05387900       0.02505700       0.01274600
Cu       5.00606000       5.00606000      11.76991000  F      -0.01403500      -0.00307600       0.09524000
Cu       7.50909000       5.00606000      11.76991000  F      -0.01816500      -0.11740900       0.18785100
Cu      10.01212000       5.00606000      11.76991000  F      -0.05366000      -0.06156700       0.12058000
Cu       0.00000000       7.50909000      11.76991000  F      -0.04274100       0.02455300       0.05065400
Cu       2.50303000       7.50909000      11.76991000  F       0.05975300       0.05336700       0.01426000
Cu       5.00606000       7.50909000      11.76991000  F      -0.00902600       0.05562200       0.00905300
Cu       7.50909000       7.50909000      11.76991000  F      -0.03830300       0.02978700       0.02525300
Cu      10.01212000       7.50909000      11.76991000  F       0.08602100       0.08038600      -0.02398100
Cu       0.00000000      10.01212000      11.76991000  F      -0.02076500      -0.04747400       0.08251100
Cu       2.50303000      10.01212000      11.76991000  F       0.04834900      -0.03890100       0.09632300
Cu       5.00606000      10.01212000      11.76991000  F       0.05723300      -0.07914400       0.07303200
Cu       7.50909000      10.01212000      11.76991000  F       0.02154800      -0.11328200       0.05405700
Cu      10.01212000      10.01212000      11.76991000  F      -0.04028700      -0.08878600       0.07669300
Cu       1.26072000       1.23641000      13.56802000  T      -0.00127900       0.00122700       0.00071900
Cu       3.77737000       1.26162000      13.58538000  T      -0.00042300       0.00166300       0.00100800
Cu       6.29784000       1.26018000      13.62421000  T       0.00022500      -0.00001900       0.00110400
Cu       8.73487000       1.25140000      13.61785000  T       0.00057700      -0.00150600       0.00181200
Cu      11.25826000       1.26237000      13.58342000  T      -0.00058400       0.00167100       0.00097100
Cu       1.23822000       3.75042000      13.55391000  T      -0.00235000      -0.00086600       0.00045500
Cu       3.74840000       3.76861000      13.58723000  T      -0.00679600      -0.00073900       0.00006800
Cu       6.25145000       3.74142000      13.58571000  T      -0.00916000      -0.00217700      -0.00527200
Cu       8.69932000       3.75093000      13.63452000  T      -0.01366400       0.00373600       0.01756200
Cu      11.22807000       3.78233000      13.58653000  T      -0.00228700      -0.00061500       0.00143500
Cu       1.25228000       6.26471000      13.56255000  T       0.00186400      -0.00092100       0.00017000
Cu       3.76248000       6.29155000      13.57857000  T       0.00189300      -0.00244200       0.00398000
Cu       6.27295000       6.23748000      13.56897000  T       0.00220800      -0.00145400       0.00010800
Cu       8.74874000       6.25379000      13.53765000  T       0.00580600       0.00093700       0.00101000
Cu      11.24882000       6.28802000      13.59010000  T       0.00409800      -0.00086600      -0.00071900
Cu       1.26535000       8.76657000      13.58172000  T      -0.00175100       0.00019800       0.00083100
Cu       3.79008000       8.76624000      13.61104000  T      -0.00157100       0.00082200       0.00051600
Cu       6.27829000       8.70914000      13.60691000  T      -0.00061200      -0.00243000      -0.00113300
Cu       8.76629000       8.71077000      13.61316000  T       0.00156000      -0.00032500       0.00007500
Cu      11.25860000       8.76340000      13.60653000  T      -0.00025300       0.00026700       0.00147300
Cu       1.25012000      11.25808000      13.59514000  T      -0.00046800       0.00190600       0.00079400
Cu       3.75024000      11.27121000      13.57740000  T      -0.00084300       0.00254400       0.00097100
Cu       6.25991000      11.24661000      13.56587000  T      -0.00029800      -0.00154000      -0.00128300
Cu       8.75928000      11.24219000      13.56964000  T       0.00217800      -0.00187800      -0.00154900
Cu      11.27088000      11.26953000      13.57661000  T       0.00108500       0.00206400       0.00134000
Cu      12.51376000       0.00830000      15.36557000  T       0.00175900       0.00048300      -0.00014500
Cu       2.51561000       0.00308000      15.36213000  T       0.00298900       0.00133100      -0.00037600
Cu       5.02248000       0.01543000      15.35683000  T       0.00551000       0.00342800       0.00180600
Cu       7.51358000      12.30974000      15.39755000  T       0.00533400      -0.01389400       0.00087000
Cu      10.01417000       0.00104000      15.35242000  T       0.00212200       0.00118100       0.00074100
Cu       0.03903000       2.50486000      15.33812000  T      -0.00551500       0.00010500      -0.00039500
Cu       2.48492000       2.50163000      15.33968000  T      -0.00599200      -0.00001000       0.00044200
Cu       4.94732000       2.45796000      15.39641000  T      -0.00666000      -0.00068400       0.00284200
Cu       7.48162000       2.11515000      15.81496000  T      -0.00944100      -0.00244500      -0.00114900
Cu      10.10849000       2.45393000      15.38663000  T      -0.00969200       0.00505300       0.00482300
Cu      12.50594000       5.00853000      15.32415000  T       0.00652900      -0.00086800      -0.00083100
Cu       2.40893000       5.00122000      15.34561000  T       0.00574100       0.00076800       0.00052300
Pd       4.91515000       5.08030000      15.49166000  T       0.01161200      -0.01111400      -0.00754500
Y        7.50542000       4.89908000      17.25926000  T      -0.00119700       0.00127200      -0.03407600
Cu      10.04507000       5.12621000      15.39563000  T       0.01148900      -0.00204300       0.00886200
Cu       0.05379000       7.50758000      15.36040000  T      -0.00081100      -0.00104400       0.00001800
Cu       2.53950000       7.49577000      15.35904000  T      -0.00139600       0.00077700      -0.00005200
Cu       5.03156000       7.64313000      15.50214000  T       0.00042800      -0.00428100      -0.00034500
Cu       7.55985000       7.40367000      15.49241000  T       0.00166900      -0.00345100      -0.00193200
Cu      10.08464000       7.60414000      15.48859000  T       0.00191600       0.00457600       0.00048900
Cu      12.50790000      10.00754000      15.37249000  T      -0.00121900       0.00010500       0.00024200
Cu       2.51038000      10.00224000      15.37121000  T      -0.00118200       0.00100000       0.00014100
Cu       5.01710000      10.08535000      15.36576000  T      -0.00024000       0.00161000       0.00088000
Cu       7.50397000       9.90176000      15.35017000  T      -0.00100100      -0.01411200       0.00306100
Cu      10.00171000      10.06156000      15.36059000  T      -0.00141400       0.00255300       0.00154300
O        5.95141000       3.56183000      16.55454000  T      -0.01092600      -0.01084000       0.02160100
O        6.14144000       6.55592000      16.67984000  T       0.00211300       0.00239500       0.00131700
O        9.01074000       6.45009000      16.60671000  T       0.00571200      -0.00660200       0.00046200
O        8.80290000       3.73715000      15.98390000  T      -0.05178100       0.01677900      -0.09923800
C        7.67778000       1.79868000      17.77933000  T       0.01630600      -0.01332500      -0.00759400
O        7.61467000       0.58100000      18.35914000  T       0.01243300       0.01926100       0.04393200
O        7.78953000       2.80307000      18.52898000  T       0.03661000       0.02126700       0.01661100
H        7.65228000       0.69405000      19.34242000  T       0.01661900       0.04594800       0.00188900
108
Lattice="12.515153631 0.0 0.0 0.0 12.515153631 0.0 0.0 0.0 25.30973" Properties=species:S:1:pos:R:3:move_mask:L:1:forces:R:3 stress="0.007843617137369729 -7.976024511966214e-05 -0.00012584130699605823 -7.976024511966214e-05 0.007339090988688081 -9.757975367405887e-05 -0.00012584130699605823 -9.757975367405887e-05 0.0020174554777774973" free_energy=-444.87043199 energy=-444.86696097 pbc="T T T"
Cu       1.25152000       1.25152000      10.00000000  F       0.00479400      -0.02178400      -0.08496700
Cu       3.75455000       1.25152000      10.00000000  F       0.01451100      -0.00297500      -0.07566800
Cu       6.25758000       1.25152000      10.00000000  F      -0.01630100       0.00698100      -0.04797400
Cu       8.76061000       1.25152000      10.00000000  F       0.00880100       0.00242800      -0.04602500
Cu      11.26364000       1.25152000      10.00000000  F      -0.01223000      -0.00380700      -0.06779800
Cu       1.25152000       3.75455000      10.00000000  F       0.00945100       0.00350700      -0.06584100
Cu       3.75455000       3.75455000      10.00000000  F       0.00851600      -0.01064300      -0.05750200
Cu       6.25758000       3.75455000      10.00000000  F      -0.01773200      -0.01508800      -0.08953400
Cu       8.76061000       3.75455000      10.00000000  F       0.01973600      -0.01382800      -0.09459800
Cu      11.26364000       3.75455000      10.00000000  F      -0.01777100       0.00055800      -0.05305700
Cu       1.25152000       6.25758000      10.00000000  F      -0.00121300      -0.00041700      -0.07995200
Cu       3.75455000       6.25758000      10.00000000  F       0.01582700       0.02089900      -0.06500700
Cu       6.25758000       6.25758000      10.00000000  F      -0.01802100       0.02057900      -0.07853300
Cu       8.76061000       6.25758000      10.00000000  F       0.01350200       0.02114100      -0.07891100
Cu      11.26364000       6.25758000      10.00000000  F      -0.00876000       0.00957200      -0.06453100
Cu       1.25152000       8.76061000      10.00000000  F      -0.00573700       0.00814200      -0.07380400
Cu       3.75455000       8.76061000      10.00000000  F       0.00700400      -0.02149800      -0.07574100
Cu       6.25758000       8.76061000      10.00000000  F      -0.01017200      -0.02463800      -0.06118400
Cu       8.76061000       8.76061000      10.00000000  F       0.00933300      -0.01319000      -0.05495200
Cu      11.26364000       8.76061000      10.00000000  F      -0.00283100      -0.01502800      -0.07954400
Cu       1.25152000      11.26364000      10.00000000  F      -0.00811300       0.00995100      -0.01881000
Cu       3.75455000      11.26364000      10.00000000  F      -0.00621500       0.01388600      -0.07498400
Cu       6.25758000      11.26364000      10.00000000  F       0.00199000       0.01963600      -0.07725100
Cu       8.76061000      11.26364000      10.00000000  F      -0.00402000       0.00451100      -0.07231100
Cu      11.26364000      11.26364000      10.00000000  F       0.01300700       0.00610100      -0.07387600
Cu       0.00000000       0.00000000      11.76991000  F      -0.01595000       0.02606400       0.05617800
Cu       2.50303000       0.00000000      11.76991000  F       0.04377900       0.00827700       0.04262100
Cu       5.00606000       0.00000000      11.76991000  F       0.06376200       0.04992900       0.05814800
Cu       7.50909000       0.00000000      11.76991000  F      -0.00366600       0.03019200       0.05549100
Cu      10.01212000       0.00000000      11.76991000  F      -0.04525900       0.04988200       0.08427500
Cu       0.00000000       2.50303000      11.76991000  F      -0.10175700       0.01863300       0.04240200
Cu       2.50303000       2.50303000      11.76991000  F       0.07379900       0.01527600       0.01673600
Cu       5.00606000       2.50303000      11.76991000  F      -0.01103800      -0.06871800       0.05093200
Cu       7.50909000       2.50303000      11.76991000  F       0.03659700       0.03811900       0.27899700
Cu      10.01212000       2.50303000      11.76991000  F      -0.09727900       0.04702500       0.20076400
Cu       0.00000000       5.00606000      11.76991000  F      -0.07209200       0.03657500       0.01208700
Cu       2.50303000       5.00606000      11.76991000  F       0.05508500       0.02622400       0.01219600
Cu       5.00606000       5.00606000      11.76991000  F      -0.02490300       0.00565200       0.08666000
Cu       7.50909000       5.00606000      11.76991000  F      -0.00367900      -0.13108800       0.19599100
Cu      10.01212000       5.00606000      11.76991000  F      -0.06922700      -0.07925700       0.13645500
Cu       0.00000000       7.50909000      11.76991000  F      -0.03589800       0.03126300       0.04876900
Cu       2.50303000       7.50909000      11.76991000  F       0.06334900       0.05311200       0.01625900
Cu       5.00606000       7.50909000      11.76991000  F      -0.01188200       0.05663700       0.00577800
Cu       7.50909000       7.50909000      11.76991000  F      -0.03810400       0.02609200       0.02161500
Cu      10.01212000       7.50909000      11.76991000  F       0.09443200       0.08278400      -0.02851800
Cu       0.00000000      10.01212000      11.76991000  F      -0.02146300      -0.04635100       0.08420100
Cu       2.50303000      10.01212000      11.76991000  F       0.04643100      -0.03721300       0.09880400
Cu       5.00606000      10.01212000      11.76991000  F       0.05495200      -0.08138200       0.07119600
Cu       7.50909000      10.01212000      11.76991000  F       0.02313900      -0.11788600       0.04941400
Cu      10.01212000      10.01212000      11.76991000  F      -0.03662700      -0.09288300       0.07161100
Cu       1.26080000       1.23678000      13.56875000  T      -0.00263400       0.00080700      -0.00023000
Cu       3.77829000       1.26181000      13.58644000  T       0.00009800       0.00259600       0.00053800
Cu       6.29824000       1.25879000      13.62569000  T      -0.00012700       0.00009200       0.00059400
Cu       8.73400000       1.24685000      13.61822000  T       0.00198500      -0.00561100      -0.00110300
Cu      11.25747000       1.26250000      13.58439000  T      -0.00377600       0.00353400       0.00056600
Cu       1.23754000       3.75018000      13.55444000  T      -0.00428000      -0.00044600      -0.00030000
Cu       3.74442000       3.76788000      13.58813000  T      -0.00698200      -0.00079300      -0.00013700
Cu       6.23917000       3.73922000      13.57999000  T      -0.01560200      -0.00131100      -0.00607900
Cu       8.68650000       3.75517000      13.65271000  T      -0.02168500       0.00760200      -0.03015900
Cu      11.22734000       3.78232000      13.58750000  T      -0.00551400       0.00035100       0.00262000
Cu       1.25544000       6.26510000      13.56255000  T       0.00145500      -0.00058000      -0.00074100
Cu       3.76496000       6.29108000      13.58002000  T       0.00287500       0.00012100       0.00090400
Cu       6.27448000       6.23564000      13.56841000  T       0.00295300       0.00129100      -0.00320200
Cu       8.75344000       6.25743000      13.53611000  T       0.00812600       0.00477600       0.00094300
Cu      11.25403000       6.28887000      13.58819000  T       0.00217300      -0.00172600      -0.00130200
Cu       1.26461000       8.76690000      13.58189000  T      -0.00212300      -0.00011800      -0.00003600
Cu       3.78939000       8.76668000      13.61084000  T      -0.00028600       0.00085600       0.00115700
Cu       6.27752000       8.70679000      13.60565000  T      -0.00078800      -0.00012100      -0.00102900
Cu       8.76684000       8.71004000      13.61327000  T       0.00084600       0.00068900      -0.00037700
Cu      11.25811000       8.76365000      13.60744000  T      -0.00096600       0.00009700       0.00020000
Cu       1.25041000      11.25866000      13.59550000  T      -0.00040500       0.00065800       0.00013600
Cu       3.75082000      11.27193000      13.57799000  T       0.00054100       0.00235900       0.00055900
Cu       6.25967000      11.24364000      13.56459000  T       0.00208600       0.00035500       0.00207800
Cu       8.76083000      11.23915000      13.56826000  T       0.00102000      -0.00145000       0.00018600
Cu      11.27159000      11.27000000      13.57736000  T      -0.00019700       0.00204900       0.00034500
Cu      12.51558000       0.00825000      15.36641000  T       0.00321200      -0.00010800       0.00110500
Cu       2.51870000       0.00371000      15.36215000  T       0.00413600       0.00139400       0.00101800
Cu       5.02863000       0.01638000      15.35884000  T       0.00601300       0.00372800       0.00104300
Cu       7.51726000      12.29161000      15.39742000  T       0.00736200      -0.00781800       0.00213300
Cu      10.01505000       0.00199000      15.35423000  T       0.00332700       0.00758700       0.00222000
Cu       0.03305000       2.50493000      15.33940000  T      -0.01583600       0.00055800       0.00387400
Cu       2.48028000       2.50184000      15.34049000  T      -0.01003500      -0.00044900       0.00200500
Cu       4.94381000       2.45796000      15.40095000  T      -0.00682900       0.00346400       0.00724700
Cu       7.45999000       2.08789000      15.83192000  T      -0.00840800      -0.01055700       0.01883100
Cu      10.10236000       2.45638000      15.39152000  T      -0.03228900       0.02797500       0.00806600
Cu      12.51229000       5.00853000      15.32525000  T       0.00673800      -0.00199100       0.00278400
Cu       2.41293000       5.00205000      15.34608000  T       0.00531900       0.00010500       0.00151200
Pd       4.91956000       5.07544000      15.49111000  T       0.01856700      -0.01788800      -0.00032400
Y        7.50148000       4.89924000      17.24119000  T       0.01452200      -0.02627600      -0.05374700
Cu      10.06380000       5.12898000      15.40126000  T       0.00475200      -0.02005600       0.02184400
Cu       0.05342000       7.50716000      15.36076000  T      -0.00044900      -0.00153900       0.00044400
Cu       2.53867000       7.49728000      15.35898000  T      -0.00169400       0.00149700       0.00107000
Cu       5.03148000       7.64098000      15.50020000  T      -0.00064800      -0.00036900      -0.00008000
Cu       7.56269000       7.39765000      15.49078000  T       0.00240100      -0.00227000      -0.00275200
Cu      10.08414000       7.60617000      15.49108000  T      -0.00102000       0.00273100       0.00081300
Cu      12.50717000      10.00751000      15.37297000  T      -0.00274700      -0.00060600       0.00150500
Cu       2.51004000      10.00325000      15.37121000  T      -0.00131000       0.00121400       0.00040100
Cu       5.01677000      10.08494000      15.36589000  T      -0.00022600       0.00253300       0.00088400
Cu       7.50292000       9.88954000      15.35178000  T      -0.00091300      -0.00747300       0.00345700
Cu      10.00007000      10.06259000      15.36171000  T      -0.00272500       0.00506600       0.00164100
O        5.92409000       3.55175000      16.58585000  T       0.00068800      -0.00915900       0.00979800
O        6.14346000       6.55676000      16.67908000  T       0.00927400      -0.00270100       0.00575800
O        9.02138000       6.43680000      16.60953000  T       0.00833300      -0.01793400      -0.00686400
O        8.72127000       3.75742000      15.84628000  T      -0.03393800       0.03010100      -0.05909000
C        7.70885000       1.82489000      17.79445000  T       0.02938200      -0.00110000      -0.01282400
O        7.63155000       0.62115000      18.39838000  T       0.01491800       0.02537600       0.03853900
O        7.84939000       2.84298000      18.52474000  T       0.03612700      -0.00664300      -0.02400000
H        7.68086000       0.75081000      19.37905000  T       0.02134200       0.05357900      -0.00115000
108
Lattice="12.515153631 0.0 0.0 0.0 12.515153631 0.0 0.0 0.0 25.30973" Properties=species:S:1:pos:R:3:move_mask:L:1:forces:R:3 stress="0.007834710503847092 -8.133934692851062e-05 -0.00013501008390198076 -8.133934692851062e-05 0.007324673102607291 -0.000101848945916163 -0.00013501008390198076 -0.000101848945916163 0.0020052096368725143" free_energy=-444.8728262 energy=-444.86935709 pbc="T T T"
Cu       1.25152000       1.25152000      10.00000000  F       0.00516000      -0.02209800      -0.08511400
Cu       3.75455000       1.25152000      10.00000000  F       0.01468200      -0.00352000      -0.07554400
Cu       6.25758000       1.25152000      10.00000000  F      -0.01578400       0.00638000      -0.04788600
Cu       8.76061000       1.25152000      10.00000000  F       0.00835500       0.00217700      -0.04611700
Cu      11.26364000       1.25152000      10.00000000  F      -0.01206200      -0.00415300      -0.06728400
Cu       1.25152000       3.75455000      10.00000000  F       0.01014800       0.00331300      -0.06594000
Cu       3.75455000       3.75455000      10.00000000  F       0.00813800      -0.01074100      -0.05740500
Cu       6.25758000       3.75455000      10.00000000  F      -0.01710400      -0.01532200      -0.08975800
Cu       8.76061000       3.75455000      10.00000000  F       0.01971100      -0.01416200      -0.09462700
Cu      11.26364000       3.75455000      10.00000000  F      -0.01787000       0.00023900      -0.05291600
Cu       1.25152000       6.25758000      10.00000000  F      -0.00072900      -0.00064300      -0.08005700
Cu       3.75455000       6.25758000      10.00000000  F       0.01594900       0.02079600      -0.06501100
Cu       6.25758000       6.25758000      10.00000000  F      -0.01772200       0.02045700      -0.07831200
Cu       8.76061000       6.25758000      10.00000000  F       0.01322900       0.02075900      -0.07926900
Cu      11.26364000       6.25758000      10.00000000  F      -0.00853700       0.00934400      -0.06455600
Cu       1.25152000       8.76061000      10.00000000  F      -0.00562400       0.00803700      -0.07418400
Cu       3.75455000       8.76061000      10.00000000  F       0.00752500      -0.02168000      -0.07606500
Cu       6.25758000       8.76061000      10.00000000  F      -0.01025500      -0.02472900      -0.06112400
Cu       8.76061000       8.76061000      10.00000000  F       0.00920000      -0.01313800      -0.05505000
Cu      11.26364000       8.76061000      10.00000000  F      -0.00236400      -0.01501000      -0.07991100
Cu       1.25152000      11.26364000      10.00000000  F      -0.00807100       0.00974300      -0.01963200
Cu       3.75455000      11.26364000      10.00000000  F      -0.00592000       0.01367900      -0.07532300
Cu       6.25758000      11.26364000      10.00000000  F       0.00208900       0.01959500      -0.07712800
Cu       8.76061000      11.26364000      10.00000000  F      -0.00403000       0.00426500      -0.07205000
Cu      11.26364000      11.26364000      10.00000000  F       0.01337200       0.00585900      -0.07417200
Cu       0.00000000       0.00000000      11.76991000  F      -0.01585200       0.02623000       0.05738100
Cu       2.50303000       0.00000000      11.76991000  F       0.04401000       0.00846300       0.04368000
Cu       5.00606000       0.00000000      11.76991000  F       0.06394900       0.04914200       0.05810000
Cu       7.50909000       0.00000000      11.76991000  F      -0.00422700       0.02976100       0.05598900
Cu      10.01212000       0.00000000      11.76991000  F      -0.04416300       0.04975100       0.08428700
Cu       0.00000000       2.50303000      11.76991000  F      -0.10270700       0.01824500       0.04345500
Cu       2.50303000       2.50303000      11.76991000  F       0.07363200       0.01458000       0.01685300
Cu       5.00606000       2.50303000      11.76991000  F      -0.01276600      -0.07170600       0.04875000
Cu       7.50909000       2.50303000      11.76991000  F       0.03760100       0.03809200       0.27895600
Cu      10.01212000       2.50303000      11.76991000  F      -0.10103000       0.04957900       0.20470900
Cu       0.00000000       5.00606000      11.76991000  F      -0.07189200       0.03523500       0.01260700
Cu       2.50303000       5.00606000      11.76991000  F       0.05546900       0.02610200       0.01243000
Cu       5.00606000       5.00606000      11.76991000  F      -0.02690500       0.00711100       0.08509000
Cu       7.50909000       5.00606000      11.76991000  F      -0.00290100      -0.13138200       0.19420200
Cu      10.01212000       5.00606000      11.76991000  F      -0.07071400      -0.08170200       0.13735700
Cu       0.00000000       7.50909000      11.76991000  F      -0.03457900       0.03188700       0.04868700
Cu       2.50303000       7.50909000      11.76991000  F       0.06463400       0.05288300       0.01717800
Cu       5.00606000       7.50909000      11.76991000  F      -0.01231400       0.05680000       0.00529800
Cu       7.50909000       7.50909000      11.76991000  F      -0.03771200       0.02517000       0.02119400
Cu      10.01212000       7.50909000      11.76991000  F       0.09613200       0.08292500      -0.02929100
Cu       0.00000000      10.01212000      11.76991000  F      -0.02137500      -0.04605700       0.08478000
Cu       2.50303000      10.01212000      11.76991000  F       0.04654100      -0.03715100       0.09953600
Cu       5.00606000      10.01212000      11.76991000  F       0.05496000      -0.08157900       0.07145900
Cu       7.50909000      10.01212000      11.76991000  F       0.02334000      -0.11846500       0.04883800
Cu      10.01212000      10.01212000      11.76991000  F      -0.03598000      -0.09335000       0.07092700
Cu       1.26066000       1.23687000      13.56887000  T      -0.00278400       0.00061300       0.00077800
Cu       3.77843000       1.26196000      13.58664000  T       0.00032700       0.00216200       0.00122700
Cu       6.29830000       1.25860000      13.62594000  T       0.00059900       0.00010300       0.00133900
Cu       8.73398000       1.24592000      13.61822000  T       0.00133700      -0.00434900      -0.00044800
Cu      11.25713000       1.26274000      13.58461000  T      -0.00459400       0.00413500       0.00248700
Cu       1.23720000       3.75010000      13.55453000  T      -0.00428300      -0.00082100       0.00083100
Cu       3.74346000       3.76772000      13.58827000  T      -0.00645200      -0.00079400       0.00094600
Cu       6.23657000       3.73882000      13.57885000  T      -0.01429600      -0.00148400      -0.00462000
Cu       8.68357000       3.75617000      13.65337000  T      -0.01735200       0.00681700      -0.04063000
Cu      11.22691000       3.78232000      13.58779000  T      -0.00609700       0.00034100       0.00335400
Cu       1.25599000       6.26510000      13.56253000  T       0.00208000      -0.00088400       0.00006600
Cu       3.76549000       6.29100000      13.58031000  T       0.00382500      -0.00038800       0.00216400
Cu       6.27488000       6.23545000      13.56816000  T       0.00300000       0.00100500      -0.00251600
Cu       8.75456000       6.25818000      13.53596000  T       0.00773200       0.00380900       0.00179700
Cu      11.25489000       6.28885000      13.58791000  T       0.00162000      -0.00300100       0.00107900
Cu       1.26441000       8.76694000      13.58191000  T      -0.00148700      -0.00037400       0.00028800
Cu       3.78929000       8.76679000      13.61088000  T       0.00007000       0.00055700       0.00136800
Cu       6.27736000       8.70646000      13.60542000  T      -0.00071200       0.00005800      -0.00042200
Cu       8.76696000       8.70999000      13.61327000  T       0.00029300       0.00088700       0.00015300
Cu      11.25800000       8.76369000      13.60758000  T      -0.00100100      -0.00021200       0.00070700
Cu       1.25044000      11.25877000      13.59557000  T       0.00015200       0.00015500       0.00051000
Cu       3.75095000      11.27216000      13.57811000  T       0.00129400       0.00181900       0.00068600
Cu       6.25976000      11.24325000      13.56453000  T       0.00231100       0.00034400       0.00224200
Cu       8.76111000      11.23864000      13.56808000  T       0.00111400      -0.00128700       0.00041900
Cu      11.27169000      11.27019000      13.57750000  T      -0.00020100       0.00216200       0.00086300
Cu      12.51604000       0.00823000      15.36657000  T       0.00387800      -0.00057300       0.00111700
Cu       2.51937000       0.00388000      15.36219000  T       0.00456500       0.00114200       0.00109900
Cu       5.02983000       0.01671000      15.35917000  T       0.00597400       0.00299800       0.00102800
Cu       7.51821000      12.28868000      15.39754000  T       0.00778500      -0.00701300       0.00184800
Cu      10.01538000       0.00261000      15.35461000  T       0.00378200       0.00989100       0.00264700
Cu       0.03128000       2.50496000      15.33978000  T      -0.01793900       0.00017600       0.00425600
Cu       2.47905000       2.50183000      15.34070000  T      -0.01048000      -0.00054000       0.00222800
Cu       4.94288000       2.45807000      15.40195000  T      -0.00799900       0.00079100       0.00574600
Cu       7.45642000       2.08337000      15.83521000  T      -0.00855400      -0.01163400       0.01499300
Cu      10.09981000       2.45814000      15.39253000  T      -0.03054900       0.02430300       0.00188100
Cu      12.51355000       5.00841000      15.32556000  T       0.00595200      -0.00217300       0.00344600
Cu       2.41382000       5.00217000      15.34621000  T       0.00626000       0.00010500       0.00145500
Pd       4.92095000       5.07412000      15.49098000  T       0.01463500      -0.01153700      -0.00093800
Y        7.50113000       4.89853000      17.23623000  T      -0.00108800      -0.00925800      -0.04636000
Cu      10.06690000       5.12838000      15.40316000  T       0.00798800      -0.01760800       0.01622300
Cu       0.05336000       7.50700000      15.36084000  T      -0.00015700      -0.00179700       0.00063700
Cu       2.53847000       7.49757000      15.35902000  T      -0.00112400       0.00111400       0.00104400
Cu       5.03147000       7.64059000      15.49996000  T       0.00069000      -0.00237300       0.00124100
Cu       7.56322000       7.39667000      15.49040000  T       0.00149800      -0.00212300      -0.00252800
Cu      10.08403000       7.60656000      15.49148000  T      -0.00071700       0.00079400       0.00045500
Cu      12.50692000      10.00747000      15.37311000  T      -0.00255700      -0.00087700       0.00158400
Cu       2.50992000      10.00346000      15.37122000  T      -0.00099600       0.00099300       0.00039100
Cu       5.01670000      10.08501000      15.36594000  T      -0.00017700       0.00177500       0.00100900
Cu       7.50273000       9.88745000      15.35219000  T      -0.00095800      -0.00606300       0.00325100
Cu       9.99969000      10.06303000      15.36196000  T      -0.00260300       0.00499700       0.00181300
O        5.92027000       3.54959000      16.59071000  T      -0.00368600      -0.01728400       0.00842200
O        6.14418000       6.55683000      16.67913000  T       0.00571100       0.00092200       0.00016900
O        9.02345000       6.43400000      16.60946000  T       0.01245900      -0.01769800      -0.00912700
O        8.70780000       3.76181000      15.82384000  T      -0.03893400       0.02194400      -0.05443300
C        7.71488000       1.82836000      17.79593000  T       0.02920800      -0.00300200      -0.00760500
O        7.63471000       0.62781000      18.40530000  T       0.01652500       0.02256200       0.02393500
O        7.86002000       2.84866000      18.52259000  T       0.04586300       0.01078800      -0.02794500
H        7.68618000       0.76204000      19.38479000  T       0.02261400       0.05487100       0.01433700
108
Lattice="12.515153631 0.0 0.0 0.0 12.515153631 0.0 0.0 0.0 25.30973" Properties=species:S:1:pos:R:3:move_mask:L:1:forces:R:3 stress="0.007848953627672357 -8.083378468931407e-05 -0.00013024781243893183 -8.083378468931407e-05 0.007333005517290345 -0.00010450158729466339 -0.00013024781243893183 -0.00010450158729466339 0.002016151002370188" free_energy=-444.87521528 energy=-444.87176458 pbc="T T T"
Cu       1.25152000       1.25152000      10.00000000  F       0.00493300      -0.02212500      -0.08484500
Cu       3.75455000       1.25152000      10.00000000  F       0.01429900      -0.00354200      -0.07549400
Cu       6.25758000       1.25152000      10.00000000  F      -0.01577200       0.00633400      -0.04814900
Cu       8.76061000       1.25152000      10.00000000  F       0.00839300       0.00213500      -0.04631500
Cu      11.26364000       1.25152000      10.00000000  F      -0.01197100      -0.00420300      -0.06699200
Cu       1.25152000       3.75455000      10.00000000  F       0.01000400       0.00340500      -0.06592800
Cu       3.75455000       3.75455000      10.00000000  F       0.00767200      -0.01067800      -0.05760700
Cu       6.25758000       3.75455000      10.00000000  F      -0.01710500      -0.01524900      -0.09025200
Cu       8.76061000       3.75455000      10.00000000  F       0.01994400      -0.01400400      -0.09521400
Cu      11.26364000       3.75455000      10.00000000  F      -0.01790600       0.00034300      -0.05288200
Cu       1.25152000       6.25758000      10.00000000  F      -0.00100900      -0.00043800      -0.07984900
Cu       3.75455000       6.25758000      10.00000000  F       0.01560500       0.02093400      -0.06512600
Cu       6.25758000       6.25758000      10.00000000  F      -0.01762800       0.02065700      -0.07842400
Cu       8.76061000       6.25758000      10.00000000  F       0.01338500       0.02101200      -0.07944000
Cu      11.26364000       6.25758000      10.00000000  F      -0.00859500       0.00965700      -0.06425000
Cu       1.25152000       8.76061000      10.00000000  F      -0.00613600       0.00820700      -0.07376600
Cu       3.75455000       8.76061000      10.00000000  F       0.00726800      -0.02150600      -0.07603400
Cu       6.25758000       8.76061000      10.00000000  F      -0.01020600      -0.02456900      -0.06114900
Cu       8.76061000       8.76061000      10.00000000  F       0.00944900      -0.01298100      -0.05484500
Cu      11.26364000       8.76061000      10.00000000  F      -0.00230600      -0.01479200      -0.07943800
Cu       1.25152000      11.26364000      10.00000000  F      -0.00847400       0.00977300      -0.01932300
Cu       3.75455000      11.26364000      10.00000000  F      -0.00626000       0.01375700      -0.07518800
Cu       6.25758000      11.26364000      10.00000000  F       0.00211900       0.01961900      -0.07713000
Cu       8.76061000      11.26364000      10.00000000  F      -0.00382200       0.00415600      -0.07187800
Cu      11.26364000      11.26364000      10.00000000  F       0.01346000       0.00573700      -0.07371100
Cu       0.00000000       0.00000000      11.76991000  F      -0.01648600       0.02641200       0.05815300
Cu       2.50303000       0.00000000      11.76991000  F       0.04328700       0.00874400       0.04447100
Cu       5.00606000       0.00000000      11.76991000  F       0.06376000       0.04895500       0.05874000
Cu       7.50909000       0.00000000      11.76991000  F      -0.00412700       0.02942900       0.05643000
Cu      10.01212000       0.00000000      11.76991000  F      -0.04335300       0.04939200       0.08432500
Cu       0.00000000       2.50303000      11.76991000  F      -0.10353500       0.01811400       0.04387800
Cu       2.50303000       2.50303000      11.76991000  F       0.07253000       0.01432700       0.01717900
Cu       5.00606000       2.50303000      11.76991000  F      -0.01410400      -0.07265000       0.04807700
Cu       7.50909000       2.50303000      11.76991000  F       0.03528400       0.03563900       0.27603300
Cu      10.01212000       2.50303000      11.76991000  F      -0.10002900       0.04867200       0.20340700
Cu       0.00000000       5.00606000      11.76991000  F      -0.07251900       0.03509600       0.01314100
Cu       2.50303000       5.00606000      11.76991000  F       0.05479300       0.02622800       0.01286700
Cu       5.00606000       5.00606000      11.76991000  F      -0.02825900       0.00788900       0.08477500
Cu       7.50909000       5.00606000      11.76991000  F      -0.00478700      -0.12803800       0.19089500
Cu      10.01212000       5.00606000      11.76991000  F      -0.06914100      -0.07993800       0.13549400
Cu       0.00000000       7.50909000      11.76991000  F      -0.03500200       0.03212800       0.04922300
Cu       2.50303000       7.50909000      11.76991000  F       0.06441600       0.05306600       0.01813600
Cu       5.00606000       7.50909000      11.76991000  F      -0.01278100       0.05727700       0.00556800
Cu       7.50909000       7.50909000      11.76991000  F      -0.03677200       0.02549700       0.02156000
Cu      10.01212000       7.50909000      11.76991000  F       0.09714800       0.08343000      -0.02909600
Cu       0.00000000      10.01212000      11.76991000  F      -0.02187500      -0.04578700       0.08522000
Cu       2.50303000      10.01212000      11.76991000  F       0.04588400      -0.03702200       0.10016500
Cu       5.00606000      10.01212000      11.76991000  F       0.05483900      -0.08100800       0.07238600
Cu       7.50909000      10.01212000      11.76991000  F       0.02368000      -0.11829500       0.04921000
Cu      10.01212000      10.01212000      11.76991000  F      -0.03537600      -0.09328700       0.07100600
Cu       1.26040000       1.23690000      13.56894000  T      -0.00228800       0.00057100       0.00123800
Cu       3.77839000       1.26212000      13.58673000  T      -0.00016400       0.00116300       0.00093600
Cu       6.29836000       1.25861000      13.62604000  T       0.00051200       0.00025500       0.00113200
Cu       8.73409000       1.24563000      13.61818000  T      -0.00047800      -0.00256300      -0.00067700
Cu      11.25678000       1.26306000      13.58484000  T      -0.00362300       0.00344100       0.00262500
Cu       1.23682000       3.75003000      13.55461000  T      -0.00387600      -0.00070300       0.00142800
Cu       3.74290000       3.76766000      13.58835000  T      -0.00567500      -0.00059300       0.00077400
Cu       6.23550000       3.73870000      13.57851000  T      -0.01185200      -0.00135600      -0.00428800
Cu       8.68241000       3.75667000      13.65030000  T      -0.01036300       0.00550400      -0.02857100
Cu      11.22644000       3.78236000      13.58803000  T      -0.00436600       0.00084400       0.00178700
Cu       1.25612000       6.26504000      13.56254000  T       0.00198700      -0.00054800       0.00038600
Cu       3.76577000       6.29096000      13.58051000  T       0.00325900      -0.00002100       0.00179000
Cu       6.27515000       6.23553000      13.56798000  T       0.00295900       0.00056500      -0.00211300
Cu       8.75517000       6.25848000      13.53612000  T       0.00583500       0.00355900       0.00122300
Cu      11.25501000       6.28863000      13.58805000  T       0.00200600      -0.00202100       0.00164600
Cu       1.26425000       8.76693000      13.58193000  T      -0.00087400      -0.00001200       0.00044500
Cu       3.78925000       8.76684000      13.61100000  T      -0.00007800       0.00094900       0.00109700
Cu       6.27732000       8.70649000      13.60540000  T      -0.00086600       0.00068300      -0.00026300
Cu       8.76701000       8.71008000      13.61329000  T      -0.00019500       0.00127000       0.00032300
Cu      11.25792000       8.76369000      13.60763000  T      -0.00093600      -0.00010400       0.00081700
Cu       1.25042000      11.25877000      13.59560000  T       0.00074900       0.00016900       0.00058100
Cu       3.75101000      11.27229000      13.57816000  T       0.00145000       0.00143900       0.00072900
Cu       6.25996000      11.24328000      13.56471000  T       0.00147300       0.00038600       0.00178600
Cu       8.76125000      11.23854000      13.56811000  T       0.00082700      -0.00071700       0.00043200
Cu      11.27168000      11.27035000      13.57757000  T      -0.00009300       0.00206700       0.00122700
Cu      12.51635000       0.00815000      15.36662000  T       0.00395000      -0.00081700       0.00055000
Cu       2.51969000       0.00395000      15.36227000  T       0.00434900       0.00090400       0.00002800
Cu       5.03027000       0.01692000      15.35927000  T       0.00546900       0.00154100       0.00007200
Cu       7.51884000      12.28818000      15.39773000  T       0.00659500      -0.00726700       0.00135100
Cu      10.01573000       0.00341000      15.35481000  T       0.00352400       0.00900900       0.00219800
Cu       0.02982000       2.50494000      15.34009000  T      -0.01590300      -0.00029000       0.00290000
Cu       2.47815000       2.50178000      15.34088000  T      -0.01055200      -0.00061300       0.00149200
Cu       4.94213000       2.45801000      15.40231000  T      -0.00874500      -0.00205700       0.00164200
Cu       7.45576000       2.08243000      15.83607000  T      -0.00999600      -0.01446300       0.00780300
Cu      10.09759000       2.45982000      15.39248000  T      -0.02331500       0.01663300      -0.00219600
Cu      12.51400000       5.00826000      15.32581000  T       0.00555100      -0.00111900       0.00252900
Cu       2.41430000       5.00219000      15.34632000  T       0.00479600       0.00050000       0.00071600
Pd       4.92166000       5.07359000      15.49089000  T       0.01522600      -0.01207000      -0.00551100
Y        7.50100000       4.89793000      17.23287000  T      -0.00183700      -0.00270300      -0.01759500
Cu      10.06769000       5.12721000      15.40423000  T       0.01228100      -0.00964600       0.00718600
Cu       0.05334000       7.50688000      15.36086000  T      -0.00019200      -0.00120100      -0.00003100
Cu       2.53835000       7.49766000      15.35910000  T      -0.00105900       0.00154400       0.00016100
Cu       5.03151000       7.64039000      15.50009000  T       0.00011800      -0.00144500       0.00001200
Cu       7.56335000       7.39658000      15.49021000  T       0.00250400      -0.00096900      -0.00282900
Cu      10.08402000       7.60662000      15.49146000  T       0.00007500       0.00046400      -0.00083300
Cu      12.50670000      10.00740000      15.37320000  T      -0.00214800      -0.00073400       0.00073000
Cu       2.50980000      10.00353000      15.37125000  T      -0.00089800       0.00127600      -0.00047400
Cu       5.01667000      10.08513000      15.36605000  T      -0.00052300       0.00130300      -0.00015900
Cu       7.50268000       9.88704000      15.35246000  T      -0.00109000      -0.00478900       0.00185800
Cu       9.99952000      10.06343000      15.36210000  T      -0.00214300       0.00439200       0.00125400
O        5.91997000       3.54788000      16.59143000  T      -0.00454600      -0.01566500       0.00252300
O        6.14464000       6.55703000      16.67909000  T       0.00189100       0.00350000      -0.00355100
O        9.02457000       6.43270000      16.60861000  T       0.00915900      -0.00746300      -0.00846400
O        8.70426000       3.76354000      15.81874000  T      -0.02729000       0.00799400      -0.04541400
C        7.71762000       1.82822000      17.79540000  T       0.02642300      -0.00017500      -0.00664600
O        7.63622000       0.62935000      18.40757000  T       0.01546600       0.01319600       0.01643900
O        7.86424000       2.84963000      18.52019000  T       0.03873300       0.01132800      -0.02179500
H        7.68838000       0.76738000      19.38642000  T       0.02197900       0.04977200       0.01955300
108
Lattice="12.515153631 0.0 0.0 0.0 12.515153631 0.0 0.0 0.0 25.30973" Properties=species:S:1:pos:R:3:move_mask:L:1:forces:R:3 stress="0.007801630505479912 -8.199470538672836e-05 -0.0001390920308703084 -8.199470538672836e-05 0.007280164901030618 -0.00010553143630043414 -0.0001390920308703084 -0.00010553143630043414 0.0019395614438864743" free_energy=-444.88398041 energy=-444.88055815 pbc="T T T"
Cu       1.25152000       1.25152000      10.00000000  F       0.00547200      -0.02228100      -0.08503700
Cu       3.75455000       1.25152000      10.00000000  F       0.01409200      -0.00379700      -0.07499400
Cu       6.25758000       1.25152000      10.00000000  F      -0.01542900       0.00606100      -0.04834500
Cu       8.76061000       1.25152000      10.00000000  F       0.00798300       0.00213900      -0.04701700
Cu      11.26364000       1.25152000      10.00000000  F      -0.01150300      -0.00432500      -0.06673100
Cu       1.25152000       3.75455000      10.00000000  F       0.01102000       0.00324100      -0.06613400
Cu       3.75455000       3.75455000      10.00000000  F       0.00695800      -0.01076200      -0.05743000
Cu       6.25758000       3.75455000      10.00000000  F      -0.01670000      -0.01548000      -0.09086600
Cu       8.76061000       3.75455000      10.00000000  F       0.01993300      -0.01424000      -0.09656900
Cu      11.26364000       3.75455000      10.00000000  F      -0.01784900       0.00007900      -0.05330000
Cu       1.25152000       6.25758000      10.00000000  F      -0.00045900      -0.00051200      -0.07999200
Cu       3.75455000       6.25758000      10.00000000  F       0.01543800       0.02072300      -0.06518000
Cu       6.25758000       6.25758000      10.00000000  F      -0.01741800       0.02039600      -0.07841100
Cu       8.76061000       6.25758000      10.00000000  F       0.01325600       0.02065600      -0.08046800
Cu      11.26364000       6.25758000      10.00000000  F      -0.00824100       0.00959800      -0.06439900
Cu       1.25152000       8.76061000      10.00000000  F      -0.00618900       0.00823800      -0.07405200
Cu       3.75455000       8.76061000      10.00000000  F       0.00749400      -0.02147900      -0.07649500
Cu       6.25758000       8.76061000      10.00000000  F      -0.01045300      -0.02446600      -0.06148200
Cu       8.76061000       8.76061000      10.00000000  F       0.00959900      -0.01274800      -0.05529700
Cu      11.26364000       8.76061000      10.00000000  F      -0.00150400      -0.01455500      -0.07991200
Cu       1.25152000      11.26364000      10.00000000  F      -0.00845700       0.00993400      -0.02010500
Cu       3.75455000      11.26364000      10.00000000  F      -0.00630100       0.01396000      -0.07554300
Cu       6.25758000      11.26364000      10.00000000  F       0.00201900       0.01991700      -0.07728400
Cu       8.76061000      11.26364000      10.00000000  F      -0.00365600       0.00410200      -0.07211500
Cu      11.26364000      11.26364000      10.00000000  F       0.01415100       0.00566800      -0.07420500
Cu       0.00000000       0.00000000      11.76991000  F      -0.01690500       0.02734200       0.05940700
Cu       2.50303000       0.00000000      11.76991000  F       0.04295900       0.00970900       0.04597500
Cu       5.00606000       0.00000000      11.76991000  F       0.06360600       0.04854100       0.05936300
Cu       7.50909000       0.00000000      11.76991000  F      -0.00517900       0.02900300       0.05675800
Cu      10.01212000       0.00000000      11.76991000  F      -0.04149500       0.04934900       0.08336000
Cu       0.00000000       2.50303000      11.76991000  F      -0.10453300       0.01778500       0.04426200
Cu       2.50303000       2.50303000      11.76991000  F       0.07105700       0.01392600       0.01785300
Cu       5.00606000       2.50303000      11.76991000  F      -0.01680800      -0.07522100       0.04665100
Cu       7.50909000       2.50303000      11.76991000  F       0.03003200       0.03145500       0.26873400
Cu      10.01212000       2.50303000      11.76991000  F      -0.10000400       0.04810300       0.20100900
Cu       0.00000000       5.00606000      11.76991000  F      -0.07219200       0.03388100       0.01337300
Cu       2.50303000       5.00606000      11.76991000  F       0.05461900       0.02579100       0.01413600
Cu       5.00606000       5.00606000      11.76991000  F      -0.03111600       0.00926800       0.08406200
Cu       7.50909000       5.00606000      11.76991000  F      -0.00934500      -0.12223900       0.18248900
Cu      10.01212000       5.00606000      11.76991000  F      -0.06702800      -0.07762000       0.13061600
Cu       0.00000000       7.50909000      11.76991000  F      -0.03406500       0.03191700       0.04953600
Cu       2.50303000       7.50909000      11.76991000  F       0.06580800       0.05243000       0.02007900
Cu       5.00606000       7.50909000      11.76991000  F      -0.01367000       0.05784100       0.00593400
Cu       7.50909000       7.50909000      11.76991000  F      -0.03610800       0.02525700       0.02169700
Cu      10.01212000       7.50909000      11.76991000  F       0.09953200       0.08370700      -0.02972800
Cu       0.00000000      10.01212000      11.76991000  F      -0.02191500      -0.04516300       0.08558300
Cu       2.50303000      10.01212000      11.76991000  F       0.04595000      -0.03705300       0.10097400
Cu       5.00606000      10.01212000      11.76991000  F       0.05504400      -0.08016100       0.07405700
Cu       7.50909000      10.01212000      11.76991000  F       0.02367700      -0.11775500       0.04937400
Cu      10.01212000      10.01212000      11.76991000  F      -0.03448800      -0.09320800       0.07012400
Cu       1.25957000       1.23698000      13.56928000  T      -0.00151400       0.00065200       0.00099000
Cu       3.77806000       1.26236000      13.58701000  T      -0.00076600      -0.00010000      -0.00035200
Cu       6.29846000       1.25858000      13.62638000  T      -0.00093200      -0.00017300       0.00007900
Cu       8.73411000       1.24474000      13.61784000  T      -0.00287000      -0.00338300      -0.00293700
Cu      11.25595000       1.26374000      13.58540000  T      -0.00240100       0.00179500       0.00023100
Cu       1.23570000       3.74978000      13.55505000  T      -0.00226500      -0.00099600       0.00143600
Cu       3.74121000       3.76748000      13.58873000  T      -0.00479500      -0.00092200       0.00078100
Cu       6.23241000       3.73837000      13.57759000  T      -0.01045900      -0.00158300      -0.00416500
Cu       8.68009000       3.75812000      13.64376000  T      -0.00542700       0.00556500      -0.01645100
Cu      11.22562000       3.78253000      13.58834000  T       0.00008300       0.00091800      -0.00136500
Cu       1.25654000       6.26485000      13.56268000  T       0.00389800      -0.00085900      -0.00009200
Cu       3.76646000       6.29087000      13.58114000  T       0.00379100      -0.00032300       0.00114300
Cu       6.27584000       6.23564000      13.56766000  T       0.00167100      -0.00045800      -0.00144200
Cu       8.75676000       6.25958000      13.53632000  T       0.00390100       0.00467900      -0.00094200
Cu      11.25577000       6.28822000      13.58830000  T       0.00483900      -0.00042000      -0.00157300
Cu       1.26381000       8.76688000      13.58202000  T       0.00058100      -0.00021600      -0.00043300
Cu       3.78904000       8.76697000      13.61134000  T       0.00021900       0.00051600       0.00010000
Cu       6.27716000       8.70656000      13.60543000  T      -0.00136900       0.00028500      -0.00055600
Cu       8.76715000       8.71042000      13.61341000  T      -0.00120600       0.00180700      -0.00001300
Cu      11.25771000       8.76368000      13.60778000  T      -0.00050600       0.00019300      -0.00015600
Cu       1.25038000      11.25875000      13.59571000  T       0.00219500       0.00019500      -0.00036300
Cu       3.75116000      11.27256000      13.57836000  T       0.00226500       0.00094900       0.00008400
Cu       6.26041000      11.24325000      13.56514000  T       0.00055500       0.00005600       0.00016700
Cu       8.76178000      11.23828000      13.56816000  T       0.00087500       0.00017200      -0.00057300
Cu      11.27172000      11.27083000      13.57783000  T       0.00056000       0.00232700       0.00082500
Cu      12.51734000       0.00778000      15.36674000  T       0.00514500      -0.00140700       0.00101500
Cu       2.52056000       0.00412000      15.36244000  T       0.00543500       0.00099800      -0.00027400
Cu       5.03163000       0.01719000      15.35965000  T       0.00670800      -0.00045800       0.00008000
Cu       7.52067000      12.28611000      15.39820000  T       0.00619100      -0.01107300       0.00099400
Cu      10.01680000       0.00565000      15.35549000  T       0.00325000       0.00826900       0.00288500
Cu       0.02553000       2.50477000      15.34089000  T      -0.01576700      -0.00102400       0.00289400
Cu       2.47514000       2.50165000      15.34139000  T      -0.01203000      -0.00026800       0.00128700
Cu       4.93963000       2.45742000      15.40308000  T      -0.00963700      -0.00305300       0.00033200
Cu       7.45265000       2.07798000      15.83845000  T      -0.01661800      -0.02027000       0.00896800
Cu      10.09197000       2.46369000      15.39139000  T      -0.01713700       0.00978900      -0.00699500
Cu      12.51539000       5.00792000      15.32655000  T       0.00732800      -0.00105800       0.00318300
Cu       2.41545000       5.00230000      15.34659000  T       0.00444700       0.00061100       0.00045100
Pd       4.92325000       5.07214000      15.49086000  T       0.00897300      -0.01086500      -0.00236300
Y        7.50028000       4.89715000      17.22617000  T       0.00082700       0.00094800       0.00537300
Cu      10.07137000       5.12497000      15.40583000  T       0.01136400      -0.00892700       0.00275100
Cu       0.05330000       7.50658000      15.36089000  T       0.00111200      -0.00102400       0.00044200
Cu       2.53798000       7.49794000      15.35931000  T      -0.00022600       0.00126500       0.00010200
Cu       5.03140000       7.63992000      15.50026000  T      -0.00197700      -0.00042100      -0.00310700
Cu       7.56408000       7.39636000      15.48961000  T       0.00330200      -0.00067500      -0.00394200
Cu      10.08420000       7.60680000      15.49125000  T       0.00191900       0.00207100      -0.00253400
Cu      12.50607000      10.00715000      15.37337000  T      -0.00129300      -0.00093900       0.00092600
Cu       2.50932000      10.00377000      15.37134000  T      -0.00044000       0.00130300      -0.00028300
Cu       5.01643000      10.08527000      15.36640000  T      -0.00114700       0.00005600      -0.00015600
Cu       7.50256000       9.88581000      15.35318000  T      -0.00169200      -0.00482700       0.00163800
Cu       9.99914000      10.06451000      15.36250000  T      -0.00194100       0.00449800       0.00205100
O        5.91665000       3.54223000      16.59542000  T      -0.00178500      -0.00465000       0.00658800
O        6.14564000       6.55794000      16.67842000  T       0.00253300      -0.00066500      -0.00255400
O        9.02834000       6.42877000      16.60650000  T      -0.00101500      -0.00744300      -0.00058000
O        8.68819000       3.76853000      15.79342000  T      -0.02262000       0.00595900      -0.03308800
C        7.72862000       1.83027000      17.79515000  T       0.02003600       0.00518200       0.00257200
O        7.64262000       0.63736000      18.41811000  T       0.01853100       0.02711100       0.00572000
O        7.88221000       2.85613000      18.51290000  T       0.03423700       0.01827000      -0.02054600
H        7.69774000       0.78801000      19.39507000  T       0.02238100       0.03509200       0.01743200
108
Lattice="12.515153631 0.0 0.0 0.0 12.515153631 0.0 0.0 0.0 25.30973" Properties=species:S:1:pos:R:3:move_mask:L:1:forces:R:3 stress="0.007861330540268986 -7.996621492081632e-05 -0.00014110179680884281 -7.996621492081632e-05 0.0073309395777696774 -0.0001043205835300128 -0.00014110179680884281 -0.0001043205835300128 0.001994817524177919" free_energy=-444.88330582 energy=-444.87990319 pbc="T T T"
Cu       1.25152000       1.25152000      10.00000000  F       0.00548500      -0.02207700      -0.08489700
Cu       3.75455000       1.25152000      10.00000000  F       0.01377600      -0.00374200      -0.07466000
Cu       6.25758000       1.25152000      10.00000000  F      -0.01537600       0.00594200      -0.04838600
Cu       8.76061000       1.25152000      10.00000000  F       0.00738200       0.00227600      -0.04720100
Cu      11.26364000       1.25152000      10.00000000  F      -0.01157800      -0.00420600      -0.06624200
Cu       1.25152000       3.75455000      10.00000000  F       0.01132000       0.00361100      -0.06584500
Cu       3.75455000       3.75455000      10.00000000  F       0.00626400      -0.01035800      -0.05702400
Cu       6.25758000       3.75455000      10.00000000  F      -0.01656600      -0.01510600      -0.09098000
Cu       8.76061000       3.75455000      10.00000000  F       0.01964300      -0.01388900      -0.09688600
Cu      11.26364000       3.75455000      10.00000000  F      -0.01818600       0.00038200      -0.05313400
Cu       1.25152000       6.25758000      10.00000000  F      -0.00042500      -0.00029600      -0.07955000
Cu       3.75455000       6.25758000      10.00000000  F       0.01517500       0.02093800      -0.06463100
Cu       6.25758000       6.25758000      10.00000000  F      -0.01743200       0.02077900      -0.07777900
Cu       8.76061000       6.25758000      10.00000000  F       0.01280600       0.02086100      -0.08036900
Cu      11.26364000       6.25758000      10.00000000  F      -0.00842000       0.00991200      -0.06386200
Cu       1.25152000       8.76061000      10.00000000  F      -0.00655500       0.00827100      -0.07383700
Cu       3.75455000       8.76061000      10.00000000  F       0.00763100      -0.02137100      -0.07619100
Cu       6.25758000       8.76061000      10.00000000  F      -0.01066600      -0.02427400      -0.06087100
Cu       8.76061000       8.76061000      10.00000000  F       0.00926300      -0.01246100      -0.05468000
Cu      11.26364000       8.76061000      10.00000000  F      -0.00153600      -0.01431500      -0.07953900
Cu       1.25152000      11.26364000      10.00000000  F      -0.00876100       0.00999200      -0.02025100
Cu       3.75455000      11.26364000      10.00000000  F      -0.00635200       0.01395100      -0.07549700
Cu       6.25758000      11.26364000      10.00000000  F       0.00189400       0.01986000      -0.07687600
Cu       8.76061000      11.26364000      10.00000000  F      -0.00397600       0.00385200      -0.07162300
Cu      11.26364000      11.26364000      10.00000000  F       0.01404700       0.00550800      -0.07403900
Cu       0.00000000       0.00000000      11.76991000  F      -0.01744800       0.02776800       0.06092100
Cu       2.50303000       0.00000000      11.76991000  F       0.04239400       0.01027100       0.04748500
Cu       5.00606000       0.00000000      11.76991000  F       0.06336600       0.04815300       0.05990300
Cu       7.50909000       0.00000000      11.76991000  F      -0.00622700       0.02835600       0.05689100
Cu      10.01212000       0.00000000      11.76991000  F      -0.04060400       0.04902200       0.08312700
Cu       0.00000000       2.50303000      11.76991000  F      -0.10526600       0.01791400       0.04466900
Cu       2.50303000       2.50303000      11.76991000  F       0.06957100       0.01408800       0.01856800
Cu       5.00606000       2.50303000      11.76991000  F      -0.01897500      -0.07669500       0.04566500
Cu       7.50909000       2.50303000      11.76991000  F       0.02631800       0.02911300       0.26408300
Cu      10.01212000       2.50303000      11.76991000  F      -0.10033100       0.04808900       0.19976000
Cu       0.00000000       5.00606000      11.76991000  F      -0.07200900       0.03381100       0.01358800
Cu       2.50303000       5.00606000      11.76991000  F       0.05416100       0.02596100       0.01513900
Cu       5.00606000       5.00606000      11.76991000  F      -0.03330300       0.01079900       0.08351800
Cu       7.50909000       5.00606000      11.76991000  F      -0.01243900      -0.11749500       0.17703900
Cu      10.01212000       5.00606000      11.76991000  F      -0.06579600      -0.07509700       0.12767200
Cu       0.00000000       7.50909000      11.76991000  F      -0.03360400       0.03221500       0.05015500
Cu       2.50303000       7.50909000      11.76991000  F       0.06651900       0.05217000       0.02167500
Cu       5.00606000       7.50909000      11.76991000  F      -0.01428300       0.05849800       0.00630500
Cu       7.50909000       7.50909000      11.76991000  F      -0.03584100       0.02554600       0.02209300
Cu      10.01212000       7.50909000      11.76991000  F       0.10074200       0.08445800      -0.02961700
Cu       0.00000000      10.01212000      11.76991000  F      -0.02239000      -0.04486400       0.08676800
Cu       2.50303000      10.01212000      11.76991000  F       0.04576800      -0.03716300       0.10200400
Cu       5.00606000      10.01212000      11.76991000  F       0.05512100      -0.07983400       0.07525800
Cu       7.50909000      10.01212000      11.76991000  F       0.02354600      -0.11767600       0.04979400
Cu      10.01212000      10.01212000      11.76991000  F      -0.03419300      -0.09334000       0.07026800
Cu       1.25904000       1.23707000      13.56952000  T      -0.00185700       0.00053200       0.00132700
Cu       3.77781000       1.26245000      13.58712000  T      -0.00175600      -0.00081200      -0.00058200
Cu       6.29842000       1.25854000      13.62655000  T      -0.00203200      -0.00066500      -0.00012400
Cu       8.73389000       1.24407000      13.61747000  T      -0.00490600      -0.00310500      -0.00306100
Cu      11.25540000       1.26417000      13.58566000  T      -0.00214500       0.00063500      -0.00065600
Cu       1.23499000       3.74960000      13.55537000  T      -0.00207500      -0.00069000       0.00172600
Cu       3.74004000       3.76733000      13.58897000  T      -0.00516100      -0.00116700       0.00055600
Cu       6.23026000       3.73811000      13.57690000  T      -0.00763400      -0.00186700      -0.00360400
Cu       8.67868000       3.75923000      13.63959000  T      -0.00282200       0.00635300      -0.00979000
Cu      11.22530000       3.78270000      13.58837000  T       0.00239000       0.00183000      -0.00271200
Cu       1.25702000       6.26470000      13.56275000  T       0.00488500      -0.00043000      -0.00004900
Cu       3.76706000       6.29081000      13.58155000  T       0.00434500      -0.00041000       0.00176600
Cu       6.27629000       6.23566000      13.56743000  T       0.00146100      -0.00035600      -0.00106100
Cu       8.75780000       6.26046000      13.53636000  T       0.00354600       0.00510300      -0.00092000
Cu      11.25652000       6.28802000      13.58831000  T       0.00590200       0.00052500      -0.00166300
Cu       1.26363000       8.76683000      13.58204000  T       0.00075500      -0.00015700      -0.00024200
Cu       3.78893000       8.76706000      13.61150000  T      -0.00022000       0.00071500      -0.00065300
Cu       6.27699000       8.70661000      13.60541000  T      -0.00171400       0.00021000      -0.00096800
Cu       8.76714000       8.71072000      13.61348000  T      -0.00153300       0.00300000      -0.00010700
Cu      11.25757000       8.76370000      13.60786000  T      -0.00072700       0.00102500       0.00015700
Cu       1.25051000      11.25874000      13.59574000  T       0.00279000      -0.00000900      -0.00011800
Cu       3.75138000      11.27273000      13.57847000  T       0.00258200       0.00028000      -0.00002700
Cu       6.26066000      11.24321000      13.56534000  T       0.00025300      -0.00085700      -0.00074000
Cu       8.76213000      11.23815000      13.56815000  T       0.00131500      -0.00007700      -0.00100100
Cu      11.27179000      11.27120000      13.57804000  T       0.00077100       0.00202400       0.00171100
Cu      12.51820000       0.00748000      15.36687000  T       0.00649300      -0.00226100       0.00145700
Cu       2.52137000       0.00427000      15.36251000  T       0.00717700       0.00093900      -0.00022400
Cu       5.03278000       0.01725000      15.35986000  T       0.00835500      -0.00161100       0.00022700
Cu       7.52202000      12.28422000      15.39849000  T       0.00706900      -0.01491900       0.00072100
Cu      10.01757000       0.00730000      15.35603000  T       0.00353000       0.00817200       0.00311900
Cu       0.02230000       2.50462000      15.34149000  T      -0.01739400      -0.00143000       0.00312400
Cu       2.47278000       2.50157000      15.34174000  T      -0.01456500      -0.00005000       0.00190900
Cu       4.93772000       2.45693000      15.40350000  T      -0.00933000      -0.00226000       0.00227200
Cu       7.44988000       2.07439000      15.84026000  T      -0.02024000      -0.01880200       0.00913000
Cu      10.08802000       2.46622000      15.39031000  T      -0.01773200       0.00731200      -0.00987300
Cu      12.51658000       5.00770000      15.32714000  T       0.00789600      -0.00029700       0.00351800
Cu       2.41632000       5.00241000      15.34676000  T       0.00595400       0.00168000       0.00077300
Pd       4.92460000       5.07074000      15.49075000  T       0.02064500      -0.02059400      -0.00674400
Y        7.50003000       4.89662000      17.22233000  T       0.00291700      -0.00114800      -0.00816400
Cu      10.07385000       5.12327000      15.40673000  T       0.00676000      -0.00759800       0.00079400
Cu       0.05336000       7.50637000      15.36093000  T       0.00146700      -0.00075000       0.00046500
Cu       2.53777000       7.49817000      15.35942000  T      -0.00034700       0.00203900      -0.00017100
Cu       5.03121000       7.63962000      15.50012000  T      -0.00114400      -0.00303100      -0.00312800
Cu       7.56468000       7.39618000      15.48906000  T       0.00284400      -0.00161300      -0.00312700
Cu      10.08440000       7.60697000      15.49098000  T       0.00046300      -0.00076600      -0.00142100
Cu      12.50567000      10.00695000      15.37351000  T      -0.00129200      -0.00135400       0.00062700
Cu       2.50904000      10.00397000      15.37137000  T      -0.00057800       0.00158000      -0.00034000
Cu       5.01622000      10.08531000      15.36657000  T      -0.00168300      -0.00063200      -0.00015300
Cu       7.50238000       9.88485000      15.35365000  T      -0.00263000      -0.00630400       0.00151800
Cu       9.99882000      10.06535000      15.36284000  T      -0.00266100       0.00537900       0.00233600
O        5.91480000       3.53907000      16.59807000  T      -0.00473800      -0.00677100       0.00675400
O        6.14637000       6.55834000      16.67794000  T       0.00045400       0.00053800      -0.00450300
O        9.03024000       6.42623000      16.60539000  T       0.00157100      -0.00495100      -0.00269200
O        8.67823000       3.77160000      15.77808000  T      -0.02221900       0.00517200      -0.03327400
C        7.73571000       1.83218000      17.79511000  T       0.02000000       0.01320600      -0.00062000
O        7.64735000       0.64332000      18.42456000  T       0.02067800       0.02506100       0.01857300
O        7.89412000       2.86094000      18.50794000  T       0.03854900       0.02744200      -0.01104700
H        7.70422000       0.80080000      19.40049000  T       0.02366500       0.02888800       0.01111700
108
Lattice="12.515153631 0.0 0.0 0.0 12.515153631 0.0 0.0 0.0 25.30973" Properties=species:S:1:pos:R:3:move_mask:L:1:forces:R:3 stress="0.007843592171333225 -7.000476635590662e-05 -0.0001329503858904393 -7.000476635590662e-05 0.007304063639473625 -9.785438007559772e-05 -0.0001329503858904393 -9.785438007559772e-05 0.0019545660318250973" free_energy=-444.8860988 energy=-444.88271058 pbc="T T T"
Cu       1.25152000       1.25152000      10.00000000  F       0.00537100      -0.02186100      -0.08536700
Cu       3.75455000       1.25152000      10.00000000  F       0.01384900      -0.00369500      -0.07516000
Cu       6.25758000       1.25152000      10.00000000  F      -0.01505400       0.00573700      -0.04898800
Cu       8.76061000       1.25152000      10.00000000  F       0.00737900       0.00235700      -0.04743200
Cu      11.26364000       1.25152000      10.00000000  F      -0.01147100      -0.00409700      -0.06633400
Cu       1.25152000       3.75455000      10.00000000  F       0.01129300       0.00360900      -0.06602500
Cu       3.75455000       3.75455000      10.00000000  F       0.00606000      -0.01038100      -0.05734600
Cu       6.25758000       3.75455000      10.00000000  F      -0.01615600      -0.01515100      -0.09147700
Cu       8.76061000       3.75455000      10.00000000  F       0.01994700      -0.01387500      -0.09717200
Cu      11.26364000       3.75455000      10.00000000  F      -0.01825100       0.00045600      -0.05301000
Cu       1.25152000       6.25758000      10.00000000  F      -0.00068000      -0.00071500      -0.07961100
Cu       3.75455000       6.25758000      10.00000000  F       0.01521500       0.02049700      -0.06484700
Cu       6.25758000       6.25758000      10.00000000  F      -0.01712100       0.02058600      -0.07769700
Cu       8.76061000       6.25758000      10.00000000  F       0.01305900       0.02054500      -0.08019500
Cu      11.26364000       6.25758000      10.00000000  F      -0.00843300       0.00959900      -0.06357400
Cu       1.25152000       8.76061000      10.00000000  F      -0.00681900       0.00768700      -0.07418400
Cu       3.75455000       8.76061000      10.00000000  F       0.00790600      -0.02172900      -0.07676900
Cu       6.25758000       8.76061000      10.00000000  F      -0.01033800      -0.02459500      -0.06085700
Cu       8.76061000       8.76061000      10.00000000  F       0.00947400      -0.01281100      -0.05421200
Cu      11.26364000       8.76061000      10.00000000  F      -0.00160400      -0.01478100      -0.07930400
Cu       1.25152000      11.26364000      10.00000000  F      -0.00894900       0.00979500      -0.02086700
Cu       3.75455000      11.26364000      10.00000000  F      -0.00608700       0.01366800      -0.07615000
Cu       6.25758000      11.26364000      10.00000000  F       0.00222000       0.01955700      -0.07701300
Cu       8.76061000      11.26364000      10.00000000  F      -0.00389000       0.00335800      -0.07161400
Cu      11.26364000      11.26364000      10.00000000  F       0.01394000       0.00513300      -0.07431500
Cu       0.00000000       0.00000000      11.76991000  F      -0.01772700       0.02744300       0.06135200
Cu       2.50303000       0.00000000      11.76991000  F       0.04214700       0.01071800       0.04795100
Cu       5.00606000       0.00000000      11.76991000  F       0.06391800       0.04815900       0.05898300
Cu       7.50909000       0.00000000      11.76991000  F      -0.00704700       0.02706900       0.05507200
Cu      10.01212000       0.00000000      11.76991000  F      -0.04022700       0.04833200       0.08216700
Cu       0.00000000       2.50303000      11.76991000  F      -0.10506900       0.01783800       0.04369500
Cu       2.50303000       2.50303000      11.76991000  F       0.06762800       0.01393100       0.01850700
Cu       5.00606000       2.50303000      11.76991000  F      -0.02102800      -0.07847500       0.04374500
Cu       7.50909000       2.50303000      11.76991000  F       0.02514500       0.02844500       0.26221900
Cu      10.01212000       2.50303000      11.76991000  F      -0.10126000       0.04809900       0.19973500
Cu       0.00000000       5.00606000      11.76991000  F      -0.07029600       0.03427500       0.01212300
Cu       2.50303000       5.00606000      11.76991000  F       0.05428200       0.02515800       0.01526100
Cu       5.00606000       5.00606000      11.76991000  F      -0.03463100       0.01074100       0.08245800
Cu       7.50909000       5.00606000      11.76991000  F      -0.01211100      -0.11547100       0.17455200
Cu      10.01212000       5.00606000      11.76991000  F      -0.06454100      -0.07294200       0.12584500
Cu       0.00000000       7.50909000      11.76991000  F      -0.03271500       0.03200000       0.05027800
Cu       2.50303000       7.50909000      11.76991000  F       0.06784700       0.05080300       0.02145200
Cu       5.00606000       7.50909000      11.76991000  F      -0.01376400       0.05752200       0.00498800
Cu       7.50909000       7.50909000      11.76991000  F      -0.03483700       0.02580700       0.02102400
Cu      10.01212000       7.50909000      11.76991000  F       0.10249900       0.08546300      -0.02988300
Cu       0.00000000      10.01212000      11.76991000  F      -0.02320700      -0.04496000       0.08801900
Cu       2.50303000      10.01212000      11.76991000  F       0.04625400      -0.03745700       0.10138100
Cu       5.00606000      10.01212000      11.76991000  F       0.05588400      -0.08045300       0.07342500
Cu       7.50909000      10.01212000      11.76991000  F       0.02413200      -0.11852900       0.04817700
Cu      10.01212000      10.01212000      11.76991000  F      -0.03282200      -0.09386700       0.06949100
Cu       1.25852000       1.23711000      13.56983000  T      -0.00247300       0.00000700       0.00020600
Cu       3.77737000       1.26228000      13.58711000  T      -0.00093600       0.00103900       0.00147200
Cu       6.29788000       1.25828000      13.62655000  T      -0.00028000      -0.00086100       0.00082200
Cu       8.73261000       1.24342000      13.61689000  T      -0.00087100      -0.00057500       0.00103900
Cu      11.25490000       1.26416000      13.58542000  T      -0.00157300      -0.00015100      -0.00037400
Cu       1.23451000       3.74940000      13.55582000  T      -0.00258500       0.00008400       0.00070200
Cu       3.73888000       3.76686000      13.58912000  T      -0.00199500      -0.00103100       0.00031200
Cu       6.22883000       3.73748000      13.57612000  T      -0.00077100      -0.00142300       0.00047600
Cu       8.67813000       3.76069000      13.63802000  T      -0.00348700       0.00156700      -0.00450900
Cu      11.22593000       3.78315000      13.58774000  T      -0.00219400       0.00054400       0.00074300
Cu       1.25832000       6.26455000      13.56274000  T      -0.00008400      -0.00050600       0.00013900
Cu       3.76815000       6.29065000      13.58188000  T       0.00044700       0.00010000      -0.00073800
Cu       6.27688000       6.23540000      13.56710000  T       0.00296900      -0.00080700      -0.00161400
Cu       8.75883000       6.26154000      13.53615000  T       0.00319700       0.00054800       0.00012200
Cu      11.25794000       6.28803000      13.58814000  T       0.00023800      -0.00099900       0.00192000
Cu       1.26375000       8.76677000      13.58195000  T      -0.00236500      -0.00029300      -0.00009600
Cu       3.78883000       8.76715000      13.61124000  T      -0.00108200      -0.00015000      -0.00025000
Cu       6.27661000       8.70648000      13.60504000  T       0.00021100      -0.00086600      -0.00134200
Cu       8.76693000       8.71144000      13.61339000  T       0.00130200       0.00001900      -0.00037400
Cu      11.25737000       8.76395000      13.60799000  T      -0.00149300      -0.00037900       0.00090800
Cu       1.25123000      11.25871000      13.59571000  T      -0.00040900      -0.00004000       0.00018300
Cu       3.75209000      11.27274000      13.57839000  T       0.00088600       0.00020300       0.00001100
Cu       6.26089000      11.24282000      13.56505000  T       0.00263700      -0.00146600       0.00077500
Cu       8.76266000      11.23801000      13.56777000  T       0.00174900      -0.00140900      -0.00043800
Cu      11.27212000      11.27160000      13.57849000  T       0.00021600      -0.00042400       0.00060900
Cu      12.52008000       0.00683000      15.36714000  T       0.00265300      -0.00099100       0.00039100
Cu       2.52352000       0.00450000      15.36239000  T       0.00355500       0.00030300       0.00092300
Cu       5.03516000       0.01690000      15.35989000  T       0.00396200       0.00087900       0.00107300
Cu       7.52408000      12.28046000      15.39866000  T       0.00498100      -0.00103900       0.00084100
Cu      10.01864000       0.00912000      15.35657000  T       0.00296000       0.00027200      -0.00064000
Cu       0.01799000       2.50415000      15.34203000  T      -0.00608500      -0.00071800      -0.00014000
Cu       2.46910000       2.50157000      15.34222000  T      -0.00491500       0.00009500       0.00191200
Cu       4.93520000       2.45653000      15.40424000  T      -0.00888400      -0.00161200       0.00124300
Cu       7.44424000       2.07027000      15.84215000  T      -0.00592300       0.00117400       0.00240600
Cu      10.08395000       2.46719000      15.38732000  T      -0.00748700       0.00043800      -0.00259400
Cu      12.51857000       5.00761000      15.32784000  T       0.00049700      -0.00022400       0.00017800
Cu       2.41806000       5.00283000      15.34689000  T       0.00152700       0.00039600       0.00068000
Pd       4.92612000       5.06938000      15.49017000  T      -0.00134300       0.00212300       0.00044000
Y        7.50104000       4.89668000      17.22079000  T      -0.00328900      -0.00047900      -0.00641500
Cu      10.07513000       5.12168000      15.40669000  T       0.00181000      -0.00114400       0.00109000
Cu       0.05377000       7.50611000      15.36091000  T      -0.00073800      -0.00046500      -0.00039000
Cu       2.53778000       7.49868000      15.35930000  T      -0.00036900       0.00101300       0.00060000
Cu       5.03103000       7.63872000      15.49908000  T      -0.00004400       0.00057200      -0.00117400
Cu       7.56513000       7.39557000      15.48812000  T      -0.00078200      -0.00149900      -0.00136200
Cu      10.08454000       7.60655000      15.49051000  T       0.00081900       0.00098800      -0.00173000
Cu      12.50542000      10.00651000      15.37353000  T      -0.00141900      -0.00095000       0.00012300
Cu       2.50893000      10.00434000      15.37121000  T      -0.00103300       0.00046400       0.00066100
Cu       5.01584000      10.08492000      15.36646000  T      -0.00017000      -0.00092400       0.00057100
Cu       7.50167000       9.88287000      15.35395000  T      -0.00061700      -0.00408700       0.00077000
Cu       9.99811000      10.06661000      15.36336000  T      -0.00167100       0.00040000       0.00042100
O        5.91418000       3.53776000      16.59904000  T      -0.00355600      -0.01229500       0.00797600
O        6.14634000       6.55803000      16.67621000  T       0.00134200       0.00117300      -0.00237800
O        9.03000000       6.42586000      16.60462000  T       0.01073200      -0.00470300      -0.00720400
O        8.67592000       3.77126000      15.77511000  T      -0.03031300       0.01063300      -0.04612900
C        7.74072000       1.83780000      17.79538000  T       0.02437400      -0.00089700       0.00093700
O        7.65424000       0.64974000      18.42616000  T       0.01983100       0.01660100       0.02272900
O        7.90336000       2.86801000      18.50531000  T       0.04215000       0.01435000      -0.00195800
H        7.71243000       0.80534000      19.40219000  T       0.02687400       0.03888100       0.01294700
108
Lattice="12.515153631 0.0 0.0 0.0 12.515153631 0.0 0.0 0.0 25.30973" Properties=species:S:1:pos:R:3:move_mask:L:1:forces:R:3 stress="0.007783829721452892 -6.660938539142614e-05 -0.0001377563479173694 -6.660938539142614e-05 0.00723690500127912 -9.242426713607928e-05 -0.0001377563479173694 -9.242426713607928e-05 0.001868888836054098" free_energy=-444.88835139 energy=-444.88499614 pbc="T T T"
Cu       1.25152000       1.25152000      10.00000000  F       0.00552800      -0.02202800      -0.08510100
Cu       3.75455000       1.25152000      10.00000000  F       0.01365400      -0.00392200      -0.07480200
Cu       6.25758000       1.25152000      10.00000000  F      -0.01476000       0.00548700      -0.04930500
Cu       8.76061000       1.25152000      10.00000000  F       0.00724900       0.00231400      -0.04770000
Cu      11.26364000       1.25152000      10.00000000  F      -0.01108000      -0.00435800      -0.06579200
Cu       1.25152000       3.75455000      10.00000000  F       0.01192400       0.00353700      -0.06624700
Cu       3.75455000       3.75455000      10.00000000  F       0.00559100      -0.01024600      -0.05725300
Cu       6.25758000       3.75455000      10.00000000  F      -0.01592000      -0.01520100      -0.09198000
Cu       8.76061000       3.75455000      10.00000000  F       0.01991500      -0.01414600      -0.09798300
Cu      11.26364000       3.75455000      10.00000000  F      -0.01812000       0.00020900      -0.05330500
Cu       1.25152000       6.25758000      10.00000000  F      -0.00019300      -0.00039800      -0.07964100
Cu       3.75455000       6.25758000      10.00000000  F       0.01508400       0.02074100      -0.06473400
Cu       6.25758000       6.25758000      10.00000000  F      -0.01731900       0.02079500      -0.07780300
Cu       8.76061000       6.25758000      10.00000000  F       0.01294900       0.02055800      -0.08111700
Cu      11.26364000       6.25758000      10.00000000  F      -0.00800600       0.00984800      -0.06395700
Cu       1.25152000       8.76061000      10.00000000  F      -0.00660000       0.00805900      -0.07372900
Cu       3.75455000       8.76061000      10.00000000  F       0.00790800      -0.02137600      -0.07662400
Cu       6.25758000       8.76061000      10.00000000  F      -0.01071100      -0.02425300      -0.06111700
Cu       8.76061000       8.76061000      10.00000000  F       0.00959500      -0.01224100      -0.05463200
Cu      11.26364000       8.76061000      10.00000000  F      -0.00096500      -0.01418400      -0.07937900
Cu       1.25152000      11.26364000      10.00000000  F      -0.00896400       0.00994700      -0.02052800
Cu       3.75455000      11.26364000      10.00000000  F      -0.00618800       0.01369100      -0.07580300
Cu       6.25758000      11.26364000      10.00000000  F       0.00211300       0.01982800      -0.07714000
Cu       8.76061000      11.26364000      10.00000000  F      -0.00366600       0.00359800      -0.07178400
Cu      11.26364000      11.26364000      10.00000000  F       0.01441200       0.00537400      -0.07397200
Cu       0.00000000       0.00000000      11.76991000  F      -0.01746300       0.02714600       0.06076500
Cu       2.50303000       0.00000000      11.76991000  F       0.04174700       0.01125800       0.04822400
Cu       5.00606000       0.00000000      11.76991000  F       0.06348200       0.04829400       0.05869100
Cu       7.50909000       0.00000000      11.76991000  F      -0.00785900       0.02690600       0.05394900
Cu      10.01212000       0.00000000      11.76991000  F      -0.03911100       0.04838100       0.08089300
Cu       0.00000000       2.50303000      11.76991000  F      -0.10513200       0.01739100       0.04324400
Cu       2.50303000       2.50303000      11.76991000  F       0.06583700       0.01319400       0.01854000
Cu       5.00606000       2.50303000      11.76991000  F      -0.02303900      -0.08040100       0.04265100
Cu       7.50909000       2.50303000      11.76991000  F       0.02290900       0.02646100       0.25856300
Cu      10.01212000       2.50303000      11.76991000  F      -0.10248800       0.04772600       0.19934500
Cu       0.00000000       5.00606000      11.76991000  F      -0.06890900       0.03417800       0.01201600
Cu       2.50303000       5.00606000      11.76991000  F       0.05455600       0.02458500       0.01614500
Cu       5.00606000       5.00606000      11.76991000  F      -0.03636200       0.01037700       0.08250200
Cu       7.50909000       5.00606000      11.76991000  F      -0.01339100      -0.11362800       0.16957500
Cu      10.01212000       5.00606000      11.76991000  F      -0.06300000      -0.07184000       0.12333200
Cu       0.00000000       7.50909000      11.76991000  F      -0.03127500       0.03248000       0.05098100
Cu       2.50303000       7.50909000      11.76991000  F       0.06874700       0.05095400       0.02164100
Cu       5.00606000       7.50909000      11.76991000  F      -0.01476700       0.05750500       0.00387800
Cu       7.50909000       7.50909000      11.76991000  F      -0.03411300       0.02593200       0.01997300
Cu      10.01212000       7.50909000      11.76991000  F       0.10517600       0.08646400      -0.03024700
Cu       0.00000000      10.01212000      11.76991000  F      -0.02304200      -0.04394800       0.08811400
Cu       2.50303000      10.01212000      11.76991000  F       0.04628000      -0.03693600       0.10056600
Cu       5.00606000      10.01212000      11.76991000  F       0.05538900      -0.07998300       0.07255600
Cu       7.50909000      10.01212000      11.76991000  F       0.02428900      -0.11813800       0.04663400
Cu      10.01212000      10.01212000      11.76991000  F      -0.03051400      -0.09330200       0.06796500
Cu       1.25776000       1.23706000      13.57008000  T      -0.00116000       0.00029700      -0.00079900
Cu       3.77683000       1.26236000      13.58735000  T      -0.00121200       0.00017400      -0.00066700
Cu       6.29741000       1.25802000      13.62668000  T      -0.00019800      -0.00095500       0.00095800
Cu       8.73161000       1.24288000      13.61664000  T      -0.00042000      -0.00210300       0.00003100
Cu      11.25431000       1.26413000      13.58522000  T      -0.00085600      -0.00069500      -0.00200900
Cu       1.23377000       3.74916000      13.55629000  T      -0.00140400       0.00073600      -0.00029600
Cu       3.73765000       3.76626000      13.58923000  T      -0.00060300       0.00084800       0.00004300
Cu       6.22749000       3.73662000      13.57550000  T      -0.00240300      -0.00105400       0.00181500
Cu       8.67690000       3.76194000      13.63546000  T      -0.00134100       0.00120400      -0.00540800
Cu      11.22583000       3.78339000      13.58756000  T      -0.00190800      -0.00011800       0.00056700
Cu       1.25926000       6.26438000      13.56278000  T      -0.00018100       0.00005200       0.00009300
Cu       3.76896000       6.29054000      13.58202000  T       0.00074700      -0.00009000      -0.00001900
Cu       6.27776000       6.23502000      13.56645000  T       0.00088000      -0.00065300      -0.00062900
Cu       8.76015000       6.26230000      13.53603000  T       0.00158900       0.00186200      -0.00097800
Cu      11.25899000       6.28777000      13.58844000  T       0.00106500       0.00035600      -0.00078800
Cu       1.26347000       8.76686000      13.58186000  T      -0.00164100      -0.00064500      -0.00085100
Cu       3.78843000       8.76730000      13.61099000  T      -0.00099500      -0.00022300      -0.00041400
Cu       6.27623000       8.70629000      13.60449000  T       0.00017300      -0.00103000      -0.00069800
Cu       8.76701000       8.71198000      13.61321000  T      -0.00025500      -0.00090200      -0.00015200
Cu      11.25714000       8.76418000      13.60821000  T      -0.00051400      -0.00062400      -0.00087600
Cu       1.25169000      11.25876000      13.59570000  T       0.00040400      -0.00034800      -0.00080500
Cu       3.75260000      11.27293000      13.57832000  T       0.00145500      -0.00007700      -0.00019900
Cu       6.26140000      11.24246000      13.56498000  T       0.00284000      -0.00117000       0.00193700
Cu       8.76337000      11.23784000      13.56739000  T       0.00115800      -0.00103500      -0.00030400
Cu      11.27256000      11.27194000      13.57885000  T       0.00073200      -0.00133400      -0.00107300
Cu      12.52201000       0.00623000      15.36719000  T       0.00323700      -0.00079000       0.00116800
Cu       2.52568000       0.00476000      15.36221000  T       0.00379700       0.00042200       0.00202900
Cu       5.03752000       0.01694000      15.36001000  T       0.00523400      -0.00054000       0.00244100
Cu       7.52652000      12.27784000      15.39905000  T       0.00465500       0.00238200       0.00173600
Cu      10.02008000       0.01058000      15.35672000  T       0.00356200      -0.00222400      -0.00009800
Cu       0.01375000       2.50361000      15.34223000  T      -0.00465300       0.00009300       0.00025900
Cu       2.46552000       2.50151000      15.34275000  T      -0.00469100       0.00126300       0.00265400
Cu       4.93183000       2.45595000      15.40491000  T      -0.00605700       0.00051100       0.00415100
Cu       7.43905000       2.06744000      15.84401000  T      -0.00579000       0.00206900       0.00983600
Cu      10.07946000       2.46814000      15.38471000  T      -0.00890900       0.00251600       0.00061600
Cu      12.52011000       5.00742000      15.32832000  T       0.00005100      -0.00053500       0.00094000
Cu       2.41972000       5.00317000      15.34692000  T       0.00072300       0.00081100       0.00045100
Pd       4.92801000       5.06777000      15.48912000  T       0.00240300      -0.00047500       0.00241300
Y        7.50162000       4.89679000      17.21764000  T      -0.00240200      -0.00008100      -0.00962700
Cu      10.07664000       5.12009000      15.40688000  T       0.00357100      -0.00230900       0.00011500
Cu       0.05404000       7.50592000      15.36075000  T       0.00068200      -0.00036300       0.00042600
Cu       2.53765000       7.49932000      15.35915000  T      -0.00017200       0.00044500       0.00045800
Cu       5.03074000       7.63818000      15.49803000  T      -0.00020100      -0.00082600      -0.00116000
Cu       7.56523000       7.39497000      15.48705000  T       0.00069700      -0.00104200      -0.00267000
Cu      10.08492000       7.60660000      15.48979000  T       0.00104100       0.00327300      -0.00227700
Cu      12.50507000      10.00618000      15.37341000  T      -0.00141300      -0.00085700       0.00115800
Cu       2.50859000      10.00481000      15.37099000  T      -0.00079400       0.00013000       0.00100800
Cu       5.01537000      10.08463000      15.36636000  T      -0.00028500      -0.00049600       0.00062300
Cu       7.50100000       9.88087000      15.35433000  T      -0.00047200      -0.00071600       0.00083600
Cu       9.99739000      10.06775000      15.36377000  T      -0.00172500      -0.00046700       0.00110100
O        5.91285000       3.53418000      16.60105000  T      -0.00019500      -0.00731000       0.01036400
O        6.14645000       6.55780000      16.67456000  T       0.00127800      -0.00071600       0.00144000
O        9.03189000       6.42425000      16.60292000  T       0.00474500      -0.00792900       0.00067800
O        8.66809000       3.77321000      15.76305000  T      -0.02592000       0.01513500      -0.03886000
C        7.75102000       1.84381000      17.79589000  T       0.02018300      -0.00498100      -0.00048000
O        7.66481000       0.65855000      18.43145000  T       0.01486700       0.01356800       0.02182400
O        7.92012000       2.87614000      18.50172000  T       0.02527900       0.00753400      -0.00186100
H        7.72728000       0.81793000      19.40666000  T       0.03034200       0.03733800       0.01075900
108
Lattice="12.515153631 0.0 0.0 0.0 12.515153631 0.0 0.0 0.0 25.30973" Properties=species:S:1:pos:R:3:move_mask:L:1:forces:R:3 stress="0.00782246466294211 -6.563570996778835e-05 -0.00013547819708642202 -6.563570996778835e-05 0.007272088388221725 -9.168152755009918e-05 -0.00013547819708642202 -9.168152755009918e-05 0.0019086472491859747" free_energy=-444.89087608 energy=-444.88752834 pbc="T T T"
Cu       1.25152000       1.25152000      10.00000000  F       0.00565100      -0.02188300      -0.08496800
Cu       3.75455000       1.25152000      10.00000000  F       0.01341900      -0.00380100      -0.07436800
Cu       6.25758000       1.25152000      10.00000000  F      -0.01502800       0.00564700      -0.04919400
Cu       8.76061000       1.25152000      10.00000000  F       0.00683900       0.00261900      -0.04784900
Cu      11.26364000       1.25152000      10.00000000  F      -0.01101400      -0.00413900      -0.06571600
Cu       1.25152000       3.75455000      10.00000000  F       0.01206000       0.00355400      -0.06608200
Cu       3.75455000       3.75455000      10.00000000  F       0.00530600      -0.01023900      -0.05691200
Cu       6.25758000       3.75455000      10.00000000  F      -0.01605800      -0.01513500      -0.09182700
Cu       8.76061000       3.75455000      10.00000000  F       0.01963200      -0.01398600      -0.09801400
Cu      11.26364000       3.75455000      10.00000000  F      -0.01827900       0.00032500      -0.05322700
Cu       1.25152000       6.25758000      10.00000000  F      -0.00025900      -0.00045500      -0.07958100
Cu       3.75455000       6.25758000      10.00000000  F       0.01492200       0.02058900      -0.06458200
Cu       6.25758000       6.25758000      10.00000000  F      -0.01746500       0.02067500      -0.07759600
Cu       8.76061000       6.25758000      10.00000000  F       0.01271200       0.02042200      -0.08111800
Cu      11.26364000       6.25758000      10.00000000  F      -0.00814900       0.00983500      -0.06385400
Cu       1.25152000       8.76061000      10.00000000  F      -0.00674000       0.00808800      -0.07374400
Cu       3.75455000       8.76061000      10.00000000  F       0.00778300      -0.02129100      -0.07665700
Cu       6.25758000       8.76061000      10.00000000  F      -0.01099000      -0.02427900      -0.06112600
Cu       8.76061000       8.76061000      10.00000000  F       0.00941000      -0.01234900      -0.05470300
Cu      11.26364000       8.76061000      10.00000000  F      -0.00094300      -0.01424100      -0.07945000
Cu       1.25152000      11.26364000      10.00000000  F      -0.00898800       0.01010500      -0.02062100
Cu       3.75455000      11.26364000      10.00000000  F      -0.00641400       0.01390000      -0.07564400
Cu       6.25758000      11.26364000      10.00000000  F       0.00175000       0.02002000      -0.07713500
Cu       8.76061000      11.26364000      10.00000000  F      -0.00392800       0.00362700      -0.07196600
Cu      11.26364000      11.26364000      10.00000000  F       0.01450800       0.00539500      -0.07417200
Cu       0.00000000       0.00000000      11.76991000  F      -0.01716200       0.02718700       0.06112700
Cu       2.50303000       0.00000000      11.76991000  F       0.04169300       0.01174400       0.04882800
Cu       5.00606000       0.00000000      11.76991000  F       0.06310300       0.04861700       0.05909300
Cu       7.50909000       0.00000000      11.76991000  F      -0.00882300       0.02701000       0.05397300
Cu      10.01212000       0.00000000      11.76991000  F      -0.03892000       0.04844000       0.08089400
Cu       0.00000000       2.50303000      11.76991000  F      -0.10506000       0.01758800       0.04342900
Cu       2.50303000       2.50303000      11.76991000  F       0.06517300       0.01309100       0.01895200
Cu       5.00606000       2.50303000      11.76991000  F      -0.02408900      -0.08108000       0.04255000
Cu       7.50909000       2.50303000      11.76991000  F       0.02155200       0.02606900       0.25766000
Cu      10.01212000       2.50303000      11.76991000  F      -0.10321800       0.04807900       0.19961200
Cu       0.00000000       5.00606000      11.76991000  F      -0.06868600       0.03416800       0.01218700
Cu       2.50303000       5.00606000      11.76991000  F       0.05449400       0.02414000       0.01654700
Cu       5.00606000       5.00606000      11.76991000  F      -0.03703400       0.00999300       0.08249100
Cu       7.50909000       5.00606000      11.76991000  F      -0.01406700      -0.11278100       0.16794500
Cu      10.01212000       5.00606000      11.76991000  F      -0.06261900      -0.07108700       0.12266400
Cu       0.00000000       7.50909000      11.76991000  F      -0.03107900       0.03237500       0.05140300
Cu       2.50303000       7.50909000      11.76991000  F       0.06892700       0.05068300       0.02188800
Cu       5.00606000       7.50909000      11.76991000  F      -0.01512200       0.05725600       0.00344400
Cu       7.50909000       7.50909000      11.76991000  F      -0.03388000       0.02562400       0.01968500
Cu      10.01212000       7.50909000      11.76991000  F       0.10589900       0.08652500      -0.03012900
Cu       0.00000000      10.01212000      11.76991000  F      -0.02305800      -0.04376100       0.08862200
Cu       2.50303000      10.01212000      11.76991000  F       0.04624100      -0.03659700       0.10066000
Cu       5.00606000      10.01212000      11.76991000  F       0.05514800      -0.07964200       0.07251200
Cu       7.50909000      10.01212000      11.76991000  F       0.02404800      -0.11825800       0.04638300
Cu      10.01212000      10.01212000      11.76991000  F      -0.02992700      -0.09353900       0.06783200
Cu       1.25747000       1.23707000      13.57016000  T      -0.00102000       0.00045600      -0.00042800
Cu       3.77659000       1.26237000      13.58739000  T      -0.00176000       0.00034700      -0.00014200
Cu       6.29722000       1.25790000      13.62674000  T      -0.00105200      -0.00075100       0.00196700
Cu       8.73119000       1.24261000      13.61651000  T      -0.00137300      -0.00272500       0.00044400
Cu      11.25408000       1.26411000      13.58508000  T      -0.00118300      -0.00078100      -0.00184700
Cu       1.23347000       3.74910000      13.55646000  T      -0.00187100       0.00076300      -0.00000800
Cu       3.73717000       3.76607000      13.58928000  T      -0.00119700       0.00063900       0.00043700
Cu       6.22691000       3.73630000      13.57530000  T      -0.00397500      -0.00209300       0.00227000
Cu       8.67648000       3.76247000      13.63442000  T      -0.00231800       0.00224300      -0.00967400
Cu      11.22582000       3.78350000      13.58746000  T      -0.00259500      -0.00012300       0.00094500
Cu       1.25965000       6.26431000      13.56280000  T      -0.00031700      -0.00001200       0.00021700
Cu       3.76931000       6.29049000      13.58209000  T       0.00113600      -0.00057200       0.00026500
Cu       6.27809000       6.23486000      13.56622000  T       0.00118200      -0.00129800      -0.00132500
Cu       8.76067000       6.26267000      13.53596000  T       0.00256400       0.00261600      -0.00140800
Cu      11.25946000       6.28771000      13.58848000  T       0.00138800       0.00044300      -0.00089600
Cu       1.26336000       8.76685000      13.58181000  T      -0.00233000      -0.00059100      -0.00091800
Cu       3.78828000       8.76735000      13.61088000  T      -0.00165700       0.00015200      -0.00057200
Cu       6.27610000       8.70620000      13.60427000  T      -0.00013100      -0.00116900      -0.00090400
Cu       8.76701000       8.71217000      13.61315000  T      -0.00071100      -0.00104700      -0.00008400
Cu      11.25705000       8.76424000      13.60827000  T      -0.00077900      -0.00087800      -0.00105800
Cu       1.25191000      11.25877000      13.59567000  T       0.00115000      -0.00018100      -0.00055100
Cu       3.75285000      11.27298000      13.57829000  T       0.00208500       0.00052200       0.00015900
Cu       6.26164000      11.24229000      13.56498000  T       0.00343400      -0.00106800       0.00313600
Cu       8.76366000      11.23775000      13.56723000  T       0.00120100      -0.00138900      -0.00000300
Cu      11.27274000      11.27203000      13.57897000  T       0.00140900      -0.00191500      -0.00093200
Cu      12.52284000       0.00598000      15.36725000  T       0.00605300      -0.00125900       0.00163100
Cu       2.52661000       0.00487000      15.36220000  T       0.00671100       0.00100700       0.00237500
Cu       5.03856000       0.01690000      15.36011000  T       0.00782700      -0.00048000       0.00278600
Cu       7.52755000      12.27680000      15.39922000  T       0.00766900       0.00260300       0.00219700
Cu      10.02070000       0.01110000      15.35681000  T       0.00623900      -0.00203200       0.00010900
Cu       0.01201000       2.50341000      15.34233000  T      -0.00870100      -0.00024000       0.00036100
Cu       2.46402000       2.50153000      15.34301000  T      -0.00862500       0.00149100       0.00353100
Cu       4.93048000       2.45578000      15.40528000  T      -0.00846400       0.00085000       0.00574700
Cu       7.43687000       2.06630000      15.84499000  T      -0.00925400       0.00253900       0.01327600
Cu      10.07754000       2.46859000      15.38370000  T      -0.01483500       0.00370700       0.00055100
Cu      12.52074000       5.00735000      15.32854000  T       0.00053500      -0.00082100       0.00164900
Cu       2.42036000       5.00333000      15.34695000  T       0.00133300       0.00119900       0.00050800
Pd       4.92872000       5.06718000      15.48886000  T       0.01385500      -0.00992400      -0.00323100
Y        7.50181000       4.89682000      17.21632000  T       0.00012600      -0.00061600      -0.01607100
Cu      10.07727000       5.11942000      15.40693000  T       0.00484700      -0.00266400       0.00033600
Cu       0.05417000       7.50583000      15.36070000  T       0.00080800      -0.00061900       0.00067900
Cu       2.53761000       7.49955000      15.35910000  T      -0.00066800       0.00105500       0.00050800
Cu       5.03063000       7.63792000      15.49759000  T      -0.00052600      -0.00140800      -0.00178100
Cu       7.56534000       7.39471000      15.48658000  T       0.00156500      -0.00176600      -0.00360700
Cu      10.08506000       7.60664000      15.48947000  T       0.00055300       0.00304200      -0.00220700
Cu      12.50491000      10.00602000      15.37340000  T      -0.00236100      -0.00128400       0.00164800
Cu       2.50846000      10.00499000      15.37093000  T      -0.00158700       0.00087600       0.00104500
Cu       5.01519000      10.08450000      15.36633000  T      -0.00119100      -0.00048400       0.00048200
Cu       7.50073000       9.88010000      15.35449000  T      -0.00117900      -0.00114100       0.00130500
Cu       9.99707000      10.06818000      15.36396000  T      -0.00268000      -0.00033000       0.00183200
O        5.91244000       3.53294000      16.60196000  T      -0.00066500      -0.00875500       0.00964200
O        6.14652000       6.55767000      16.67398000  T       0.00169700       0.00057100       0.00293800
O        9.03250000       6.42359000      16.60238000  T       0.00651300      -0.00689100      -0.00001900
O        8.66513000       3.77412000      15.75850000  T      -0.02596100       0.01560400      -0.04101800
C        7.75502000       1.84604000      17.79605000  T       0.01992800      -0.00091600       0.00301100
O        7.66886000       0.66199000      18.43358000  T       0.01987900       0.01565000       0.02490600
O        7.92628000       2.87926000      18.50038000  T       0.02543100       0.00730600      -0.00371700
H        7.73323000       0.82299000      19.40842000  T       0.03058000       0.03769600       0.00936300
108
Lattice="12.515153631 0.0 0.0 0.0 12.515153631 0.0 0.0 0.0 25.30973" Properties=species:S:1:pos:R:3:move_mask:L:1:forces:R:3 stress="0.007820242685693295 -6.644710615415317e-05 -0.00013543450652254082 -6.644710615415317e-05 0.0072664398224628 -9.415940667307483e-05 -0.00013543450652254082 -9.415940667307483e-05 0.0019009265023972569" free_energy=-444.90659145 energy=-444.90325367 pbc="T T T"
Cu       1.25152000       1.25152000      10.00000000  F       0.00542100      -0.02253600      -0.08471100
Cu       3.75455000       1.25152000      10.00000000  F       0.01318000      -0.00426300      -0.07410300
Cu       6.25758000       1.25152000      10.00000000  F      -0.01463300       0.00503700      -0.04914000
Cu       8.76061000       1.25152000      10.00000000  F       0.00725400       0.00194500      -0.04772400
Cu      11.26364000       1.25152000      10.00000000  F      -0.01082900      -0.00485900      -0.06525800
Cu       1.25152000       3.75455000      10.00000000  F       0.01214000       0.00336700      -0.06594400
Cu       3.75455000       3.75455000      10.00000000  F       0.00499400      -0.01037200      -0.05681000
Cu       6.25758000       3.75455000      10.00000000  F      -0.01582500      -0.01531200      -0.09194400
Cu       8.76061000       3.75455000      10.00000000  F       0.01995900      -0.01419200      -0.09814000
Cu      11.26364000       3.75455000      10.00000000  F      -0.01808900       0.00009800      -0.05319100
Cu       1.25152000       6.25758000      10.00000000  F      -0.00041100      -0.00002000      -0.07937000
Cu       3.75455000       6.25758000      10.00000000  F       0.01469600       0.02080800      -0.06444600
Cu       6.25758000       6.25758000      10.00000000  F      -0.01717000       0.02103000      -0.07757800
Cu       8.76061000       6.25758000      10.00000000  F       0.01315100       0.02087100      -0.08115600
Cu      11.26364000       6.25758000      10.00000000  F      -0.00797100       0.01037000      -0.06361900
Cu       1.25152000       8.76061000      10.00000000  F      -0.00715700       0.00851900      -0.07329500
Cu       3.75455000       8.76061000      10.00000000  F       0.00762400      -0.02099600      -0.07646500
Cu       6.25758000       8.76061000      10.00000000  F      -0.01065200      -0.02387300      -0.06093900
Cu       8.76061000       8.76061000      10.00000000  F       0.00999100      -0.01182100      -0.05401700
Cu      11.26364000       8.76061000      10.00000000  F      -0.00073800      -0.01372200      -0.07846300
Cu       1.25152000      11.26364000      10.00000000  F      -0.00939400       0.00982900      -0.02024500
Cu       3.75455000      11.26364000      10.00000000  F      -0.00664400       0.01371600      -0.07538800
Cu       6.25758000      11.26364000      10.00000000  F       0.00212700       0.01978700      -0.07684400
Cu       8.76061000      11.26364000      10.00000000  F      -0.00333600       0.00324800      -0.07080400
Cu      11.26364000      11.26364000      10.00000000  F       0.01473300       0.00505200      -0.07282800
Cu       0.00000000       0.00000000      11.76991000  F      -0.01682900       0.02676100       0.06114900
Cu       2.50303000       0.00000000      11.76991000  F       0.04161900       0.01146400       0.04909200
Cu       5.00606000       0.00000000      11.76991000  F       0.06322000       0.04808800       0.05970400
Cu       7.50909000       0.00000000      11.76991000  F      -0.00895600       0.02662700       0.05440700
Cu      10.01212000       0.00000000      11.76991000  F      -0.03835100       0.04787800       0.08078100
Cu       0.00000000       2.50303000      11.76991000  F      -0.10505900       0.01730200       0.04353000
Cu       2.50303000       2.50303000      11.76991000  F       0.06490100       0.01285500       0.01913700
Cu       5.00606000       2.50303000      11.76991000  F      -0.02423200      -0.08167700       0.04294300
Cu       7.50909000       2.50303000      11.76991000  F       0.02073200       0.02493700       0.25699000
Cu      10.01212000       2.50303000      11.76991000  F      -0.10306400       0.04757500       0.19929100
Cu       0.00000000       5.00606000      11.76991000  F      -0.06861100       0.03388400       0.01216500
Cu       2.50303000       5.00606000      11.76991000  F       0.05431900       0.02414800       0.01684300
Cu       5.00606000       5.00606000      11.76991000  F      -0.03719800       0.00976800       0.08275500
Cu       7.50909000       5.00606000      11.76991000  F      -0.01485400      -0.11223300       0.16644200
Cu      10.01212000       5.00606000      11.76991000  F      -0.06173500      -0.07086400       0.12163100
Cu       0.00000000       7.50909000      11.76991000  F      -0.03069200       0.03267200       0.05093100
Cu       2.50303000       7.50909000      11.76991000  F       0.06885600       0.05082200       0.02225300
Cu       5.00606000       7.50909000      11.76991000  F      -0.01551300       0.05757700       0.00348700
Cu       7.50909000       7.50909000      11.76991000  F      -0.03377900       0.02575600       0.01934000
Cu      10.01212000       7.50909000      11.76991000  F       0.10663100       0.08697700      -0.03079500
Cu       0.00000000      10.01212000      11.76991000  F      -0.02262900      -0.04362100       0.08825700
Cu       2.50303000      10.01212000      11.76991000  F       0.04611900      -0.03645200       0.10082700
Cu       5.00606000      10.01212000      11.76991000  F       0.05530600      -0.07923800       0.07321600
Cu       7.50909000      10.01212000      11.76991000  F       0.02417300      -0.11807800       0.04644700
Cu      10.01212000      10.01212000      11.76991000  F      -0.02950300      -0.09361700       0.06741900
Cu       1.25738000       1.23708000      13.57016000  T      -0.00023900      -0.00029900       0.00042900
Cu       3.77646000       1.26239000      13.58743000  T      -0.00013200       0.00005600       0.00080600
Cu       6.29713000       1.25784000      13.62693000  T      -0.00031500      -0.00012900       0.00043900
Cu       8.73112000       1.24234000      13.61655000  T      -0.00071200      -0.00089700      -0.00035000
Cu      11.25397000       1.26404000      13.58500000  T      -0.00054900      -0.00020000       0.00055100
Cu       1.23331000       3.74913000      13.55648000  T      -0.00018900      -0.00006900       0.00050100
Cu       3.73704000       3.76608000      13.58934000  T      -0.00121200      -0.00034900       0.00063100
Cu       6.22658000       3.73610000      13.57547000  T      -0.00131300      -0.00058800      -0.00065500
Cu       8.67631000       3.76264000      13.63341000  T      -0.00092500       0.00125000      -0.00427600
Cu      11.22564000       3.78345000      13.58755000  T       0.00033800       0.00006800      -0.00028400
Cu       1.25963000       6.26431000      13.56281000  T       0.00121000       0.00035100       0.00011900
Cu       3.76941000       6.29044000      13.58213000  T       0.00081000      -0.00003700       0.00122900
Cu       6.27818000       6.23476000      13.56612000  T       0.00025100       0.00007500      -0.00004400
Cu       8.76091000       6.26289000      13.53584000  T       0.00075900       0.00099500      -0.00016500
Cu      11.25961000       6.28773000      13.58840000  T       0.00120900       0.00011000      -0.00004400
Cu       1.26317000       8.76683000      13.58174000  T       0.00009400       0.00024400       0.00017600
Cu       3.78814000       8.76737000      13.61084000  T      -0.00032600       0.00012800       0.00017400
Cu       6.27609000       8.70612000      13.60421000  T      -0.00062000       0.00008900      -0.00003400
Cu       8.76697000       8.71213000      13.61314000  T      -0.00015300       0.00100700      -0.00023100
Cu      11.25699000       8.76419000      13.60818000  T       0.00000900       0.00038100       0.00006700
Cu       1.25201000      11.25875000      13.59564000  T       0.00081900      -0.00025700       0.00022000
Cu       3.75302000      11.27302000      13.57831000  T       0.00061700      -0.00009400       0.00024200
Cu       6.26193000      11.24222000      13.56524000  T       0.00026500      -0.00028500       0.00008900
Cu       8.76380000      11.23763000      13.56723000  T       0.00072200      -0.00047200      -0.00038400
Cu      11.27288000      11.27188000      13.57891000  T       0.00073200      -0.00010900       0.00009400
Cu      12.52336000       0.00585000      15.36736000  T       0.00228900      -0.00076200      -0.00014000
Cu       2.52716000       0.00494000      15.36238000  T       0.00209900       0.00016700      -0.00016600
Cu       5.03920000       0.01687000      15.36034000  T       0.00167800      -0.00022300       0.00026100
Cu       7.52824000      12.27703000      15.39940000  T       0.00246300      -0.00214500       0.00017400
Cu      10.02127000       0.01096000      15.35681000  T       0.00202700       0.00134400       0.00037800
Cu       0.01120000       2.50336000      15.34235000  T      -0.00411400      -0.00058900       0.00056000
Cu       2.46328000       2.50163000      15.34327000  T      -0.00286200      -0.00001300       0.00040300
Cu       4.92977000       2.45580000      15.40581000  T      -0.00389200      -0.00183300       0.00026700
Cu       7.43603000       2.06626000      15.84636000  T      -0.00595800      -0.00335400       0.00130600
Cu      10.07610000       2.46902000      15.38376000  T      -0.00322100      -0.00021900      -0.00183900
Cu      12.52081000       5.00728000      15.32867000  T       0.00187600       0.00006600       0.00065100
Cu       2.42047000       5.00343000      15.34700000  T       0.00224000       0.00071900       0.00019200
Pd       4.92929000       5.06673000      15.48883000  T      -0.00303700       0.00266500      -0.00040300
Y        7.50183000       4.89679000      17.21490000  T      -0.00068900       0.00260800      -0.00654200
Cu      10.07775000       5.11919000      15.40697000  T       0.00279600      -0.00058100      -0.00019100
Cu       0.05424000       7.50579000      15.36077000  T       0.00048200      -0.00002300      -0.00012100
Cu       2.53755000       7.49965000      15.35915000  T       0.00002200       0.00064800      -0.00037600
Cu       5.03061000       7.63778000      15.49748000  T       0.00014000      -0.00173200      -0.00023400
Cu       7.56550000       7.39457000      15.48634000  T      -0.00020900      -0.00018100      -0.00050100
Cu      10.08508000       7.60683000      15.48936000  T       0.00067900       0.00006800      -0.00045500
Cu      12.50471000      10.00592000      15.37353000  T      -0.00020900      -0.00037700      -0.00033700
Cu       2.50831000      10.00506000      15.37101000  T      -0.00033500       0.00026300      -0.00049300
Cu       5.01508000      10.08444000      15.36639000  T      -0.00076600      -0.00060000      -0.00013000
Cu       7.50065000       9.88004000      15.35460000  T      -0.00072400      -0.00074800       0.00033000
Cu       9.99688000      10.06815000      15.36409000  T      -0.00026600       0.00069800       0.00007900
O        5.91212000       3.53182000      16.60299000  T      -0.00071100      -0.00500100       0.00650500
O        6.14664000       6.55781000      16.67415000  T       0.00083800       0.00056900      -0.00008300
O        9.03330000       6.42295000      16.60228000  T       0.00344900      -0.00343500      -0.00017100
O        8.66190000       3.77570000      15.75336000  T      -0.01916400       0.00898900      -0.02590000
C        7.75773000       1.84645000      17.79657000  T       0.01719200      -0.00081100       0.00510700
O        7.67184000       0.66374000      18.43659000  T       0.01807500       0.01147900       0.02108800
O        7.92992000       2.88045000      18.49964000  T       0.02103000       0.00924500      -0.00345700
H        7.73784000       0.82836000      19.41077000  T       0.02834300       0.03110700       0.00911900
108
Lattice="12.515153631 0.0 0.0 0.0 12.515153631 0.0 0.0 0.0 25.30973" Properties=species:S:1:pos:R:3:move_mask:L:1:forces:R:3 stress="0.00786123067612297 -6.899988338663941e-05 -0.00013414251413348298 -6.899988338663941e-05 0.00730996810710671 -9.43591349651031e-05 -0.00013414251413348298 -9.43591349651031e-05 0.0019440366059297325" free_energy=-444.89187736 energy=-444.88854506 pbc="T T T"
Cu       1.25152000       1.25152000      10.00000000  F       0.00549000      -0.02223100      -0.08487100
Cu       3.75455000       1.25152000      10.00000000  F       0.01304000      -0.00419800      -0.07423100
Cu       6.25758000       1.25152000      10.00000000  F      -0.01468700       0.00523200      -0.04915800
Cu       8.76061000       1.25152000      10.00000000  F       0.00682200       0.00236400      -0.04775900
Cu      11.26364000       1.25152000      10.00000000  F      -0.01082700      -0.00450200      -0.06496700
Cu       1.25152000       3.75455000      10.00000000  F       0.01216400       0.00344500      -0.06590100
Cu       3.75455000       3.75455000      10.00000000  F       0.00465300      -0.01028100      -0.05682300
Cu       6.25758000       3.75455000      10.00000000  F      -0.01566800      -0.01525400      -0.09191900
Cu       8.76061000       3.75455000      10.00000000  F       0.01977900      -0.01410000      -0.09785400
Cu      11.26364000       3.75455000      10.00000000  F      -0.01832300       0.00019100      -0.05290100
Cu       1.25152000       6.25758000      10.00000000  F      -0.00040600      -0.00032100      -0.07938900
Cu       3.75455000       6.25758000      10.00000000  F       0.01452900       0.02061900      -0.06457800
Cu       6.25758000       6.25758000      10.00000000  F      -0.01722000       0.02074200      -0.07748700
Cu       8.76061000       6.25758000      10.00000000  F       0.01288400       0.02041200      -0.08102900
Cu      11.26364000       6.25758000      10.00000000  F      -0.00804200       0.01000900      -0.06326200
Cu       1.25152000       8.76061000      10.00000000  F      -0.00724700       0.00815900      -0.07363500
Cu       3.75455000       8.76061000      10.00000000  F       0.00765700      -0.02119500      -0.07689200
Cu       6.25758000       8.76061000      10.00000000  F      -0.01095700      -0.02411800      -0.06109000
Cu       8.76061000       8.76061000      10.00000000  F       0.00969100      -0.01210500      -0.05437900
Cu      11.26364000       8.76061000      10.00000000  F      -0.00060800      -0.01403200      -0.07910000
Cu       1.25152000      11.26364000      10.00000000  F      -0.00941600       0.00991800      -0.02075100
Cu       3.75455000      11.26364000      10.00000000  F      -0.00668300       0.01373200      -0.07584300
Cu       6.25758000      11.26364000      10.00000000  F       0.00187200       0.01986500      -0.07707600
Cu       8.76061000      11.26364000      10.00000000  F      -0.00363100       0.00327000      -0.07145400
Cu      11.26364000      11.26364000      10.00000000  F       0.01478000       0.00506900      -0.07375900
Cu       0.00000000       0.00000000      11.76991000  F      -0.01726000       0.02682600       0.06150700
Cu       2.50303000       0.00000000      11.76991000  F       0.04149900       0.01164000       0.04953500
Cu       5.00606000       0.00000000      11.76991000  F       0.06377700       0.04798600       0.06053100
Cu       7.50909000       0.00000000      11.76991000  F      -0.00903700       0.02679000       0.05537600
Cu      10.01212000       0.00000000      11.76991000  F      -0.03828700       0.04763300       0.08105200
Cu       0.00000000       2.50303000      11.76991000  F      -0.10593500       0.01732400       0.04387100
Cu       2.50303000       2.50303000      11.76991000  F       0.06477800       0.01316700       0.01943100
Cu       5.00606000       2.50303000      11.76991000  F      -0.02385700      -0.08169400       0.04368800
Cu       7.50909000       2.50303000      11.76991000  F       0.01984900       0.02399700       0.25605400
Cu      10.01212000       2.50303000      11.76991000  F      -0.10356700       0.04739000       0.19904500
Cu       0.00000000       5.00606000      11.76991000  F      -0.06950300       0.03338000       0.01234400
Cu       2.50303000       5.00606000      11.76991000  F       0.05404500       0.02407800       0.01721800
Cu       5.00606000       5.00606000      11.76991000  F      -0.03693500       0.00932100       0.08334600
Cu       7.50909000       5.00606000      11.76991000  F      -0.01597300      -0.11154900       0.16454200
Cu      10.01212000       5.00606000      11.76991000  F      -0.06147800      -0.07075300       0.12061400
Cu       0.00000000       7.50909000      11.76991000  F      -0.03111200       0.03254600       0.05034200
Cu       2.50303000       7.50909000      11.76991000  F       0.06857300       0.05029500       0.02292100
Cu       5.00606000       7.50909000      11.76991000  F      -0.01566700       0.05747100       0.00381800
Cu       7.50909000       7.50909000      11.76991000  F      -0.03372600       0.02531700       0.01943900
Cu      10.01212000       7.50909000      11.76991000  F       0.10652900       0.08696100      -0.03115100
Cu       0.00000000      10.01212000      11.76991000  F      -0.02287700      -0.04375300       0.08796100
Cu       2.50303000      10.01212000      11.76991000  F       0.04566900      -0.03648400       0.10113700
Cu       5.00606000      10.01212000      11.76991000  F       0.05606900      -0.07889300       0.07435700
Cu       7.50909000      10.01212000      11.76991000  F       0.02440200      -0.11795400       0.04702000
Cu      10.01212000      10.01212000      11.76991000  F      -0.02991900      -0.09396900       0.06729000
Cu       1.25733000       1.23712000      13.57019000  T      -0.00081400       0.00001600       0.00065200
Cu       3.77638000       1.26245000      13.58757000  T       0.00013200       0.00025800       0.00084300
Cu       6.29710000       1.25785000      13.62725000  T       0.00003100       0.00033900       0.00044800
Cu       8.73119000       1.24206000      13.61669000  T      -0.00069500      -0.00113000      -0.00064100
Cu      11.25383000       1.26400000      13.58508000  T      -0.00128100       0.00014000       0.00076200
Cu       1.23313000       3.74915000      13.55649000  T      -0.00105200      -0.00012900       0.00061700
Cu       3.73693000       3.76608000      13.58948000  T      -0.00143100      -0.00060800       0.00073800
Cu       6.22630000       3.73585000      13.57573000  T      -0.00167800      -0.00054200      -0.00118300
Cu       8.67623000       3.76272000      13.63196000  T      -0.00089700       0.00197600      -0.00607200
Cu      11.22540000       3.78326000      13.58775000  T      -0.00006600       0.00005200      -0.00023800
Cu       1.25947000       6.26430000      13.56286000  T       0.00081300       0.00007400       0.00003000
Cu       3.76941000       6.29034000      13.58230000  T       0.00097800      -0.00029300       0.00110600
Cu       6.27818000       6.23466000      13.56608000  T       0.00046600      -0.00001700      -0.00054600
Cu       8.76109000       6.26307000      13.53572000  T       0.00106300       0.00142300      -0.00048300
Cu      11.25969000       6.28771000      13.58827000  T       0.00116100      -0.00036500      -0.00049900
Cu       1.26293000       8.76683000      13.58174000  T      -0.00047700       0.00005300       0.00029200
Cu       3.78796000       8.76742000      13.61087000  T      -0.00026700      -0.00017200       0.00016600
Cu       6.27608000       8.70609000      13.60428000  T      -0.00046700       0.00000800       0.00016100
Cu       8.76690000       8.71207000      13.61320000  T      -0.00032800       0.00082600       0.00021600
Cu      11.25693000       8.76408000      13.60809000  T      -0.00058300      -0.00020600       0.00028600
Cu       1.25212000      11.25877000      13.59568000  T       0.00080300      -0.00019400       0.00041000
Cu       3.75318000      11.27312000      13.57841000  T       0.00080500       0.00002100       0.00017800
Cu       6.26225000      11.24227000      13.56563000  T       0.00064000       0.00018400      -0.00001400
Cu       8.76395000      11.23753000      13.56734000  T       0.00128800      -0.00037400      -0.00033000
Cu      11.27306000      11.27168000      13.57883000  T       0.00057600       0.00005400       0.00046200
Cu      12.52392000       0.00577000      15.36740000  T       0.00313900      -0.00098700      -0.00009800
Cu       2.52766000       0.00505000      15.36260000  T       0.00275900       0.00034500       0.00031900
Cu       5.03977000       0.01685000      15.36064000  T       0.00276400      -0.00054600       0.00090600
Cu       7.52901000      12.27777000      15.39954000  T       0.00401000      -0.00243400      -0.00053200
Cu      10.02202000       0.01072000      15.35677000  T       0.00300500       0.00196400       0.00086200
Cu       0.01035000       2.50333000      15.34232000  T      -0.00714300      -0.00046500       0.00087200
Cu       2.46266000       2.50175000      15.34349000  T      -0.00458200       0.00003300       0.00050900
Cu       4.92908000       2.45566000      15.40635000  T      -0.00352500      -0.00133900       0.00227700
Cu       7.43523000       2.06627000      15.84803000  T      -0.00825600      -0.00521800       0.00442800
Cu      10.07457000       2.46946000      15.38413000  T      -0.00705800       0.00205100      -0.00270200
Cu      12.52069000       5.00716000      15.32877000  T       0.00141800      -0.00013900       0.00077000
Cu       2.42044000       5.00351000      15.34703000  T       0.00162000       0.00073900       0.00014200
Pd       4.92970000       5.06637000      15.48891000  T       0.00142400      -0.00256200       0.00009500
Y        7.50190000       4.89688000      17.21360000  T      -0.00031000       0.00173700      -0.00482900
Cu      10.07833000       5.11903000      15.40698000  T       0.00232100      -0.00216800      -0.00006900
Cu       0.05423000       7.50573000      15.36086000  T      -0.00022400      -0.00042300      -0.00008000
Cu       2.53743000       7.49973000      15.35920000  T      -0.00052800       0.00090600      -0.00016400
Cu       5.03062000       7.63755000      15.49750000  T      -0.00015100      -0.00163800      -0.00041100
Cu       7.56570000       7.39448000      15.48620000  T       0.00073700       0.00024900      -0.00076100
Cu      10.08512000       7.60700000      15.48930000  T       0.00037500      -0.00090500      -0.00037100
Cu      12.50443000      10.00585000      15.37367000  T      -0.00102300      -0.00064600      -0.00006000
Cu       2.50807000      10.00514000      15.37109000  T      -0.00105300       0.00047000      -0.00011600
Cu       5.01490000      10.08438000      15.36646000  T      -0.00125700      -0.00107400       0.00033400
Cu       7.50062000       9.88040000      15.35469000  T      -0.00067700      -0.00029200       0.00059300
Cu       9.99675000      10.06795000      15.36417000  T      -0.00049800       0.00045800       0.00014000
O        5.91192000       3.53026000      16.60443000  T      -0.00200800      -0.00727400       0.00816100
O        6.14700000       6.55808000      16.67446000  T       0.00288300       0.00104000      -0.00065100
O        9.03453000       6.42200000      16.60211000  T       0.00599900      -0.00542800      -0.00159900
O        8.65741000       3.77783000      15.74622000  T      -0.02119000       0.00766700      -0.03300900
C        7.76148000       1.84700000      17.79737000  T       0.01796900       0.00558800       0.00640600
O        7.67634000       0.66617000      18.44081000  T       0.02329800       0.02018900       0.01851300
O        7.93497000       2.88243000      18.49831000  T       0.02859400       0.01548000      -0.00672800
H        7.74416000       0.83525000      19.41397000  T       0.02874400       0.02546400       0.01430800
108
Lattice="12.515153631 0.0 0.0 0.0 12.515153631 0.0 0.0 0.0 25.30973" Properties=species:S:1:pos:R:3:move_mask:L:1:forces:R:3 stress="0.007815867387796051 -6.841318152880639e-05 -0.00013353084623914642 -6.841318152880639e-05 0.007258556796436809 -9.50332179506985e-05 -0.00013353084623914642 -9.50332179506985e-05 0.0018953778007843468" free_energy=-444.8917691 energy=-444.88844418 pbc="T T T"
Cu       1.25152000       1.25152000      10.00000000  F       0.00559100      -0.02217500      -0.08474700
Cu       3.75455000       1.25152000      10.00000000  F       0.01300300      -0.00410200      -0.07405400
Cu       6.25758000       1.25152000      10.00000000  F      -0.01471500       0.00529700      -0.04922000
Cu       8.76061000       1.25152000      10.00000000  F       0.00680000       0.00240800      -0.04799800
Cu      11.26364000       1.25152000      10.00000000  F      -0.01071100      -0.00445800      -0.06511200
Cu       1.25152000       3.75455000      10.00000000  F       0.01231400       0.00347200      -0.06592800
Cu       3.75455000       3.75455000      10.00000000  F       0.00464300      -0.01022400      -0.05677300
Cu       6.25758000       3.75455000      10.00000000  F      -0.01573900      -0.01516700      -0.09207900
Cu       8.76061000       3.75455000      10.00000000  F       0.01975000      -0.01403100      -0.09824900
Cu      11.26364000       3.75455000      10.00000000  F      -0.01824000       0.00021400      -0.05314700
Cu       1.25152000       6.25758000      10.00000000  F      -0.00027400      -0.00026600      -0.07934100
Cu       3.75455000       6.25758000      10.00000000  F       0.01457300       0.02067100      -0.06441400
Cu       6.25758000       6.25758000      10.00000000  F      -0.01725900       0.02082900      -0.07748800
Cu       8.76061000       6.25758000      10.00000000  F       0.01282100       0.02052800      -0.08123500
Cu      11.26364000       6.25758000      10.00000000  F      -0.00798700       0.01010900      -0.06344700
Cu       1.25152000       8.76061000      10.00000000  F      -0.00715200       0.00828500      -0.07344200
Cu       3.75455000       8.76061000      10.00000000  F       0.00769500      -0.02107500      -0.07659500
Cu       6.25758000       8.76061000      10.00000000  F      -0.01098600      -0.02403800      -0.06092200
Cu       8.76061000       8.76061000      10.00000000  F       0.00967400      -0.01201700      -0.05442700
Cu      11.26364000       8.76061000      10.00000000  F      -0.00055300      -0.01388700      -0.07915600
Cu       1.25152000      11.26364000      10.00000000  F      -0.00936000       0.01006700      -0.02059200
Cu       3.75455000      11.26364000      10.00000000  F      -0.00670600       0.01381200      -0.07554100
Cu       6.25758000      11.26364000      10.00000000  F       0.00184400       0.01994500      -0.07692900
Cu       8.76061000      11.26364000      10.00000000  F      -0.00362700       0.00334600      -0.07151300
Cu      11.26364000      11.26364000      10.00000000  F       0.01487100       0.00517000      -0.07378600
Cu       0.00000000       0.00000000      11.76991000  F      -0.01706300       0.02685800       0.06180800
Cu       2.50303000       0.00000000      11.76991000  F       0.04157400       0.01174900       0.04981600
Cu       5.00606000       0.00000000      11.76991000  F       0.06364800       0.04803200       0.06053700
Cu       7.50909000       0.00000000      11.76991000  F      -0.00923400       0.02670500       0.05515000
Cu      10.01212000       0.00000000      11.76991000  F      -0.03804000       0.04753900       0.08100400
Cu       0.00000000       2.50303000      11.76991000  F      -0.10565500       0.01714800       0.04400000
Cu       2.50303000       2.50303000      11.76991000  F       0.06480100       0.01308600       0.01966700
Cu       5.00606000       2.50303000      11.76991000  F      -0.02418900      -0.08182400       0.04357800
Cu       7.50909000       2.50303000      11.76991000  F       0.01927100       0.02353600       0.25527300
Cu      10.01212000       2.50303000      11.76991000  F      -0.10327600       0.04701300       0.19866900
Cu       0.00000000       5.00606000      11.76991000  F      -0.06910300       0.03340500       0.01234400
Cu       2.50303000       5.00606000      11.76991000  F       0.05428600       0.02411500       0.01752800
Cu       5.00606000       5.00606000      11.76991000  F      -0.03725400       0.00953800       0.08345500
Cu       7.50909000       5.00606000      11.76991000  F      -0.01664200      -0.11083900       0.16383700
Cu      10.01212000       5.00606000      11.76991000  F      -0.06109100      -0.07025900       0.12002100
Cu       0.00000000       7.50909000      11.76991000  F      -0.03080000       0.03284400       0.05051000
Cu       2.50303000       7.50909000      11.76991000  F       0.06888400       0.05043100       0.02323400
Cu       5.00606000       7.50909000      11.76991000  F      -0.01579700       0.05762600       0.00397400
Cu       7.50909000       7.50909000      11.76991000  F      -0.03396600       0.02565400       0.01940200
Cu      10.01212000       7.50909000      11.76991000  F       0.10663100       0.08737600      -0.03122200
Cu       0.00000000      10.01212000      11.76991000  F      -0.02270000      -0.04352000       0.08822300
Cu       2.50303000      10.01212000      11.76991000  F       0.04578000      -0.03634200       0.10131500
Cu       5.00606000      10.01212000      11.76991000  F       0.05602900      -0.07880200       0.07443600
Cu       7.50909000      10.01212000      11.76991000  F       0.02425800      -0.11787200       0.04696200
Cu      10.01212000      10.01212000      11.76991000  F      -0.02974300      -0.09382400       0.06726600
Cu       1.25731000       1.23713000      13.57024000  T      -0.00057700      -0.00009100       0.00025600
Cu       3.77640000       1.26247000      13.58762000  T      -0.00025400       0.00008400       0.00030000
Cu       6.29709000       1.25787000      13.62728000  T      -0.00018900       0.00017200       0.00019300
Cu       8.73113000       1.24201000      13.61667000  T      -0.00036100      -0.00108300      -0.00070100
Cu      11.25377000       1.26402000      13.58513000  T      -0.00058200      -0.00006900       0.00011700
Cu       1.23310000       3.74915000      13.55653000  T      -0.00057200      -0.00016400       0.00038300
Cu       3.73686000       3.76606000      13.58953000  T      -0.00111900      -0.00029500       0.00048900
Cu       6.22619000       3.73582000      13.57568000  T      -0.00173100      -0.00017400      -0.00077800
Cu       8.67618000       3.76282000      13.63156000  T      -0.00031900       0.00148300      -0.00691500
Cu      11.22541000       3.78327000      13.58774000  T       0.00029700      -0.00002300      -0.00027700
Cu       1.25955000       6.26430000      13.56287000  T       0.00081300       0.00021300      -0.00000200
Cu       3.76948000       6.29032000      13.58237000  T       0.00075000      -0.00013400       0.00076000
Cu       6.27820000       6.23466000      13.56607000  T       0.00012300       0.00009300      -0.00026700
Cu       8.76113000       6.26315000      13.53571000  T       0.00086300       0.00152700      -0.00045400
Cu      11.25977000       6.28769000      13.58826000  T       0.00103600      -0.00005700      -0.00038200
Cu       1.26293000       8.76682000      13.58176000  T      -0.00033500       0.00024200       0.00003300
Cu       3.78796000       8.76740000      13.61089000  T      -0.00036800      -0.00005300       0.00000600
Cu       6.27604000       8.70610000      13.60430000  T      -0.00042000       0.00006000      -0.00004200
Cu       8.76686000       8.71213000      13.61321000  T      -0.00014800       0.00073500      -0.00005700
Cu      11.25691000       8.76408000      13.60811000  T      -0.00022900       0.00011000      -0.00001600
Cu       1.25219000      11.25876000      13.59571000  T       0.00052500      -0.00004600      -0.00000100
Cu       3.75325000      11.27312000      13.57843000  T       0.00035300       0.00003700      -0.00004100
Cu       6.26228000      11.24227000      13.56564000  T       0.00035900      -0.00000300      -0.00015900
Cu       8.76400000      11.23752000      13.56733000  T       0.00112500      -0.00029800      -0.00057000
Cu      11.27309000      11.27170000      13.57888000  T       0.00074600       0.00011900       0.00006400
Cu      12.52411000       0.00573000      15.36740000  T       0.00255000      -0.00077400      -0.00019200
Cu       2.52785000       0.00509000      15.36261000  T       0.00201900       0.00027800       0.00002300
Cu       5.03995000       0.01683000      15.36068000  T       0.00207700      -0.00056200       0.00055700
Cu       7.52923000      12.27763000      15.39954000  T       0.00304000      -0.00207700      -0.00004700
Cu      10.02217000       0.01084000      15.35682000  T       0.00252200       0.00118900       0.00045000
Cu       0.00997000       2.50331000      15.34237000  T      -0.00489100      -0.00040600       0.00048500
Cu       2.46241000       2.50177000      15.34352000  T      -0.00366300       0.00015500       0.00035100
Cu       4.92888000       2.45560000      15.40647000  T      -0.00266700      -0.00033200       0.00150800
Cu       7.43477000       2.06596000      15.84831000  T      -0.00583200      -0.00469200       0.00545800
Cu      10.07413000       2.46960000      15.38401000  T      -0.00661400       0.00282700      -0.00130100
Cu      12.52081000       5.00716000      15.32881000  T       0.00153800      -0.00001100       0.00050400
Cu       2.42058000       5.00356000      15.34705000  T       0.00124100       0.00063100       0.00010600
Pd       4.92980000       5.06624000      15.48893000  T       0.00375900      -0.00405500       0.00086200
Y        7.50191000       4.89697000      17.21323000  T      -0.00003500       0.00109900      -0.00556900
Cu      10.07846000       5.11889000      15.40699000  T       0.00220600      -0.00238900      -0.00005500
Cu       0.05424000       7.50570000      15.36086000  T       0.00015700      -0.00007300      -0.00015600
Cu       2.53743000       7.49977000      15.35919000  T      -0.00033000       0.00074200      -0.00013100
Cu       5.03062000       7.63744000      15.49748000  T      -0.00042800      -0.00110100      -0.00048200
Cu       7.56573000       7.39449000      15.48617000  T       0.00075400       0.00052300      -0.00070700
Cu      10.08513000       7.60695000      15.48929000  T       0.00063300       0.00002000      -0.00070400
Cu      12.50438000      10.00581000      15.37368000  T      -0.00060200      -0.00038000      -0.00018700
Cu       2.50804000      10.00516000      15.37108000  T      -0.00081900       0.00042000      -0.00024800
Cu       5.01485000      10.08431000      15.36646000  T      -0.00105000      -0.00087000       0.00007400
Cu       7.50057000       9.88037000      15.35472000  T      -0.00059000      -0.00044900       0.00031500
Cu       9.99670000      10.06798000      15.36419000  T      -0.00024700       0.00048200       0.00004600
O        5.91179000       3.52994000      16.60476000  T      -0.00252900      -0.00250800       0.00305500
O        6.14708000       6.55814000      16.67434000  T       0.00038500       0.00058100      -0.00154700
O        9.03474000       6.42183000      16.60203000  T       0.00187500      -0.00210500      -0.00043800
O        8.65630000       3.77816000      15.74468000  T      -0.01282600       0.00389500      -0.01825000
C        7.76275000       1.84744000      17.79760000  T       0.01680100       0.00588900       0.00554200
O        7.67783000       0.66710000      18.44203000  T       0.02092000       0.01288000       0.01314600
O        7.93665000       2.88328000      18.49793000  T       0.02249000       0.01118400      -0.00488800
H        7.74622000       0.83722000      19.41497000  T       0.02749200       0.02551900       0.01582600
108
Lattice="12.515153631 0.0 0.0 0.0 12.515153631 0.0 0.0 0.0 25.30973" Properties=species:S:1:pos:R:3:move_mask:L:1:forces:R:3 stress="0.007812328452121676 -7.235781529636461e-05 -0.00013172705010176615 -7.235781529636461e-05 0.007249550298768159 -9.563240282678328e-05 -0.00013172705010176615 -9.563240282678328e-05 0.0018807227373567731" free_energy=-444.89466144 energy=-444.89136123 pbc="T T T"
Cu       1.25152000       1.25152000      10.00000000  F       0.00530200      -0.02222500      -0.08521000
Cu       3.75455000       1.25152000      10.00000000  F       0.01279700      -0.00428100      -0.07441900
Cu       6.25758000       1.25152000      10.00000000  F      -0.01399900       0.00498800      -0.04968200
Cu       8.76061000       1.25152000      10.00000000  F       0.00668300       0.00236900      -0.04834800
Cu      11.26364000       1.25152000      10.00000000  F      -0.01079200      -0.00449900      -0.06473600
Cu       1.25152000       3.75455000      10.00000000  F       0.01232400       0.00361100      -0.06626800
Cu       3.75455000       3.75455000      10.00000000  F       0.00406200      -0.01001400      -0.05713900
Cu       6.25758000       3.75455000      10.00000000  F      -0.01501800      -0.01507600      -0.09268500
Cu       8.76061000       3.75455000      10.00000000  F       0.01989100      -0.01401000      -0.09852200
Cu      11.26364000       3.75455000      10.00000000  F      -0.01855100       0.00023200      -0.05327000
Cu       1.25152000       6.25758000      10.00000000  F      -0.00045300      -0.00024400      -0.07947400
Cu       3.75455000       6.25758000      10.00000000  F       0.01436200       0.02073700      -0.06460300
Cu       6.25758000       6.25758000      10.00000000  F      -0.01682900       0.02092800      -0.07757900
Cu       8.76061000       6.25758000      10.00000000  F       0.01285900       0.02035900      -0.08139500
Cu      11.26364000       6.25758000      10.00000000  F      -0.00801700       0.01004400      -0.06315800
Cu       1.25152000       8.76061000      10.00000000  F      -0.00761700       0.00812800      -0.07366000
Cu       3.75455000       8.76061000      10.00000000  F       0.00787700      -0.02111700      -0.07694700
Cu       6.25758000       8.76061000      10.00000000  F      -0.01087900      -0.02400100      -0.06087200
Cu       8.76061000       8.76061000      10.00000000  F       0.00979500      -0.01185900      -0.05427200
Cu      11.26364000       8.76061000      10.00000000  F      -0.00040600      -0.01378100      -0.07915800
Cu       1.25152000      11.26364000      10.00000000  F      -0.00985400       0.00993900      -0.02130600
Cu       3.75455000      11.26364000      10.00000000  F      -0.00668400       0.01349500      -0.07606500
Cu       6.25758000      11.26364000      10.00000000  F       0.00219100       0.01973600      -0.07703200
Cu       8.76061000      11.26364000      10.00000000  F      -0.00347300       0.00305900      -0.07124200
Cu      11.26364000      11.26364000      10.00000000  F       0.01490800       0.00492600      -0.07388500
Cu       0.00000000       0.00000000      11.76991000  F      -0.01744600       0.02682200       0.06237600
Cu       2.50303000       0.00000000      11.76991000  F       0.04152500       0.01186500       0.05061000
Cu       5.00606000       0.00000000      11.76991000  F       0.06406500       0.04766000       0.06097200
Cu       7.50909000       0.00000000      11.76991000  F      -0.00955700       0.02666700       0.05555200
Cu      10.01212000       0.00000000      11.76991000  F      -0.03723800       0.04720200       0.08069800
Cu       0.00000000       2.50303000      11.76991000  F      -0.10637400       0.01689400       0.04420100
Cu       2.50303000       2.50303000      11.76991000  F       0.06433200       0.01318000       0.02021000
Cu       5.00606000       2.50303000      11.76991000  F      -0.02391800      -0.08233900       0.04431900
Cu       7.50909000       2.50303000      11.76991000  F       0.01751400       0.02140200       0.25176200
Cu      10.01212000       2.50303000      11.76991000  F      -0.10366700       0.04651800       0.19762300
Cu       0.00000000       5.00606000      11.76991000  F      -0.06927500       0.03295200       0.01211000
Cu       2.50303000       5.00606000      11.76991000  F       0.05429100       0.02416900       0.01819400
Cu       5.00606000       5.00606000      11.76991000  F      -0.03749200       0.00981700       0.08411300
Cu       7.50909000       5.00606000      11.76991000  F      -0.01893400      -0.10803100       0.15904200
Cu      10.01212000       5.00606000      11.76991000  F      -0.05998900      -0.06914900       0.11727600
Cu       0.00000000       7.50909000      11.76991000  F      -0.03049300       0.03313000       0.04980300
Cu       2.50303000       7.50909000      11.76991000  F       0.06918200       0.05007200       0.02396100
Cu       5.00606000       7.50909000      11.76991000  F      -0.01615900       0.05804300       0.00401000
Cu       7.50909000       7.50909000      11.76991000  F      -0.03410500       0.02563500       0.01940900
Cu      10.01212000       7.50909000      11.76991000  F       0.10707900       0.08777300      -0.03178600
Cu       0.00000000      10.01212000      11.76991000  F      -0.02273600      -0.04353100       0.08806700
Cu       2.50303000      10.01212000      11.76991000  F       0.04558500      -0.03667800       0.10137100
Cu       5.00606000      10.01212000      11.76991000  F       0.05667200      -0.07885200       0.07523900
Cu       7.50909000      10.01212000      11.76991000  F       0.02442300      -0.11782300       0.04712000
Cu      10.01212000      10.01212000      11.76991000  F      -0.02954900      -0.09419300       0.06648700
Cu       1.25712000       1.23717000      13.57040000  T      -0.00097400       0.00013200       0.00020900
Cu       3.77633000       1.26252000      13.58785000  T       0.00016700       0.00012800       0.00024200
Cu       6.29702000       1.25791000      13.62764000  T       0.00023700       0.00033200       0.00071300
Cu       8.73098000       1.24153000      13.61667000  T      -0.00020000      -0.00182100      -0.00093300
Cu      11.25346000       1.26404000      13.58532000  T      -0.00112500       0.00042000      -0.00001600
Cu       1.23282000       3.74913000      13.55670000  T      -0.00062100      -0.00015800       0.00044800
Cu       3.73646000       3.76594000      13.58979000  T      -0.00043100      -0.00024100       0.00062700
Cu       6.22553000       3.73562000      13.57569000  T      -0.00246100       0.00041700      -0.00110400
Cu       8.67600000       3.76330000      13.62856000  T       0.00000500       0.00199800      -0.01167200
Cu      11.22536000       3.78315000      13.58784000  T       0.00068700      -0.00019900      -0.00011000
Cu       1.25971000       6.26433000      13.56291000  T       0.00068300      -0.00007200      -0.00002900
Cu       3.76970000       6.29024000      13.58268000  T       0.00120700      -0.00049900       0.00064000
Cu       6.27822000       6.23467000      13.56601000  T      -0.00014000       0.00046300      -0.00040400
Cu       8.76147000       6.26371000      13.53559000  T       0.00107100       0.00259800      -0.00095700
Cu      11.26015000       6.28763000      13.58810000  T       0.00091100      -0.00042000      -0.00065300
Cu       1.26274000       8.76686000      13.58179000  T      -0.00024100      -0.00016000      -0.00027700
Cu       3.78779000       8.76743000      13.61092000  T      -0.00000400      -0.00032500      -0.00018000
Cu       6.27588000       8.70616000      13.60437000  T      -0.00009500      -0.00005100      -0.00035200
Cu       8.76673000       8.71235000      13.61331000  T       0.00002200       0.00049400      -0.00005300
Cu      11.25679000       8.76401000      13.60811000  T      -0.00029700      -0.00019800      -0.00027800
Cu       1.25247000      11.25876000      13.59578000  T       0.00026600      -0.00012900      -0.00036500
Cu       3.75351000      11.27318000      13.57852000  T       0.00035800      -0.00029700      -0.00030900
Cu       6.26255000      11.24232000      13.56589000  T       0.00052400      -0.00027900      -0.00050300
Cu       8.76434000      11.23741000      13.56732000  T       0.00115500      -0.00015900      -0.00084600
Cu      11.27336000      11.27165000      13.57895000  T       0.00024500       0.00048100       0.00007000
Cu      12.52513000       0.00549000      15.36745000  T       0.00232400      -0.00083400       0.00004400
Cu       2.52874000       0.00524000      15.36278000  T       0.00202500       0.00014100       0.00040700
Cu       5.04093000       0.01667000      15.36102000  T       0.00286800      -0.00029800       0.00085200
Cu       7.53051000      12.27743000      15.39958000  T       0.00262300      -0.00288100      -0.00062600
Cu      10.02320000       0.01117000      15.35702000  T       0.00161900       0.00269800       0.00085200
Cu       0.00795000       2.50320000      15.34259000  T      -0.00629800      -0.00026900       0.00113700
Cu       2.46101000       2.50188000      15.34379000  T      -0.00341200       0.00019000       0.00070700
Cu       4.92774000       2.45536000      15.40734000  T      -0.00113200      -0.00050600       0.00202500
Cu       7.43257000       2.06437000      15.85137000  T      -0.00451900      -0.00905400       0.01548700
Cu      10.07093000       2.47094000      15.38387000  T      -0.01043800       0.00693600      -0.00248200
Cu      12.52117000       5.00708000      15.32906000  T       0.00058900      -0.00000600       0.00084200
Cu       2.42091000       5.00378000      15.34715000  T       0.00099000       0.00054500       0.00030000
Pd       4.93037000       5.06550000      15.48919000  T       0.00330500      -0.00476400       0.00134000
Y        7.50210000       4.89725000      17.21043000  T       0.00187800      -0.00055300      -0.00354300
Cu      10.07936000       5.11793000      15.40703000  T       0.00132900      -0.00487200       0.00051200
Cu       0.05427000       7.50562000      15.36092000  T       0.00064300      -0.00019600      -0.00033400
Cu       2.53727000       7.50004000      15.35922000  T      -0.00005300       0.00052400       0.00019200
Cu       5.03051000       7.63701000      15.49740000  T      -0.00077300      -0.00082700      -0.00076400
Cu       7.56610000       7.39463000      15.48598000  T       0.00097800       0.00086800      -0.00093700
Cu      10.08529000       7.60697000      15.48914000  T       0.00017100      -0.00088700      -0.00065600
Cu      12.50405000      10.00566000      15.37378000  T      -0.00037300      -0.00046900      -0.00010900
Cu       2.50772000      10.00534000      15.37110000  T      -0.00041300       0.00025000       0.00007900
Cu       5.01447000      10.08405000      15.36654000  T      -0.00078100      -0.00091200       0.00029200
Cu       7.50034000       9.88045000      15.35488000  T      -0.00065200      -0.00119600       0.00042000
Cu       9.99650000      10.06805000      15.36430000  T      -0.00047400       0.00078100       0.00004700
O        5.91087000       3.52699000      16.60764000  T      -0.00079800      -0.00016600       0.00404600
O        6.14773000       6.55873000      16.67412000  T      -0.00024300       0.00045400      -0.00173000
O        9.03690000       6.41994000      16.60161000  T      -0.00024300      -0.00164700      -0.00063600
O        8.64570000       3.78206000      15.72920000  T      -0.00135900      -0.00210300      -0.00051900
C        7.77412000       1.85019000      17.80008000  T       0.01411800       0.00846200       0.00849700
O        7.69186000       0.67471000      18.45387000  T       0.02177900       0.02541000       0.00764400
O        7.95221000       2.88978000      18.49442000  T       0.01867700       0.01864900      -0.00737700
H        7.76446000       0.85552000      19.42476000  T       0.02688400       0.01342400       0.00827000
108
Lattice="12.515153631 0.0 0.0 0.0 12.515153631 0.0 0.0 0.0 25.30973" Properties=species:S:1:pos:R:3:move_mask:L:1:forces:R:3 stress="0.007880491973285447 -7.229540020510579e-05 -0.00013871129881362954 -7.229540020510579e-05 0.007309830793905939 -9.056429741656609e-05 -0.00013871129881362954 -9.056429741656609e-05 0.0019526436470143256" free_energy=-444.8960475 energy=-444.89276139 pbc="T T T"
Cu       1.25152000       1.25152000      10.00000000  F       0.00604200      -0.02223800      -0.08518600
Cu       3.75455000       1.25152000      10.00000000  F       0.01291300      -0.00433800      -0.07368800
Cu       6.25758000       1.25152000      10.00000000  F      -0.01417200       0.00480500      -0.04935400
Cu       8.76061000       1.25152000      10.00000000  F       0.00609000       0.00224400      -0.04867600
Cu      11.26364000       1.25152000      10.00000000  F      -0.01052900      -0.00456800      -0.06488100
Cu       1.25152000       3.75455000      10.00000000  F       0.01317700       0.00357500      -0.06619800
Cu       3.75455000       3.75455000      10.00000000  F       0.00401200      -0.01009500      -0.05656000
Cu       6.25758000       3.75455000      10.00000000  F      -0.01524700      -0.01513600      -0.09255000
Cu       8.76061000       3.75455000      10.00000000  F       0.01945500      -0.01400700      -0.09917100
Cu      11.26364000       3.75455000      10.00000000  F      -0.01838100       0.00025900      -0.05370300
Cu       1.25152000       6.25758000      10.00000000  F       0.00013500      -0.00027800      -0.07951300
Cu       3.75455000       6.25758000      10.00000000  F       0.01449300       0.02063100      -0.06422200
Cu       6.25758000       6.25758000      10.00000000  F      -0.01698700       0.02094400      -0.07727900
Cu       8.76061000       6.25758000      10.00000000  F       0.01246100       0.02041900      -0.08171700
Cu      11.26364000       6.25758000      10.00000000  F      -0.00784300       0.01010400      -0.06340400
Cu       1.25152000       8.76061000      10.00000000  F      -0.00717800       0.00813000      -0.07383500
Cu       3.75455000       8.76061000      10.00000000  F       0.00821700      -0.02094700      -0.07675900
Cu       6.25758000       8.76061000      10.00000000  F      -0.01111400      -0.02381500      -0.06054600
Cu       8.76061000       8.76061000      10.00000000  F       0.00945800      -0.01170500      -0.05427500
Cu      11.26364000       8.76061000      10.00000000  F      -0.00024800      -0.01370800      -0.07952300
Cu       1.25152000      11.26364000      10.00000000  F      -0.00931600       0.01006000      -0.02159000
Cu       3.75455000      11.26364000      10.00000000  F      -0.00640400       0.01358700      -0.07578100
Cu       6.25758000      11.26364000      10.00000000  F       0.00193300       0.01978700      -0.07656000
Cu       8.76061000      11.26364000      10.00000000  F      -0.00391300       0.00295100      -0.07117100
Cu      11.26364000      11.26364000      10.00000000  F       0.01505800       0.00487400      -0.07424300
Cu       0.00000000       0.00000000      11.76991000  F      -0.01688700       0.02702200       0.06309300
Cu       2.50303000       0.00000000      11.76991000  F       0.04236400       0.01228700       0.05125400
Cu       5.00606000       0.00000000      11.76991000  F       0.06405300       0.04776800       0.06134700
Cu       7.50909000       0.00000000      11.76991000  F      -0.01067800       0.02667100       0.05595900
Cu      10.01212000       0.00000000      11.76991000  F      -0.03696600       0.04699400       0.08075500
Cu       0.00000000       2.50303000      11.76991000  F      -0.10571500       0.01679400       0.04461300
Cu       2.50303000       2.50303000      11.76991000  F       0.06488900       0.01304200       0.02068200
Cu       5.00606000       2.50303000      11.76991000  F      -0.02420500      -0.08294600       0.04457300
Cu       7.50909000       2.50303000      11.76991000  F       0.01510700       0.01967900       0.25004500
Cu      10.01212000       2.50303000      11.76991000  F      -0.10357300       0.04581400       0.19701100
Cu       0.00000000       5.00606000      11.76991000  F      -0.06847300       0.03254800       0.01229100
Cu       2.50303000       5.00606000      11.76991000  F       0.05509400       0.02379900       0.01878200
Cu       5.00606000       5.00606000      11.76991000  F      -0.03803200       0.00981400       0.08409300
Cu       7.50909000       5.00606000      11.76991000  F      -0.02130400      -0.10606700       0.15643300
Cu      10.01212000       5.00606000      11.76991000  F      -0.05911400      -0.06811200       0.11592400
Cu       0.00000000       7.50909000      11.76991000  F      -0.02973600       0.03315300       0.05003500
Cu       2.50303000       7.50909000      11.76991000  F       0.07007700       0.04983200       0.02452500
Cu       5.00606000       7.50909000      11.76991000  F      -0.01637000       0.05821700       0.00414800
Cu       7.50909000       7.50909000      11.76991000  F      -0.03486000       0.02592700       0.01944900
Cu      10.01212000       7.50909000      11.76991000  F       0.10719800       0.08823400      -0.03180300
Cu       0.00000000      10.01212000      11.76991000  F      -0.02227000      -0.04335400       0.08861100
Cu       2.50303000      10.01212000      11.76991000  F       0.04629500      -0.03651800       0.10166200
Cu       5.00606000      10.01212000      11.76991000  F       0.05690400      -0.07854900       0.07564900
Cu       7.50909000      10.01212000      11.76991000  F       0.02389500      -0.11765000       0.04736100
Cu      10.01212000      10.01212000      11.76991000  F      -0.02961900      -0.09430900       0.06663100
Cu       1.25699000       1.23719000      13.57050000  T      -0.00083000       0.00037000       0.00075700
Cu       3.77631000       1.26254000      13.58796000  T       0.00044800       0.00025100       0.00091000
Cu       6.29700000       1.25795000      13.62788000  T       0.00016300       0.00070700       0.00256300
Cu       8.73089000       1.24120000      13.61661000  T      -0.00157500      -0.00318300      -0.00092900
Cu      11.25326000       1.26409000      13.58543000  T      -0.00198600       0.00068800       0.00088200
Cu       1.23268000       3.74909000      13.55682000  T      -0.00050600      -0.00043100       0.00105200
Cu       3.73626000       3.76583000      13.58995000  T      -0.00137400      -0.00093600       0.00128200
Cu       6.22507000       3.73556000      13.57562000  T      -0.00496400       0.00012900      -0.00176100
Cu       8.67595000       3.76365000      13.62645000  T       0.00014200       0.00382200      -0.02024200
Cu      11.22542000       3.78308000      13.58788000  T       0.00111800      -0.00032400      -0.00015600
Cu       1.25984000       6.26432000      13.56293000  T       0.00189500      -0.00025400       0.00000900
Cu       3.76986000       6.29015000      13.58286000  T       0.00204500      -0.00099900       0.00131400
Cu       6.27821000       6.23470000      13.56597000  T      -0.00038400       0.00059600      -0.00069600
Cu       8.76169000       6.26412000      13.53551000  T       0.00189100       0.00462300      -0.00114700
Cu      11.26036000       6.28755000      13.58803000  T       0.00172900      -0.00078300      -0.00050500
Cu       1.26266000       8.76687000      13.58179000  T      -0.00005600      -0.00002500      -0.00036000
Cu       3.78771000       8.76743000      13.61092000  T      -0.00009800      -0.00018000      -0.00039800
Cu       6.27581000       8.70619000      13.60437000  T      -0.00061900       0.00048400      -0.00052200
Cu       8.76668000       8.71249000      13.61336000  T      -0.00054400       0.00168000       0.00009900
Cu      11.25673000       8.76398000      13.60811000  T      -0.00055800      -0.00024600      -0.00008500
Cu       1.25261000      11.25877000      13.59578000  T       0.00153700      -0.00001300      -0.00036700
Cu       3.75363000      11.27320000      13.57854000  T       0.00155100       0.00015400      -0.00002100
Cu       6.26267000      11.24234000      13.56595000  T       0.00070500      -0.00021200      -0.00013400
Cu       8.76456000      11.23736000      13.56725000  T       0.00148400      -0.00057100      -0.00095500
Cu      11.27350000      11.27170000      13.57901000  T       0.00084100       0.00067300       0.00057000
Cu      12.52569000       0.00534000      15.36747000  T       0.00560700      -0.00185100       0.00028800
Cu       2.52924000       0.00531000      15.36285000  T       0.00535400       0.00040600       0.00025600
Cu       5.04153000       0.01660000      15.36120000  T       0.00644300      -0.00073900       0.00132400
Cu       7.53119000      12.27709000      15.39953000  T       0.00599500      -0.00523900      -0.00112700
Cu      10.02370000       0.01156000      15.35717000  T       0.00389900       0.00489300       0.00190800
Cu       0.00666000       2.50312000      15.34276000  T      -0.01276500      -0.00093800       0.00209900
Cu       2.46021000       2.50191000      15.34393000  T      -0.00733800       0.00022200       0.00090300
Cu       4.92726000       2.45523000      15.40785000  T      -0.00247400      -0.00069600       0.00448000
Cu       7.43134000       2.06293000      15.85400000  T      -0.01142500      -0.01437500       0.02564800
Cu      10.06888000       2.47198000      15.38356000  T      -0.01767100       0.00827800      -0.00536800
Cu      12.52134000       5.00704000      15.32923000  T       0.00201000      -0.00004000       0.00173200
Cu       2.42110000       5.00388000      15.34721000  T       0.00228900       0.00105400       0.00028700
Pd       4.93069000       5.06504000      15.48937000  T       0.01274400      -0.01772600       0.00594500
Y        7.50237000       4.89738000      17.20892000  T       0.00251500       0.00183800      -0.00773600
Cu      10.07981000       5.11714000      15.40707000  T       0.00342600      -0.00778200       0.00043000
Cu       0.05434000       7.50557000      15.36092000  T       0.00105700      -0.00014300      -0.00018200
Cu       2.53720000       7.50018000      15.35926000  T      -0.00032100       0.00143300       0.00001500
Cu       5.03040000       7.63680000      15.49730000  T      -0.00110400      -0.00178700      -0.00155600
Cu       7.56632000       7.39476000      15.48583000  T       0.00154700       0.00180900      -0.00197000
Cu      10.08537000       7.60688000      15.48902000  T       0.00089400      -0.00118700      -0.00151900
Cu      12.50391000      10.00558000      15.37381000  T      -0.00103400      -0.00085400       0.00023400
Cu       2.50758000      10.00544000      15.37111000  T      -0.00084000       0.00105700      -0.00014500
Cu       5.01427000      10.08392000      15.36658000  T      -0.00153700      -0.00102000      -0.00016400
Cu       7.50020000       9.88039000      15.35498000  T      -0.00150900      -0.00140800       0.00057200
Cu       9.99639000      10.06815000      15.36436000  T      -0.00126700       0.00160400       0.00049800
O        5.91040000       3.52569000      16.60918000  T      -0.00327200      -0.00174800       0.00244500
O        6.14798000       6.55902000      16.67385000  T      -0.00181800       0.00115700      -0.00352900
O        9.03777000       6.41905000      16.60136000  T       0.00047800       0.00017600      -0.00148600
O        8.64140000       3.78337000      15.72304000  T       0.00098800      -0.00228400      -0.00041600
C        7.78020000       1.85269000      17.80161000  T       0.01342000       0.01872700       0.00679800
O        7.69976000       0.67987000      18.45944000  T       0.01970400       0.02381700       0.00182600
O        7.96051000       2.89449000      18.49234000  T       0.01186100       0.02297000      -0.00167800
H        7.77488000       0.86424000      19.42953000  T       0.03190400       0.01273400       0.00529100
108
Lattice="12.515153631 0.0 0.0 0.0 12.515153631 0.0 0.0 0.0 25.30973" Properties=species:S:1:pos:R:3:move_mask:L:1:forces:R:3 stress="0.00783709476033318 -7.153393609174803e-05 -0.00012987332189137884 -7.153393609174803e-05 0.007253588555172606 -8.819876545785632e-05 -0.00012987332189137884 -8.819876545785632e-05 0.0018928000575153569" free_energy=-444.89720073 energy=-444.89393357 pbc="T T T"
Cu       1.25152000       1.25152000      10.00000000  F       0.00579300      -0.02205100      -0.08496900
Cu       3.75455000       1.25152000      10.00000000  F       0.01271900      -0.00415700      -0.07371200
Cu       6.25758000       1.25152000      10.00000000  F      -0.01380400       0.00498800      -0.04958100
Cu       8.76061000       1.25152000      10.00000000  F       0.00631800       0.00253700      -0.04870100
Cu      11.26364000       1.25152000      10.00000000  F      -0.01039200      -0.00440600      -0.06442900
Cu       1.25152000       3.75455000      10.00000000  F       0.01303600       0.00357100      -0.06609300
Cu       3.75455000       3.75455000      10.00000000  F       0.00377400      -0.01003000      -0.05661400
Cu       6.25758000       3.75455000      10.00000000  F      -0.01485600      -0.01511800      -0.09280000
Cu       8.76061000       3.75455000      10.00000000  F       0.01976700      -0.01399200      -0.09918600
Cu      11.26364000       3.75455000      10.00000000  F      -0.01842100       0.00025700      -0.05340600
Cu       1.25152000       6.25758000      10.00000000  F      -0.00011100      -0.00037200      -0.07944400
Cu       3.75455000       6.25758000      10.00000000  F       0.01437800       0.02043400      -0.06439600
Cu       6.25758000       6.25758000      10.00000000  F      -0.01672400       0.02077800      -0.07743000
Cu       8.76061000       6.25758000      10.00000000  F       0.01277200       0.02016500      -0.08172100
Cu      11.26364000       6.25758000      10.00000000  F      -0.00776500       0.00998800      -0.06312000
Cu       1.25152000       8.76061000      10.00000000  F      -0.00752000       0.00807200      -0.07374200
Cu       3.75455000       8.76061000      10.00000000  F       0.00810100      -0.02094500      -0.07713200
Cu       6.25758000       8.76061000      10.00000000  F      -0.01093600      -0.02389900      -0.06085800
Cu       8.76061000       8.76061000      10.00000000  F       0.00987300      -0.01170600      -0.05425000
Cu      11.26364000       8.76061000      10.00000000  F      -0.00005500      -0.01364600      -0.07931200
Cu       1.25152000      11.26364000      10.00000000  F      -0.00961300       0.01024600      -0.02154000
Cu       3.75455000      11.26364000      10.00000000  F      -0.00658400       0.01372300      -0.07597000
Cu       6.25758000      11.26364000      10.00000000  F       0.00217800       0.01998800      -0.07692200
Cu       8.76061000      11.26364000      10.00000000  F      -0.00350700       0.00307500      -0.07119100
Cu      11.26364000      11.26364000      10.00000000  F       0.01522200       0.00498000      -0.07392700
Cu       0.00000000       0.00000000      11.76991000  F      -0.01728600       0.02745900       0.06321700
Cu       2.50303000       0.00000000      11.76991000  F       0.04200500       0.01301900       0.05134700
Cu       5.00606000       0.00000000      11.76991000  F       0.06431600       0.04859000       0.06143400
Cu       7.50909000       0.00000000      11.76991000  F      -0.01060000       0.02724800       0.05589500
Cu      10.01212000       0.00000000      11.76991000  F      -0.03606800       0.04732400       0.08044900
Cu       0.00000000       2.50303000      11.76991000  F      -0.10602200       0.01669000       0.04449800
Cu       2.50303000       2.50303000      11.76991000  F       0.06436300       0.01316000       0.02096500
Cu       5.00606000       2.50303000      11.76991000  F      -0.02420200      -0.08329500       0.04463200
Cu       7.50909000       2.50303000      11.76991000  F       0.01388800       0.01833100       0.24830800
Cu      10.01212000       2.50303000      11.76991000  F      -0.10283200       0.04496000       0.19598800
Cu       0.00000000       5.00606000      11.76991000  F      -0.06855100       0.03223600       0.01225900
Cu       2.50303000       5.00606000      11.76991000  F       0.05499800       0.02335800       0.01918600
Cu       5.00606000       5.00606000      11.76991000  F      -0.03853000       0.00983900       0.08389200
Cu       7.50909000       5.00606000      11.76991000  F      -0.02238900      -0.10413800       0.15393900
Cu      10.01212000       5.00606000      11.76991000  F      -0.05754600      -0.06689000       0.11423400
Cu       0.00000000       7.50909000      11.76991000  F      -0.02972300       0.03303600       0.04987500
Cu       2.50303000       7.50909000      11.76991000  F       0.06995700       0.04923700       0.02469600
Cu       5.00606000       7.50909000      11.76991000  F      -0.01650000       0.05781600       0.00393300
Cu       7.50909000       7.50909000      11.76991000  F      -0.03439000       0.02582400       0.01925600
Cu      10.01212000       7.50909000      11.76991000  F       0.10799400       0.08840300      -0.03196200
Cu       0.00000000      10.01212000      11.76991000  F      -0.02263300      -0.04315000       0.08856800
Cu       2.50303000      10.01212000      11.76991000  F       0.04595100      -0.03647800       0.10119600
Cu       5.00606000      10.01212000      11.76991000  F       0.05688500      -0.07851400       0.07528900
Cu       7.50909000      10.01212000      11.76991000  F       0.02449200      -0.11757500       0.04704300
Cu      10.01212000      10.01212000      11.76991000  F      -0.02860200      -0.09435900       0.06616500
Cu       1.25689000       1.23725000      13.57060000  T      -0.00128700       0.00024100       0.00055700
Cu       3.77635000       1.26259000      13.58808000  T       0.00000300       0.00026700       0.00092600
Cu       6.29703000       1.25811000      13.62821000  T       0.00107800       0.00050100       0.00213500
Cu       8.73067000       1.24096000      13.61656000  T      -0.00046100      -0.00117200       0.00024900
Cu      11.25304000       1.26420000      13.58555000  T      -0.00094300      -0.00011100       0.00015500
Cu       1.23257000       3.74903000      13.55696000  T      -0.00107800      -0.00017300       0.00071100
Cu       3.73608000       3.76571000      13.59010000  T      -0.00097500      -0.00047900       0.00101100
Cu       6.22463000       3.73556000      13.57547000  T      -0.00087400      -0.00012100      -0.00003400
Cu       8.67596000       3.76407000      13.62439000  T       0.00065400       0.00131900      -0.00550400
Cu      11.22552000       3.78305000      13.58787000  T       0.00051500      -0.00023400      -0.00041500
Cu       1.26004000       6.26428000      13.56295000  T       0.00009200      -0.00018600       0.00014000
Cu       3.77010000       6.29000000      13.58302000  T       0.00055200      -0.00059700       0.00094900
Cu       6.27821000       6.23470000      13.56592000  T       0.00062100       0.00018000       0.00012000
Cu       8.76190000       6.26451000      13.53545000  T       0.00133800       0.00172000      -0.00024600
Cu      11.26057000       6.28741000      13.58803000  T       0.00071700      -0.00016800      -0.00019800
Cu       1.26265000       8.76686000      13.58176000  T      -0.00094700       0.00000600      -0.00004600
Cu       3.78766000       8.76740000      13.61086000  T      -0.00036700      -0.00011300       0.00008800
Cu       6.27571000       8.70621000      13.60431000  T       0.00047700       0.00040600       0.00009300
Cu       8.76663000       8.71265000      13.61339000  T       0.00046900       0.00119800       0.00004500
Cu      11.25669000       8.76392000      13.60813000  T      -0.00048300       0.00020400      -0.00014300
Cu       1.25281000      11.25878000      13.59574000  T      -0.00027600       0.00006600       0.00000900
Cu       3.75379000      11.27324000      13.57852000  T       0.00056600       0.00024100       0.00043000
Cu       6.26274000      11.24233000      13.56592000  T       0.00130700       0.00003400       0.00040100
Cu       8.76477000      11.23731000      13.56715000  T       0.00146800      -0.00024500      -0.00021800
Cu      11.27364000      11.27179000      13.57911000  T      -0.00007700       0.00026800       0.00038200
Cu      12.52633000       0.00516000      15.36752000  T       0.00210200      -0.00071900      -0.00030200
Cu       2.52985000       0.00538000      15.36290000  T       0.00239400       0.00037800       0.00025300
Cu       5.04224000       0.01655000      15.36138000  T       0.00350100      -0.00005400       0.00101000
Cu       7.53188000      12.27653000      15.39943000  T       0.00335600      -0.00226700      -0.00077300
Cu      10.02416000       0.01212000      15.35741000  T       0.00167700       0.00193400       0.00029100
Cu       0.00524000       2.50303000      15.34300000  T      -0.00570200      -0.00049400       0.00052300
Cu       2.45939000       2.50195000      15.34408000  T      -0.00352900       0.00024500       0.00068400
Cu       4.92687000       2.45513000      15.40836000  T      -0.00128500      -0.00050000       0.00207600
Cu       7.42998000       2.06140000      15.85694000  T      -0.00473000      -0.00452900       0.01145900
Cu      10.06690000       2.47281000      15.38294000  T      -0.00630200       0.00099800      -0.00355800
Cu      12.52158000       5.00702000      15.32943000  T       0.00095200      -0.00002600       0.00038100
Cu       2.42137000       5.00399000      15.34729000  T       0.00093900       0.00045400       0.00027200
Pd       4.93112000       5.06443000      15.48957000  T       0.00100300      -0.00217600       0.00184900
Y        7.50280000       4.89791000      17.20726000  T       0.00026000      -0.00120900       0.00078500
Cu      10.08011000       5.11629000      15.40707000  T       0.00146600      -0.00249600      -0.00077000
Cu       0.05446000       7.50552000      15.36093000  T       0.00020000      -0.00008900      -0.00044100
Cu       2.53717000       7.50031000      15.35928000  T      -0.00041000       0.00052100       0.00012600
Cu       5.03025000       7.63656000      15.49711000  T      -0.00086500      -0.00049300      -0.00113700
Cu       7.56649000       7.39492000      15.48561000  T       0.00064700       0.00140900      -0.00151800
Cu      10.08551000       7.60669000      15.48886000  T       0.00110500       0.00006200      -0.00163600
Cu      12.50382000      10.00547000      15.37386000  T      -0.00089900      -0.00033800      -0.00030600
Cu       2.50749000      10.00554000      15.37111000  T      -0.00064600       0.00044700       0.00013900
Cu       5.01408000      10.08379000      15.36659000  T      -0.00039100      -0.00038800       0.00018200
Cu       7.50002000       9.88019000      15.35510000  T      -0.00026100      -0.00057900       0.00009800
Cu       9.99626000      10.06831000      15.36447000  T      -0.00060000       0.00100700      -0.00029200
O        5.91001000       3.52474000      16.61044000  T      -0.00028700      -0.00235900       0.00239300
O        6.14795000       6.55933000      16.67338000  T      -0.00044400       0.00132600      -0.00181000
O        9.03840000       6.41866000      16.60094000  T       0.00136100       0.00108000      -0.00167000
O        8.63923000       3.78387000      15.71980000  T      -0.00144600      -0.00051600      -0.00398000
C        7.78593000       1.85683000      17.80347000  T       0.00769300       0.00631200       0.00271800
O        7.70770000       0.68540000      18.46392000  T       0.02214200       0.01399400       0.01096600
O        7.96768000       2.90011000      18.49159000  T       0.01569500       0.01891000       0.00258800
H        7.78649000       0.87166000      19.43341000  T       0.02659900       0.01249000       0.00395000
